
     Program PWSCF v.7.0 starts on 24Jun2025 at 23:55:41 

     This program is part of the open-source Quantum ESPRESSO suite
     for quantum simulation of materials; please cite
         "P. Giannozzi et al., J. Phys.:Condens. Matter 21 395502 (2009);
         "P. Giannozzi et al., J. Phys.:Condens. Matter 29 465901 (2017);
         "P. Giannozzi et al., J. Chem. Phys. 152 154105 (2020);
          URL http://www.quantum-espresso.org", 
     in publications or presentations arising from this work. More details at
     http://www.quantum-espresso.org/quote

     Parallel version (MPI), running on     8 processors

     MPI processes distributed on     1 nodes
     R & G space division:  proc/nbgrp/npool/nimage =       8
     2558 MiB available memory on the printing compute node when the environment starts

     Waiting for input...
     Reading input from standard input

     Current dimensions of program PWSCF are:
     Max number of different atomic species (ntypx) = 10
     Max number of k-points (npk) =  40000
     Max angular momentum in pseudopotentials (lmaxx) =  4

     Atomic positions and unit cell read from directory:
     ./bi/snse.save/
     Atomic positions from file used, from input discarded

     file Sn.pbe-dn-kjpaw_psl.1.0.0.UPF: wavefunction(s)  5S 5P 4D renormalized
     file Se.pbe-dn-kjpaw_psl.1.0.0.UPF: wavefunction(s)  4S 4P 3D renormalized

     IMPORTANT: XC functional enforced from input :
     Exchange-correlation= PBE
                           (   1   4   3   4   0   0   0)
     Any further DFT definition will be discarded
     Please, verify this is what you really want

     Message from routine setup:
     using ibrav=0 with symmetry is DISCOURAGED, use correct ibrav instead

     Subspace diagonalization in iterative solution of the eigenvalue problem:
     a serial algorithm will be used


     Parallelization info
     --------------------
     sticks:   dense  smooth     PW     G-vecs:    dense   smooth      PW
     Min         276     137     40                84750    29965    4674
     Max         277     138     41                84775    29988    4695
     Sum        2209    1101    323               678045   239803   37457

     Using Slab Decomposition



     bravais-lattice index     =            0
     lattice parameter (alat)  =       7.7975  a.u.
     unit-cell volume          =    5018.0564 (a.u.)^3
     number of atoms/cell      =           16
     number of atomic types    =            2
     number of electrons       =       240.00
     number of Kohn-Sham states=          150
     kinetic-energy cutoff     =      50.0000  Ry
     charge density cutoff     =     400.0000  Ry
     Exchange-correlation= PBE
                           (   1   4   3   4   0   0   0)

     celldm(1)=   7.797484  celldm(2)=   0.000000  celldm(3)=   0.000000
     celldm(4)=   0.000000  celldm(5)=   0.000000  celldm(6)=   0.000000

     crystal axes: (cart. coord. in units of alat)
               a(1) = (   1.000000   0.000000   0.000000 )  
               a(2) = (   0.000000   1.139268   0.000000 )  
               a(3) = (   0.000000   0.000000   9.290647 )  

     reciprocal axes: (cart. coord. in units 2 pi/alat)
               b(1) = (  1.000000  0.000000  0.000000 )  
               b(2) = (  0.000000  0.877756  0.000000 )  
               b(3) = (  0.000000  0.000000  0.107635 )  


     PseudoPot. # 1 for Sn read from file:
     ./Sn.pbe-dn-kjpaw_psl.1.0.0.UPF
     MD5 check sum: d69e53522d199ccc4f306ae57c56b55d
     Pseudo is Projector augmented-wave + core cor, Zval = 14.0
     Generated using &quot;atomic&quot; code by A. Dal Corso  v.6.3
     Shape of augmentation charge: PSQ
     Using radial grid of 1243 points,  6 beta functions with: 
                l(1) =   0
                l(2) =   0
                l(3) =   1
                l(4) =   1
                l(5) =   2
                l(6) =   2
     Q(r) pseudized with 0 coefficients 


     PseudoPot. # 2 for Se read from file:
     ./Se.pbe-dn-kjpaw_psl.1.0.0.UPF
     MD5 check sum: 4f8dd506ed2a5e2391ebbdbef81d58a8
     Pseudo is Projector augmented-wave + core cor, Zval = 16.0
     Generated using &quot;atomic&quot; code by A. Dal Corso  v.6.3
     Shape of augmentation charge: PSQ
     Using radial grid of 1211 points,  6 beta functions with: 
                l(1) =   0
                l(2) =   0
                l(3) =   1
                l(4) =   1
                l(5) =   2
                l(6) =   2
     Q(r) pseudized with 0 coefficients 


     atomic species   valence    mass     pseudopotential
        Sn            14.00   118.71000     Sn( 1.00)
        Se            16.00    78.96000     Se( 1.00)

      2 Sym. Ops. (no inversion) found ( 1 have fractional translation)


                                    s                        frac. trans.

      isym =  1     identity                                     

 cryst.   s( 1) = (     1          0          0      )
                  (     0          1          0      )
                  (     0          0          1      )

 cart.    s( 1) = (  1.0000000  0.0000000  0.0000000 )
                  (  0.0000000  1.0000000  0.0000000 )
                  (  0.0000000  0.0000000  1.0000000 )


      isym =  2     inv. 180 deg rotation - cart. axis [1,0,0]   

 cryst.   s( 2) = (    -1          0          0      )    f =(  0.5000000 )
                  (     0          1          0      )       (  0.0000000 )
                  (     0          0          1      )       (  0.0000000 )

 cart.    s( 2) = ( -1.0000000  0.0000000  0.0000000 )    f =(  0.5000000 )
                  (  0.0000000  1.0000000  0.0000000 )       (  0.0000000 )
                  (  0.0000000  0.0000000  1.0000000 )       (  0.0000000 )


   Cartesian axes

     site n.     atom                  positions (alat units)
         1           Sn  tau(   1) = (   0.7500000   0.4289964   1.7492425  )
         2           Sn  tau(   2) = (   0.2500000   0.9986306   2.4910929  )
         3           Sn  tau(   3) = (   0.2500000   0.7102720   1.0776478  )
         4           Sn  tau(   4) = (   0.7500000   0.1406378   0.3357974  )
         5           Se  tau(   5) = (   0.2500000   0.5800948   0.4199431  )
         6           Se  tau(   6) = (   0.2500000   1.1288079   1.8333882  )
         7           Se  tau(   7) = (   0.7500000   0.0104605   0.9935019  )
         8           Se  tau(   8) = (   0.7500000   0.5591737   2.4069472  )
         9           Sn  tau(   9) = (   0.7500000   0.4289964   4.5761328  )
        10           Sn  tau(  10) = (   0.2500000   0.9986306   5.3179830  )
        11           Sn  tau(  11) = (   0.2500000   0.7102720   3.9045379  )
        12           Sn  tau(  12) = (   0.7500000   0.1406378   3.1626876  )
        13           Se  tau(  13) = (   0.2500000   0.5800948   3.2468333  )
        14           Se  tau(  14) = (   0.2500000   1.1288079   4.6602785  )
        15           Se  tau(  15) = (   0.7500000   0.0104605   3.8203922  )
        16           Se  tau(  16) = (   0.7500000   0.5591737   5.2338374  )

   Crystallographic axes

     site n.     atom                  positions (cryst. coord.)
         1           Sn  tau(   1) = (  0.7500000  0.3765543  0.1882799  )
         2           Sn  tau(   2) = (  0.2500000  0.8765543  0.2681291  )
         3           Sn  tau(   3) = (  0.2500000  0.6234457  0.1159928  )
         4           Sn  tau(   4) = (  0.7500000  0.1234457  0.0361436  )
         5           Se  tau(   5) = (  0.2500000  0.5091818  0.0452006  )
         6           Se  tau(   6) = (  0.2500000  0.9908182  0.1973370  )
         7           Se  tau(   7) = (  0.7500000  0.0091818  0.1069357  )
         8           Se  tau(   8) = (  0.7500000  0.4908182  0.2590721  )
         9           Sn  tau(   9) = (  0.7500000  0.3765543  0.4925526  )
        10           Sn  tau(  10) = (  0.2500000  0.8765543  0.5724018  )
        11           Sn  tau(  11) = (  0.2500000  0.6234457  0.4202654  )
        12           Sn  tau(  12) = (  0.7500000  0.1234457  0.3404163  )
        13           Se  tau(  13) = (  0.2500000  0.5091818  0.3494733  )
        14           Se  tau(  14) = (  0.2500000  0.9908182  0.5016097  )
        15           Se  tau(  15) = (  0.7500000  0.0091818  0.4112084  )
        16           Se  tau(  16) = (  0.7500000  0.4908182  0.5633448  )

     number of k points=    61
                       cart. coord. in units 2pi/alat
        k(    1) = (   0.0000000   0.0000000   0.0000000), wk =   0.0327869
        k(    2) = (   0.0250000   0.0000000   0.0000000), wk =   0.0327869
        k(    3) = (   0.0500000   0.0000000   0.0000000), wk =   0.0327869
        k(    4) = (   0.0750000   0.0000000   0.0000000), wk =   0.0327869
        k(    5) = (   0.1000000   0.0000000   0.0000000), wk =   0.0327869
        k(    6) = (   0.1250000   0.0000000   0.0000000), wk =   0.0327869
        k(    7) = (   0.1500000   0.0000000   0.0000000), wk =   0.0327869
        k(    8) = (   0.1750000   0.0000000   0.0000000), wk =   0.0327869
        k(    9) = (   0.2000000   0.0000000   0.0000000), wk =   0.0327869
        k(   10) = (   0.2250000   0.0000000   0.0000000), wk =   0.0327869
        k(   11) = (   0.2500000   0.0000000   0.0000000), wk =   0.0327869
        k(   12) = (   0.2750000   0.0000000   0.0000000), wk =   0.0327869
        k(   13) = (   0.3000000   0.0000000   0.0000000), wk =   0.0327869
        k(   14) = (   0.3250000   0.0000000   0.0000000), wk =   0.0327869
        k(   15) = (   0.3500000   0.0000000   0.0000000), wk =   0.0327869
        k(   16) = (   0.3750000   0.0000000   0.0000000), wk =   0.0327869
        k(   17) = (   0.4000000   0.0000000   0.0000000), wk =   0.0327869
        k(   18) = (   0.4250000   0.0000000   0.0000000), wk =   0.0327869
        k(   19) = (   0.4500000   0.0000000   0.0000000), wk =   0.0327869
        k(   20) = (   0.4750000   0.0000000   0.0000000), wk =   0.0327869
        k(   21) = (   0.5000000   0.0000000   0.0000000), wk =   0.0327869
        k(   22) = (   0.5000000   0.0219439   0.0000000), wk =   0.0327869
        k(   23) = (   0.5000000   0.0438878   0.0000000), wk =   0.0327869
        k(   24) = (   0.5000000   0.0658317   0.0000000), wk =   0.0327869
        k(   25) = (   0.5000000   0.0877756   0.0000000), wk =   0.0327869
        k(   26) = (   0.5000000   0.1097195   0.0000000), wk =   0.0327869
        k(   27) = (   0.5000000   0.1316634   0.0000000), wk =   0.0327869
        k(   28) = (   0.5000000   0.1536073   0.0000000), wk =   0.0327869
        k(   29) = (   0.5000000   0.1755513   0.0000000), wk =   0.0327869
        k(   30) = (   0.5000000   0.1974952   0.0000000), wk =   0.0327869
        k(   31) = (   0.5000000   0.2194391   0.0000000), wk =   0.0327869
        k(   32) = (   0.5000000   0.2413830   0.0000000), wk =   0.0327869
        k(   33) = (   0.5000000   0.2633269   0.0000000), wk =   0.0327869
        k(   34) = (   0.5000000   0.2852708   0.0000000), wk =   0.0327869
        k(   35) = (   0.5000000   0.3072147   0.0000000), wk =   0.0327869
        k(   36) = (   0.5000000   0.3291586   0.0000000), wk =   0.0327869
        k(   37) = (   0.5000000   0.3511025   0.0000000), wk =   0.0327869
        k(   38) = (   0.5000000   0.3730464   0.0000000), wk =   0.0327869
        k(   39) = (   0.5000000   0.3949903   0.0000000), wk =   0.0327869
        k(   40) = (   0.5000000   0.4169342   0.0000000), wk =   0.0327869
        k(   41) = (   0.5000000   0.4388781   0.0000000), wk =   0.0327869
        k(   42) = (   0.4750000   0.4169342   0.0000000), wk =   0.0327869
        k(   43) = (   0.4500000   0.3949903   0.0000000), wk =   0.0327869
        k(   44) = (   0.4250000   0.3730464   0.0000000), wk =   0.0327869
        k(   45) = (   0.4000000   0.3511025   0.0000000), wk =   0.0327869
        k(   46) = (   0.3750000   0.3291586   0.0000000), wk =   0.0327869
        k(   47) = (   0.3500000   0.3072147   0.0000000), wk =   0.0327869
        k(   48) = (   0.3250000   0.2852708   0.0000000), wk =   0.0327869
        k(   49) = (   0.3000000   0.2633269   0.0000000), wk =   0.0327869
        k(   50) = (   0.2750000   0.2413830   0.0000000), wk =   0.0327869
        k(   51) = (   0.2500000   0.2194391   0.0000000), wk =   0.0327869
        k(   52) = (   0.2250000   0.1974952   0.0000000), wk =   0.0327869
        k(   53) = (   0.2000000   0.1755513   0.0000000), wk =   0.0327869
        k(   54) = (   0.1750000   0.1536073   0.0000000), wk =   0.0327869
        k(   55) = (   0.1500000   0.1316634   0.0000000), wk =   0.0327869
        k(   56) = (   0.1250000   0.1097195   0.0000000), wk =   0.0327869
        k(   57) = (   0.1000000   0.0877756   0.0000000), wk =   0.0327869
        k(   58) = (   0.0750000   0.0658317   0.0000000), wk =   0.0327869
        k(   59) = (   0.0500000   0.0438878   0.0000000), wk =   0.0327869
        k(   60) = (   0.0250000   0.0219439   0.0000000), wk =   0.0327869
        k(   61) = (   0.0000000   0.0000000   0.0000000), wk =   0.0327869

                       cryst. coord.
        k(    1) = (   0.0000000   0.0000000   0.0000000), wk =   0.0327869
        k(    2) = (   0.0250000   0.0000000   0.0000000), wk =   0.0327869
        k(    3) = (   0.0500000   0.0000000   0.0000000), wk =   0.0327869
        k(    4) = (   0.0750000   0.0000000   0.0000000), wk =   0.0327869
        k(    5) = (   0.1000000   0.0000000   0.0000000), wk =   0.0327869
        k(    6) = (   0.1250000   0.0000000   0.0000000), wk =   0.0327869
        k(    7) = (   0.1500000   0.0000000   0.0000000), wk =   0.0327869
        k(    8) = (   0.1750000   0.0000000   0.0000000), wk =   0.0327869
        k(    9) = (   0.2000000   0.0000000   0.0000000), wk =   0.0327869
        k(   10) = (   0.2250000   0.0000000   0.0000000), wk =   0.0327869
        k(   11) = (   0.2500000   0.0000000   0.0000000), wk =   0.0327869
        k(   12) = (   0.2750000   0.0000000   0.0000000), wk =   0.0327869
        k(   13) = (   0.3000000   0.0000000   0.0000000), wk =   0.0327869
        k(   14) = (   0.3250000   0.0000000   0.0000000), wk =   0.0327869
        k(   15) = (   0.3500000   0.0000000   0.0000000), wk =   0.0327869
        k(   16) = (   0.3750000   0.0000000   0.0000000), wk =   0.0327869
        k(   17) = (   0.4000000   0.0000000   0.0000000), wk =   0.0327869
        k(   18) = (   0.4250000   0.0000000   0.0000000), wk =   0.0327869
        k(   19) = (   0.4500000   0.0000000   0.0000000), wk =   0.0327869
        k(   20) = (   0.4750000   0.0000000   0.0000000), wk =   0.0327869
        k(   21) = (   0.5000000   0.0000000   0.0000000), wk =   0.0327869
        k(   22) = (   0.5000000   0.0250000   0.0000000), wk =   0.0327869
        k(   23) = (   0.5000000   0.0500000   0.0000000), wk =   0.0327869
        k(   24) = (   0.5000000   0.0750000   0.0000000), wk =   0.0327869
        k(   25) = (   0.5000000   0.1000000   0.0000000), wk =   0.0327869
        k(   26) = (   0.5000000   0.1250000   0.0000000), wk =   0.0327869
        k(   27) = (   0.5000000   0.1500000   0.0000000), wk =   0.0327869
        k(   28) = (   0.5000000   0.1750000   0.0000000), wk =   0.0327869
        k(   29) = (   0.5000000   0.2000000   0.0000000), wk =   0.0327869
        k(   30) = (   0.5000000   0.2250000   0.0000000), wk =   0.0327869
        k(   31) = (   0.5000000   0.2500000   0.0000000), wk =   0.0327869
        k(   32) = (   0.5000000   0.2750000   0.0000000), wk =   0.0327869
        k(   33) = (   0.5000000   0.3000000   0.0000000), wk =   0.0327869
        k(   34) = (   0.5000000   0.3250000   0.0000000), wk =   0.0327869
        k(   35) = (   0.5000000   0.3500000   0.0000000), wk =   0.0327869
        k(   36) = (   0.5000000   0.3750000   0.0000000), wk =   0.0327869
        k(   37) = (   0.5000000   0.4000000   0.0000000), wk =   0.0327869
        k(   38) = (   0.5000000   0.4250000   0.0000000), wk =   0.0327869
        k(   39) = (   0.5000000   0.4500000   0.0000000), wk =   0.0327869
        k(   40) = (   0.5000000   0.4750000   0.0000000), wk =   0.0327869
        k(   41) = (   0.5000000   0.5000000   0.0000000), wk =   0.0327869
        k(   42) = (   0.4750000   0.4750000   0.0000000), wk =   0.0327869
        k(   43) = (   0.4500000   0.4500000   0.0000000), wk =   0.0327869
        k(   44) = (   0.4250000   0.4250000   0.0000000), wk =   0.0327869
        k(   45) = (   0.4000000   0.4000000   0.0000000), wk =   0.0327869
        k(   46) = (   0.3750000   0.3750000   0.0000000), wk =   0.0327869
        k(   47) = (   0.3500000   0.3500000   0.0000000), wk =   0.0327869
        k(   48) = (   0.3250000   0.3250000   0.0000000), wk =   0.0327869
        k(   49) = (   0.3000000   0.3000000   0.0000000), wk =   0.0327869
        k(   50) = (   0.2750000   0.2750000   0.0000000), wk =   0.0327869
        k(   51) = (   0.2500000   0.2500000   0.0000000), wk =   0.0327869
        k(   52) = (   0.2250000   0.2250000   0.0000000), wk =   0.0327869
        k(   53) = (   0.2000000   0.2000000   0.0000000), wk =   0.0327869
        k(   54) = (   0.1750000   0.1750000   0.0000000), wk =   0.0327869
        k(   55) = (   0.1500000   0.1500000   0.0000000), wk =   0.0327869
        k(   56) = (   0.1250000   0.1250000   0.0000000), wk =   0.0327869
        k(   57) = (   0.1000000   0.1000000   0.0000000), wk =   0.0327869
        k(   58) = (   0.0750000   0.0750000   0.0000000), wk =   0.0327869
        k(   59) = (   0.0500000   0.0500000   0.0000000), wk =   0.0327869
        k(   60) = (   0.0250000   0.0250000   0.0000000), wk =   0.0327869
        k(   61) = (   0.0000000   0.0000000   0.0000000), wk =   0.0327869

     Dense  grid:   678045 G-vectors     FFT dimensions: (  50,  60, 480)

     Smooth grid:   239803 G-vectors     FFT dimensions: (  36,  40, 360)

     Dynamical RAM for                 wfc:       8.57 MB

     Dynamical RAM for     wfc (w. buffer):       8.57 MB

     Dynamical RAM for           str. fact:       2.59 MB

     Dynamical RAM for           local pot:       0.00 MB

     Dynamical RAM for          nlocal pot:      16.46 MB

     Dynamical RAM for                qrad:       3.21 MB

     Dynamical RAM for          rho,v,vnew:       8.00 MB

     Dynamical RAM for           G-vectors:       5.08 MB

     Dynamical RAM for          h,s,v(r/c):       4.12 MB

     Dynamical RAM for          <psi|beta>:       0.66 MB

     Dynamical RAM for                 psi:      17.14 MB

     Dynamical RAM for                hpsi:      17.14 MB

     Dynamical RAM for                spsi:      17.14 MB

     Dynamical RAM for      wfcinit/wfcrot:      17.66 MB

     Dynamical RAM for           addusdens:     250.89 MB

     Estimated static dynamical RAM per process >      54.65 MB

     Estimated max dynamical RAM per process >     305.54 MB

     Estimated total dynamical RAM >       2.39 GB

     The potential is recalculated from file :
     ./bi/snse.save/charge-density


     negative rho (up, down):  1.143E-03 0.000E+00
     Starting wfcs are  144 randomized atomic wfcs +    6 random wfcs
     Checking if some PAW data can be deallocated... 
       PAW data deallocated on    4 nodes for type:  1
       PAW data deallocated on    4 nodes for type:  2

     Band Structure Calculation
     Davidson diagonalization with overlap

     Computing kpt #:     1  of    61
     total cpu time spent up to now is      123.9 secs

     Computing kpt #:     2  of    61
     total cpu time spent up to now is      251.6 secs

     Computing kpt #:     3  of    61
     total cpu time spent up to now is      394.8 secs

     Computing kpt #:     4  of    61
     total cpu time spent up to now is      552.8 secs

     Computing kpt #:     5  of    61
     total cpu time spent up to now is      714.9 secs

     Computing kpt #:     6  of    61
     total cpu time spent up to now is      884.6 secs

     Computing kpt #:     7  of    61
     total cpu time spent up to now is     1036.5 secs

     Computing kpt #:     8  of    61
     total cpu time spent up to now is     1186.8 secs

     Computing kpt #:     9  of    61
     total cpu time spent up to now is     1349.0 secs

     Computing kpt #:    10  of    61
     total cpu time spent up to now is     1492.8 secs

     Computing kpt #:    11  of    61
     total cpu time spent up to now is     1595.5 secs

     Computing kpt #:    12  of    61
     total cpu time spent up to now is     1707.1 secs

     Computing kpt #:    13  of    61
     total cpu time spent up to now is     1812.1 secs

     Computing kpt #:    14  of    61
     total cpu time spent up to now is     1921.4 secs

     Computing kpt #:    15  of    61
     total cpu time spent up to now is     2025.9 secs

     Computing kpt #:    16  of    61
     total cpu time spent up to now is     2131.0 secs

     Computing kpt #:    17  of    61
     total cpu time spent up to now is     2237.6 secs

     Computing kpt #:    18  of    61
     total cpu time spent up to now is     2352.9 secs

     Computing kpt #:    19  of    61
     total cpu time spent up to now is     2486.2 secs

     Computing kpt #:    20  of    61
     total cpu time spent up to now is     2595.3 secs

     Computing kpt #:    21  of    61
     total cpu time spent up to now is     2706.7 secs

     Computing kpt #:    22  of    61
     total cpu time spent up to now is     2820.0 secs

     Computing kpt #:    23  of    61
     total cpu time spent up to now is     2933.9 secs

     Computing kpt #:    24  of    61
     total cpu time spent up to now is     3049.0 secs

     Computing kpt #:    25  of    61
     total cpu time spent up to now is     3160.1 secs

     Computing kpt #:    26  of    61
     total cpu time spent up to now is     3278.5 secs

     Computing kpt #:    27  of    61
     total cpu time spent up to now is     3372.7 secs

     Computing kpt #:    28  of    61
     total cpu time spent up to now is     3482.7 secs

     Computing kpt #:    29  of    61
     total cpu time spent up to now is     3595.6 secs

     Computing kpt #:    30  of    61
     total cpu time spent up to now is     3691.2 secs

     Computing kpt #:    31  of    61
     total cpu time spent up to now is     3792.8 secs

     Computing kpt #:    32  of    61
     total cpu time spent up to now is     3899.3 secs

     Computing kpt #:    33  of    61
     total cpu time spent up to now is     4001.0 secs

     Computing kpt #:    34  of    61
     total cpu time spent up to now is     4102.7 secs

     Computing kpt #:    35  of    61
     total cpu time spent up to now is     4208.3 secs

     Computing kpt #:    36  of    61
     total cpu time spent up to now is     4320.2 secs

     Computing kpt #:    37  of    61
     total cpu time spent up to now is     4444.5 secs

     Computing kpt #:    38  of    61
     total cpu time spent up to now is     4574.0 secs

     Computing kpt #:    39  of    61
     total cpu time spent up to now is     4692.4 secs

     Computing kpt #:    40  of    61
     total cpu time spent up to now is     4816.7 secs

     Computing kpt #:    41  of    61
     total cpu time spent up to now is     4929.3 secs

     Computing kpt #:    42  of    61
     total cpu time spent up to now is     5042.5 secs

     Computing kpt #:    43  of    61
     total cpu time spent up to now is     5185.0 secs

     Computing kpt #:    44  of    61
     total cpu time spent up to now is     5343.5 secs

     Computing kpt #:    45  of    61
     total cpu time spent up to now is     5467.7 secs

     Computing kpt #:    46  of    61
     total cpu time spent up to now is     5566.9 secs

     Computing kpt #:    47  of    61
     total cpu time spent up to now is     5677.0 secs

     Computing kpt #:    48  of    61
     total cpu time spent up to now is     5788.2 secs

     Computing kpt #:    49  of    61
     total cpu time spent up to now is     5880.3 secs

     Computing kpt #:    50  of    61
     total cpu time spent up to now is     5988.4 secs

     Computing kpt #:    51  of    61
     total cpu time spent up to now is     6093.9 secs

     Computing kpt #:    52  of    61
     total cpu time spent up to now is     6194.5 secs

     Computing kpt #:    53  of    61
     total cpu time spent up to now is     6297.4 secs

     Computing kpt #:    54  of    61
     total cpu time spent up to now is     6402.8 secs

     Computing kpt #:    55  of    61
     total cpu time spent up to now is     6524.2 secs

     Computing kpt #:    56  of    61
     total cpu time spent up to now is     6648.0 secs

     Computing kpt #:    57  of    61
     total cpu time spent up to now is     6782.1 secs

     Computing kpt #:    58  of    61
     total cpu time spent up to now is     6915.9 secs

     Computing kpt #:    59  of    61
     total cpu time spent up to now is     7059.2 secs

     Computing kpt #:    60  of    61
     total cpu time spent up to now is     7206.0 secs

     Computing kpt #:    61  of    61
     total cpu time spent up to now is     7310.7 secs

     ethr =  4.17E-12,  avg # of iterations = 53.2

     total cpu time spent up to now is     7310.7 secs

     End of band structure calculation

          k = 0.0000 0.0000 0.0000 ( 29897 PWs)   bands (ev):

   -44.1949 -44.1948 -44.1939 -44.1935 -44.1889 -44.1888 -44.1884 -44.1882
   -44.1878 -44.1878 -44.1873 -44.1872 -44.1645 -44.1643 -44.1610 -44.1609
   -44.1589 -44.1588 -44.1587 -44.1586 -44.1550 -44.1550 -44.1543 -44.1541
   -44.1521 -44.1518 -44.1462 -44.1461 -44.1458 -44.1455 -44.0946 -44.0946
   -44.0934 -44.0933 -44.0575 -44.0574 -44.0534 -44.0533 -44.0423 -44.0423
   -18.1642 -18.1582 -18.1492 -18.1476 -18.1459 -18.1426 -18.1400 -18.1394
   -18.1308 -18.1307 -18.1240 -18.1236 -18.1215 -18.1179 -18.1177 -18.1152
   -18.1151 -18.1109 -18.1106 -18.1084 -18.1078 -18.1068 -18.1065 -18.0956
   -18.0954 -18.0905 -18.0903 -18.0841 -18.0840 -18.0818 -18.0771 -18.0771
   -18.0644 -18.0644 -18.0596 -18.0596 -18.0575 -18.0574 -18.0519 -18.0518
   -10.4220 -10.3419 -10.2450 -10.1907  -9.4043  -9.2782  -9.1666  -9.1117
    -3.9713  -3.7789  -3.5044  -3.2546  -2.2082  -1.9739  -1.8329  -1.7908
    -1.3272  -1.0035  -0.5878  -0.1758  -0.0182   0.1714   0.2020   0.2747
     0.3330   0.3857   0.4063   0.5009   1.2617   1.2983   1.3169   1.4299
     1.4899   1.5835   1.6743   1.8997   2.4862   2.6798   2.8545   2.9021
     4.1819   4.7259   5.4553   5.6364   5.6548   5.7789   5.8153   6.0219
     6.0285   6.2382   6.5027   6.6219   6.7668   6.8119   7.0974   7.1246
     7.2407   7.4180   7.6323   7.8886   7.9751   8.0204   8.0974   8.3341
     8.3565   8.6745   8.7737   8.8667   9.0472   9.1355

          k = 0.0250 0.0000 0.0000 ( 29897 PWs)   bands (ev):

   -44.1949 -44.1948 -44.1938 -44.1936 -44.1889 -44.1888 -44.1884 -44.1882
   -44.1878 -44.1877 -44.1874 -44.1872 -44.1645 -44.1643 -44.1610 -44.1609
   -44.1589 -44.1588 -44.1587 -44.1586 -44.1550 -44.1550 -44.1543 -44.1541
   -44.1521 -44.1518 -44.1462 -44.1461 -44.1458 -44.1456 -44.0946 -44.0946
   -44.0934 -44.0933 -44.0575 -44.0574 -44.0534 -44.0533 -44.0423 -44.0423
   -18.1640 -18.1581 -18.1491 -18.1476 -18.1460 -18.1427 -18.1401 -18.1395
   -18.1307 -18.1306 -18.1240 -18.1236 -18.1216 -18.1178 -18.1176 -18.1153
   -18.1152 -18.1109 -18.1106 -18.1084 -18.1078 -18.1068 -18.1066 -18.0955
   -18.0954 -18.0906 -18.0902 -18.0842 -18.0840 -18.0818 -18.0771 -18.0771
   -18.0645 -18.0644 -18.0596 -18.0595 -18.0576 -18.0575 -18.0518 -18.0518
   -10.4187 -10.3386 -10.2418 -10.1876  -9.4028  -9.2770  -9.1656  -9.1110
    -3.9744  -3.7824  -3.5086  -3.2601  -2.2136  -1.9834  -1.8455  -1.8056
    -1.3253  -1.0002  -0.5840  -0.1723  -0.0145   0.1361   0.2364   0.2583
     0.3302   0.4019   0.4085   0.4943   1.2603   1.2995   1.3193   1.4157
     1.5072   1.5785   1.6670   1.9093   2.4884   2.6825   2.8545   2.9003
     4.1863   4.7295   5.4593   5.6522   5.6715   5.7914   5.8318   6.0346
     6.0352   6.2209   6.4920   6.5923   6.7704   6.7731   7.0466   7.1304
     7.2547   7.3791   7.6488   7.8860   7.9609   8.0419   8.1076   8.3190
     8.3572   8.6465   8.7794   8.8408   9.0493   9.1405

          k = 0.0500 0.0000 0.0000 ( 29899 PWs)   bands (ev):

   -44.1949 -44.1949 -44.1938 -44.1936 -44.1889 -44.1889 -44.1884 -44.1882
   -44.1878 -44.1877 -44.1873 -44.1872 -44.1645 -44.1643 -44.1610 -44.1610
   -44.1589 -44.1588 -44.1587 -44.1586 -44.1551 -44.1550 -44.1543 -44.1541
   -44.1521 -44.1518 -44.1462 -44.1461 -44.1458 -44.1456 -44.0947 -44.0946
   -44.0934 -44.0933 -44.0576 -44.0574 -44.0534 -44.0533 -44.0423 -44.0423
   -18.1637 -18.1579 -18.1488 -18.1473 -18.1461 -18.1429 -18.1402 -18.1396
   -18.1304 -18.1303 -18.1239 -18.1235 -18.1216 -18.1175 -18.1173 -18.1156
   -18.1154 -18.1108 -18.1106 -18.1084 -18.1079 -18.1069 -18.1066 -18.0954
   -18.0954 -18.0907 -18.0901 -18.0843 -18.0840 -18.0817 -18.0772 -18.0771
   -18.0646 -18.0646 -18.0597 -18.0596 -18.0576 -18.0575 -18.0517 -18.0517
   -10.4086 -10.3287 -10.2323 -10.1784  -9.3981  -9.2731  -9.1627  -9.1089
    -3.9838  -3.7928  -3.5213  -3.2765  -2.2301  -2.0120  -1.8828  -1.8492
    -1.3192  -0.9903  -0.5725  -0.1619  -0.0036   0.0894   0.2242   0.2797
     0.3223   0.4165   0.4361   0.4752   1.2568   1.3019   1.3262   1.3929
     1.5395   1.5648   1.6473   1.9367   2.4946   2.6897   2.8538   2.8945
     4.1992   4.7404   5.4695   5.6974   5.7180   5.8250   5.8783   6.0499
     6.0715   6.1640   6.4455   6.5275   6.6887   6.7810   6.9250   7.1468
     7.2752   7.2796   7.6874   7.8224   7.9701   8.0926   8.1247   8.2541
     8.3833   8.5715   8.7687   8.7916   9.0510   9.1553

          k = 0.0750 0.0000 0.0000 ( 29881 PWs)   bands (ev):

   -44.1949 -44.1949 -44.1938 -44.1936 -44.1889 -44.1889 -44.1884 -44.1882
   -44.1877 -44.1877 -44.1873 -44.1872 -44.1645 -44.1643 -44.1610 -44.1610
   -44.1589 -44.1588 -44.1586 -44.1586 -44.1551 -44.1550 -44.1543 -44.1541
   -44.1520 -44.1518 -44.1462 -44.1461 -44.1458 -44.1455 -44.0947 -44.0946
   -44.0933 -44.0933 -44.0575 -44.0574 -44.0534 -44.0533 -44.0423 -44.0422
   -18.1631 -18.1575 -18.1482 -18.1470 -18.1462 -18.1433 -18.1405 -18.1399
   -18.1300 -18.1299 -18.1238 -18.1236 -18.1216 -18.1171 -18.1170 -18.1160
   -18.1158 -18.1108 -18.1107 -18.1085 -18.1081 -18.1071 -18.1068 -18.0953
   -18.0953 -18.0909 -18.0898 -18.0844 -18.0839 -18.0815 -18.0772 -18.0772
   -18.0648 -18.0648 -18.0598 -18.0597 -18.0576 -18.0575 -18.0515 -18.0515
   -10.3918 -10.3124 -10.2165 -10.1631  -9.3904  -9.2669  -9.1581  -9.1057
    -3.9993  -3.8099  -3.5423  -3.3034  -2.2582  -2.0596  -1.9436  -1.9195
    -1.3082  -0.9735  -0.5532  -0.1447   0.0137   0.0445   0.1874   0.2981
     0.3320   0.4319   0.4462   0.4755   1.2531   1.3019   1.3356   1.3765
     1.5468   1.5652   1.6290   1.9789   2.5037   2.7000   2.8512   2.8835
     4.2202   4.7577   5.4820   5.7628   5.7786   5.8636   5.9444   6.0028
     6.1287   6.1335   6.3355   6.4679   6.6213   6.7679   6.7981   7.1322
     7.1732   7.3085   7.6963   7.7324   8.0016   8.0788   8.1445   8.2162
     8.4101   8.4633   8.6627   8.8083   9.0456   9.1780

          k = 0.1000 0.0000 0.0000 ( 29893 PWs)   bands (ev):

   -44.1950 -44.1949 -44.1937 -44.1936 -44.1890 -44.1889 -44.1885 -44.1883
   -44.1877 -44.1876 -44.1873 -44.1872 -44.1645 -44.1643 -44.1611 -44.1610
   -44.1589 -44.1588 -44.1587 -44.1586 -44.1551 -44.1551 -44.1543 -44.1542
   -44.1520 -44.1518 -44.1461 -44.1461 -44.1458 -44.1455 -44.0947 -44.0946
   -44.0933 -44.0932 -44.0576 -44.0574 -44.0535 -44.0534 -44.0423 -44.0422
   -18.1623 -18.1570 -18.1475 -18.1471 -18.1458 -18.1439 -18.1409 -18.1403
   -18.1294 -18.1292 -18.1237 -18.1236 -18.1217 -18.1167 -18.1166 -18.1163
   -18.1162 -18.1108 -18.1107 -18.1086 -18.1084 -18.1073 -18.1069 -18.0952
   -18.0951 -18.0913 -18.0895 -18.0845 -18.0839 -18.0813 -18.0772 -18.0772
   -18.0651 -18.0651 -18.0600 -18.0599 -18.0575 -18.0574 -18.0513 -18.0513
   -10.3686 -10.2897 -10.1945 -10.1420  -9.3801  -9.2587  -9.1521  -9.1015
    -4.0208  -3.8337  -3.5713  -3.3404  -2.2990  -2.1263  -2.0261  -2.0129
    -1.2913  -0.9493  -0.5260  -0.1214   0.0044   0.0346   0.1557   0.2795
     0.3732   0.4112   0.4552   0.5168   1.2510   1.2954   1.3450   1.3733
     1.5308   1.5497   1.6489   2.0316   2.5142   2.7111   2.8450   2.8656
     4.2487   4.7804   5.4896   5.7369   5.8270   5.8780   5.9618   5.9957
     6.1750   6.1826   6.2291   6.4193   6.5817   6.6065   6.8210   6.9757
     7.2096   7.3427   7.5415   7.7767   7.9481   8.0267   8.1768   8.2274
     8.3355   8.4219   8.5388   8.8319   9.0311   9.1924

          k = 0.1250 0.0000 0.0000 ( 29899 PWs)   bands (ev):

   -44.1950 -44.1949 -44.1937 -44.1936 -44.1890 -44.1890 -44.1885 -44.1883
   -44.1877 -44.1876 -44.1873 -44.1871 -44.1645 -44.1643 -44.1611 -44.1610
   -44.1589 -44.1588 -44.1587 -44.1586 -44.1551 -44.1551 -44.1544 -44.1542
   -44.1520 -44.1518 -44.1461 -44.1461 -44.1457 -44.1455 -44.0948 -44.0946
   -44.0933 -44.0932 -44.0576 -44.0574 -44.0535 -44.0534 -44.0423 -44.0422
   -18.1613 -18.1565 -18.1475 -18.1467 -18.1451 -18.1445 -18.1413 -18.1407
   -18.1287 -18.1285 -18.1238 -18.1236 -18.1216 -18.1171 -18.1169 -18.1158
   -18.1158 -18.1110 -18.1107 -18.1088 -18.1087 -18.1074 -18.1070 -18.0951
   -18.0948 -18.0917 -18.0891 -18.0845 -18.0838 -18.0811 -18.0773 -18.0773
   -18.0655 -18.0654 -18.0604 -18.0603 -18.0572 -18.0571 -18.0511 -18.0511
   -10.3389 -10.2609 -10.1667 -10.1151  -9.3675  -9.2487  -9.1450  -9.0968
    -4.0479  -3.8637  -3.6077  -3.3863  -2.3531  -2.2127  -2.1275  -2.1243
    -1.2674  -0.9176  -0.4909  -0.0950  -0.0261   0.0513   0.1392   0.2569
     0.3750   0.4168   0.4856   0.5596   1.2521   1.2843   1.3508   1.3813
     1.5128   1.5238   1.6915   2.0904   2.5243   2.7212   2.8335   2.8395
     4.2838   4.8063   5.4760   5.5310   5.8321   5.8733   5.9554   6.0158
     6.1694   6.2300   6.2904   6.3789   6.4781   6.5580   6.8297   6.8536
     7.2564   7.3577   7.4031   7.7868   7.8234   8.0290   8.1759   8.2145
     8.2271   8.3805   8.4478   8.8619   9.0020   9.1461

          k = 0.1500 0.0000 0.0000 ( 29905 PWs)   bands (ev):

   -44.1950 -44.1949 -44.1937 -44.1936 -44.1890 -44.1890 -44.1885 -44.1883
   -44.1877 -44.1876 -44.1873 -44.1871 -44.1645 -44.1643 -44.1611 -44.1610
   -44.1590 -44.1588 -44.1586 -44.1586 -44.1551 -44.1551 -44.1544 -44.1542
   -44.1520 -44.1518 -44.1461 -44.1461 -44.1458 -44.1456 -44.0948 -44.0947
   -44.0933 -44.0932 -44.0575 -44.0574 -44.0535 -44.0534 -44.0423 -44.0422
   -18.1602 -18.1560 -18.1479 -18.1461 -18.1449 -18.1443 -18.1416 -18.1411
   -18.1279 -18.1277 -18.1241 -18.1236 -18.1217 -18.1177 -18.1173 -18.1152
   -18.1152 -18.1111 -18.1108 -18.1090 -18.1089 -18.1074 -18.1070 -18.0951
   -18.0946 -18.0922 -18.0887 -18.0846 -18.0837 -18.0809 -18.0774 -18.0774
   -18.0659 -18.0658 -18.0610 -18.0609 -18.0568 -18.0567 -18.0508 -18.0508
   -10.3031 -10.2260 -10.1331 -10.0828  -9.3530  -9.2375  -9.1373  -9.0921
    -4.0801  -3.8993  -3.6508  -3.4401  -2.4212  -2.3205  -2.2465  -2.2446
    -1.2355  -0.8780  -0.4479  -0.0816  -0.0295   0.0513   0.1497   0.2361
     0.3437   0.4617   0.5223   0.6042   1.2565   1.2739   1.3514   1.3923
     1.4785   1.5299   1.7388   2.1509   2.5323   2.7284   2.8052   2.8156
     4.3248   4.8307   5.2971   5.4037   5.7423   5.7941   5.9222   6.0553
     6.1838   6.2149   6.3484   6.3509   6.4399   6.5661   6.7152   6.9023
     7.2079   7.3136   7.4428   7.6241   7.8588   7.9642   8.1180   8.1753
     8.1980   8.2575   8.4343   8.8892   8.9412   9.0501

          k = 0.1750 0.0000 0.0000 ( 29879 PWs)   bands (ev):

   -44.1950 -44.1949 -44.1936 -44.1935 -44.1890 -44.1890 -44.1885 -44.1883
   -44.1876 -44.1875 -44.1872 -44.1871 -44.1645 -44.1642 -44.1611 -44.1610
   -44.1589 -44.1588 -44.1586 -44.1585 -44.1551 -44.1551 -44.1543 -44.1542
   -44.1519 -44.1518 -44.1461 -44.1461 -44.1457 -44.1455 -44.0947 -44.0947
   -44.0932 -44.0931 -44.0575 -44.0574 -44.0534 -44.0534 -44.0423 -44.0422
   -18.1591 -18.1556 -18.1484 -18.1466 -18.1443 -18.1434 -18.1418 -18.1414
   -18.1270 -18.1268 -18.1244 -18.1236 -18.1218 -18.1183 -18.1175 -18.1147
   -18.1145 -18.1113 -18.1110 -18.1092 -18.1091 -18.1073 -18.1069 -18.0953
   -18.0942 -18.0926 -18.0882 -18.0845 -18.0836 -18.0806 -18.0776 -18.0775
   -18.0663 -18.0662 -18.0616 -18.0615 -18.0562 -18.0562 -18.0505 -18.0505
   -10.2614 -10.1856 -10.0941 -10.0454  -9.3373  -9.2258  -9.1297  -9.0879
    -4.1167  -3.9396  -3.6994  -3.4999  -2.5037  -2.4513  -2.3732  -2.3721
    -1.1950  -0.8305  -0.3972  -0.0895   0.0025   0.0419   0.1759   0.2215
     0.3265   0.5078   0.5646   0.6510   1.2634   1.2670   1.3498   1.3926
     1.4630   1.5482   1.7867   2.2081   2.5363   2.7269   2.7683   2.7911
     4.3705   4.8320   5.0816   5.2514   5.6502   5.6695   5.8693   6.0361
     6.1389   6.1646   6.2888   6.3846   6.4738   6.5719   6.6657   6.9651
     7.0679   7.3811   7.4601   7.5036   7.8297   7.8851   8.0875   8.1165
     8.1376   8.1520   8.4283   8.8745   8.8976   8.9763

          k = 0.2000 0.0000 0.0000 ( 29883 PWs)   bands (ev):

   -44.1951 -44.1949 -44.1935 -44.1935 -44.1890 -44.1890 -44.1885 -44.1883
   -44.1876 -44.1875 -44.1872 -44.1870 -44.1645 -44.1643 -44.1612 -44.1609
   -44.1590 -44.1589 -44.1586 -44.1586 -44.1551 -44.1551 -44.1543 -44.1542
   -44.1519 -44.1518 -44.1461 -44.1460 -44.1457 -44.1455 -44.0947 -44.0947
   -44.0932 -44.0931 -44.0575 -44.0574 -44.0534 -44.0534 -44.0422 -44.0422
   -18.1579 -18.1554 -18.1488 -18.1475 -18.1437 -18.1427 -18.1416 -18.1413
   -18.1262 -18.1261 -18.1247 -18.1239 -18.1221 -18.1188 -18.1175 -18.1145
   -18.1140 -18.1115 -18.1113 -18.1092 -18.1091 -18.1072 -18.1068 -18.0958
   -18.0939 -18.0928 -18.0876 -18.0844 -18.0835 -18.0804 -18.0778 -18.0777
   -18.0667 -18.0667 -18.0622 -18.0621 -18.0557 -18.0556 -18.0502 -18.0502
   -10.2142 -10.1398 -10.0501 -10.0032  -9.3210  -9.2142  -9.1228  -9.0851
    -4.1565  -3.9834  -3.7518  -3.5637  -2.6017  -2.6000  -2.5081  -2.4999
    -1.1453  -0.7752  -0.3391  -0.0949   0.0357   0.0445   0.1956   0.2174
     0.3372   0.5544   0.6122   0.7001   1.2637   1.2709   1.3511   1.3760
     1.4735   1.5747   1.8329   2.2565   2.5340   2.6932   2.7541   2.7606
     4.4187   4.7207   4.9804   5.0626   5.4814   5.5825   5.8113   5.9632
     6.0558   6.0707   6.2388   6.3682   6.4816   6.5177   6.6786   6.9327
     7.0545   7.3067   7.4572   7.5688   7.6751   7.8798   7.9717   8.0307
     8.0855   8.0999   8.4293   8.8829   8.9154   8.9604

          k = 0.2250 0.0000 0.0000 ( 29870 PWs)   bands (ev):

   -44.1951 -44.1948 -44.1935 -44.1934 -44.1890 -44.1890 -44.1885 -44.1883
   -44.1875 -44.1875 -44.1871 -44.1869 -44.1646 -44.1642 -44.1612 -44.1609
   -44.1590 -44.1589 -44.1586 -44.1585 -44.1551 -44.1551 -44.1543 -44.1541
   -44.1518 -44.1518 -44.1460 -44.1460 -44.1457 -44.1455 -44.0947 -44.0947
   -44.0931 -44.0930 -44.0575 -44.0574 -44.0534 -44.0534 -44.0422 -44.0421
   -18.1568 -18.1554 -18.1493 -18.1485 -18.1434 -18.1423 -18.1407 -18.1406
   -18.1257 -18.1255 -18.1250 -18.1242 -18.1223 -18.1191 -18.1174 -18.1144
   -18.1135 -18.1117 -18.1116 -18.1088 -18.1088 -18.1070 -18.1065 -18.0965
   -18.0936 -18.0928 -18.0870 -18.0843 -18.0834 -18.0801 -18.0780 -18.0780
   -18.0671 -18.0671 -18.0628 -18.0627 -18.0550 -18.0550 -18.0499 -18.0498
   -10.1618 -10.0891 -10.0015  -9.9567  -9.3050  -9.2035  -9.1174  -9.0842
    -4.1982  -4.0291  -3.8062  -3.6292  -2.7589  -2.7184  -2.6413  -2.6317
    -1.0866  -0.7122  -0.2740  -0.0912   0.0371   0.0861   0.2026   0.2294
     0.3798   0.6001   0.6651   0.7512   1.2628   1.2766   1.3568   1.3591
     1.4956   1.6054   1.8756   2.2899   2.5232   2.6375   2.7255   2.7551
     4.4639   4.5188   4.8777   4.9660   5.3253   5.4498   5.7615   5.8555
     5.9433   5.9685   6.1700   6.2985   6.4434   6.4492   6.6541   6.8449
     7.1057   7.1725   7.5083   7.5370   7.6222   7.7630   7.8654   7.9334
     8.0286   8.0741   8.4544   8.9875   8.9896   9.0239

          k = 0.2500 0.0000 0.0000 ( 29874 PWs)   bands (ev):

   -44.1951 -44.1949 -44.1935 -44.1933 -44.1890 -44.1889 -44.1885 -44.1883
   -44.1874 -44.1874 -44.1871 -44.1869 -44.1645 -44.1643 -44.1612 -44.1609
   -44.1589 -44.1588 -44.1586 -44.1586 -44.1552 -44.1551 -44.1543 -44.1542
   -44.1518 -44.1518 -44.1460 -44.1460 -44.1457 -44.1455 -44.0947 -44.0947
   -44.0931 -44.0930 -44.0575 -44.0574 -44.0535 -44.0534 -44.0422 -44.0421
   -18.1559 -18.1557 -18.1499 -18.1496 -18.1434 -18.1418 -18.1397 -18.1395
   -18.1256 -18.1255 -18.1253 -18.1243 -18.1221 -18.1193 -18.1173 -18.1145
   -18.1132 -18.1120 -18.1119 -18.1083 -18.1083 -18.1067 -18.1062 -18.0974
   -18.0932 -18.0927 -18.0864 -18.0842 -18.0833 -18.0799 -18.0783 -18.0782
   -18.0676 -18.0676 -18.0634 -18.0633 -18.0544 -18.0543 -18.0495 -18.0495
   -10.1047 -10.0339  -9.9488  -9.9064  -9.2901  -9.1948  -9.1143  -9.0862
    -4.2399  -4.0748  -3.8603  -3.6937  -2.9225  -2.8542  -2.7675  -2.7672
    -1.0191  -0.6419  -0.2026  -0.0777   0.0476   0.1226   0.2083   0.2614
     0.4429   0.6430   0.7232   0.8036   1.2619   1.2793   1.3420   1.3743
     1.5214   1.6373   1.9128   2.3028   2.5014   2.5771   2.6872   2.7560
     4.3191   4.4850   4.7331   4.9212   5.2256   5.2942   5.6835   5.7247
     5.8063   5.9027   6.0660   6.2025   6.3463   6.3839   6.5705   6.7744
     7.0535   7.1242   7.3296   7.5604   7.6090   7.6381   7.7924   7.8220
     7.9904   8.0663   8.5065   9.1099   9.1597   9.1907

          k = 0.2750 0.0000 0.0000 ( 29838 PWs)   bands (ev):

   -44.1950 -44.1947 -44.1934 -44.1933 -44.1889 -44.1889 -44.1884 -44.1882
   -44.1874 -44.1874 -44.1871 -44.1869 -44.1645 -44.1642 -44.1611 -44.1608
   -44.1589 -44.1588 -44.1586 -44.1585 -44.1551 -44.1550 -44.1543 -44.1541
   -44.1518 -44.1518 -44.1460 -44.1460 -44.1456 -44.1455 -44.0946 -44.0946
   -44.0930 -44.0930 -44.0575 -44.0574 -44.0534 -44.0533 -44.0422 -44.0421
   -18.1561 -18.1552 -18.1507 -18.1505 -18.1431 -18.1410 -18.1387 -18.1384
   -18.1261 -18.1260 -18.1257 -18.1240 -18.1216 -18.1194 -18.1173 -18.1147
   -18.1129 -18.1121 -18.1121 -18.1077 -18.1077 -18.1063 -18.1058 -18.0985
   -18.0929 -18.0925 -18.0858 -18.0840 -18.0832 -18.0797 -18.0786 -18.0786
   -18.0681 -18.0680 -18.0639 -18.0638 -18.0537 -18.0536 -18.0492 -18.0492
   -10.0434  -9.9750  -9.8926  -9.8530  -9.2773  -9.1888  -9.1144  -9.0916
    -4.2799  -4.1184  -3.9118  -3.7546  -3.0870  -3.0007  -2.9049  -2.8898
    -0.9431  -0.5647  -0.1254  -0.0551   0.0674   0.1554   0.2209   0.3110
     0.5178   0.6810   0.7856   0.8559   1.2579   1.2789   1.3330   1.3947
     1.5485   1.6679   1.9435   2.2924   2.4681   2.5175   2.6458   2.7486
     4.1481   4.4305   4.6883   4.8167   5.1364   5.1964   5.5721   5.5767
     5.6827   5.8419   5.9370   6.1039   6.2381   6.2878   6.4494   6.7163
     6.9327   7.0791   7.1701   7.3524   7.5899   7.6048   7.7079   7.7910
     7.9646   8.0943   8.5771   9.2723   9.3453   9.3865

          k = 0.3000 0.0000 0.0000 ( 29876 PWs)   bands (ev):

   -44.1951 -44.1948 -44.1934 -44.1933 -44.1890 -44.1890 -44.1885 -44.1882
   -44.1874 -44.1874 -44.1871 -44.1869 -44.1645 -44.1643 -44.1612 -44.1609
   -44.1589 -44.1588 -44.1587 -44.1586 -44.1551 -44.1551 -44.1544 -44.1541
   -44.1518 -44.1518 -44.1460 -44.1460 -44.1457 -44.1455 -44.0947 -44.0946
   -44.0931 -44.0930 -44.0575 -44.0574 -44.0535 -44.0534 -44.0422 -44.0421
   -18.1566 -18.1549 -18.1518 -18.1512 -18.1427 -18.1402 -18.1377 -18.1372
   -18.1269 -18.1267 -18.1259 -18.1237 -18.1211 -18.1195 -18.1173 -18.1149
   -18.1129 -18.1123 -18.1119 -18.1071 -18.1071 -18.1057 -18.1054 -18.0996
   -18.0926 -18.0923 -18.0852 -18.0838 -18.0831 -18.0795 -18.0790 -18.0789
   -18.0685 -18.0685 -18.0643 -18.0642 -18.0530 -18.0529 -18.0489 -18.0489
    -9.9786  -9.9128  -9.8336  -9.7971  -9.2675  -9.1869  -9.1185  -9.1012
    -4.3159  -4.1577  -3.9581  -3.8093  -3.2494  -3.1499  -3.0427  -3.0115
    -0.8592  -0.4811  -0.0435  -0.0250   0.0960   0.1898   0.2433   0.3707
     0.6003   0.7122   0.8511   0.9056   1.2479   1.2749   1.3288   1.4176
     1.5762   1.6953   1.9671   2.2618   2.4248   2.4610   2.5986   2.7218
     4.0211   4.3322   4.6935   4.7148   4.9878   5.1834   5.4210   5.4487
     5.5934   5.7546   5.7992   5.9978   6.1459   6.1667   6.3272   6.6552
     6.7990   6.9065   7.1168   7.1451   7.4929   7.5339   7.5964   7.8512
     7.9628   8.1568   8.6609   9.3878   9.4903   9.6336

          k = 0.3250 0.0000 0.0000 ( 29880 PWs)   bands (ev):

   -44.1951 -44.1948 -44.1934 -44.1933 -44.1890 -44.1889 -44.1884 -44.1883
   -44.1874 -44.1874 -44.1871 -44.1869 -44.1645 -44.1643 -44.1612 -44.1609
   -44.1589 -44.1588 -44.1587 -44.1586 -44.1551 -44.1550 -44.1543 -44.1541
   -44.1518 -44.1518 -44.1460 -44.1460 -44.1457 -44.1455 -44.0947 -44.0946
   -44.0930 -44.0930 -44.0575 -44.0575 -44.0534 -44.0534 -44.0422 -44.0421
   -18.1571 -18.1549 -18.1527 -18.1519 -18.1420 -18.1393 -18.1368 -18.1362
   -18.1277 -18.1276 -18.1260 -18.1236 -18.1207 -18.1197 -18.1174 -18.1151
   -18.1130 -18.1124 -18.1113 -18.1066 -18.1065 -18.1051 -18.1048 -18.1006
   -18.0923 -18.0921 -18.0846 -18.0837 -18.0829 -18.0795 -18.0794 -18.0791
   -18.0690 -18.0689 -18.0646 -18.0645 -18.0524 -18.0523 -18.0486 -18.0485
    -9.9108  -9.8482  -9.7725  -9.7396  -9.2618  -9.1899  -9.1272  -9.1154
    -4.3458  -4.1904  -3.9970  -3.8554  -3.4071  -3.2970  -3.1786  -3.1325
    -0.7683  -0.3918   0.0101   0.0419   0.1322   0.2292   0.2759   0.4342
     0.6882   0.7348   0.9178   0.9496   1.2301   1.2665   1.3269   1.4406
     1.6046   1.7182   1.9846   2.2191   2.3752   2.4067   2.5415   2.6654
     3.9483   4.2516   4.5814   4.7446   4.8605   5.1365   5.2730   5.3256
     5.5552   5.6480   5.6655   5.8707   6.0339   6.0586   6.2459   6.5717
     6.6551   6.7094   6.9514   7.0975   7.3828   7.4272   7.5050   7.8556
     8.0382   8.2434   8.7556   9.4740   9.5985   9.8063

          k = 0.3500 0.0000 0.0000 ( 29866 PWs)   bands (ev):

   -44.1951 -44.1948 -44.1933 -44.1933 -44.1890 -44.1889 -44.1884 -44.1883
   -44.1874 -44.1873 -44.1870 -44.1868 -44.1645 -44.1643 -44.1612 -44.1609
   -44.1589 -44.1588 -44.1587 -44.1586 -44.1551 -44.1550 -44.1543 -44.1541
   -44.1518 -44.1517 -44.1460 -44.1459 -44.1456 -44.1454 -44.0947 -44.0946
   -44.0930 -44.0929 -44.0575 -44.0575 -44.0534 -44.0534 -44.0422 -44.0421
   -18.1576 -18.1552 -18.1535 -18.1526 -18.1412 -18.1384 -18.1360 -18.1352
   -18.1285 -18.1283 -18.1260 -18.1235 -18.1205 -18.1200 -18.1173 -18.1151
   -18.1132 -18.1124 -18.1106 -18.1061 -18.1060 -18.1044 -18.1043 -18.1017
   -18.0920 -18.0919 -18.0840 -18.0835 -18.0826 -18.0798 -18.0798 -18.0791
   -18.0694 -18.0693 -18.0648 -18.0647 -18.0518 -18.0517 -18.0483 -18.0483
    -9.8410  -9.7819  -9.7102  -9.6812  -9.2613  -9.1993  -9.1412  -9.1343
    -4.3673  -4.2142  -4.0261  -3.8908  -3.5579  -3.4392  -3.3103  -3.2510
    -0.6714  -0.2978   0.0464   0.1286   0.1746   0.2741   0.3177   0.4963
     0.7482   0.7791   0.9833   0.9838   1.2035   1.2533   1.3250   1.4612
     1.6353   1.7362   1.9980   2.1739   2.3228   2.3525   2.4719   2.5782
     3.9306   4.2061   4.4921   4.7022   4.8103   5.0375   5.1509   5.2063
     5.5287   5.5468   5.5790   5.7383   5.9034   5.9549   6.2047   6.4556
     6.5120   6.5246   6.7848   7.0965   7.2734   7.3015   7.4310   7.8229
     8.1587   8.3467   8.8591   9.5507   9.6783   9.8805

          k = 0.3750 0.0000 0.0000 ( 29864 PWs)   bands (ev):

   -44.1951 -44.1949 -44.1933 -44.1932 -44.1890 -44.1889 -44.1885 -44.1883
   -44.1873 -44.1872 -44.1869 -44.1868 -44.1645 -44.1644 -44.1611 -44.1609
   -44.1590 -44.1588 -44.1588 -44.1587 -44.1551 -44.1551 -44.1543 -44.1542
   -44.1518 -44.1517 -44.1460 -44.1459 -44.1456 -44.1454 -44.0947 -44.0947
   -44.0929 -44.0928 -44.0576 -44.0575 -44.0535 -44.0534 -44.0421 -44.0421
   -18.1580 -18.1557 -18.1541 -18.1533 -18.1402 -18.1375 -18.1353 -18.1345
   -18.1292 -18.1290 -18.1259 -18.1236 -18.1206 -18.1204 -18.1171 -18.1151
   -18.1133 -18.1125 -18.1099 -18.1056 -18.1055 -18.1039 -18.1038 -18.1027
   -18.0918 -18.0917 -18.0836 -18.0833 -18.0823 -18.0802 -18.0801 -18.0791
   -18.0697 -18.0697 -18.0650 -18.0649 -18.0512 -18.0511 -18.0480 -18.0480
    -9.7698  -9.7150  -9.6477  -9.6229  -9.2667  -9.2162  -9.1608  -9.1578
    -4.3783  -4.2271  -4.0437  -3.9137  -3.6999  -3.5740  -3.4359  -3.3653
    -0.5696  -0.2004   0.0782   0.2063   0.2277   0.3232   0.3667   0.5525
     0.7544   0.8705   1.0050   1.0434   1.1675   1.2364   1.3224   1.4758
     1.6710   1.7505   2.0087   2.1345   2.2705   2.2968   2.3902   2.4693
     3.9588   4.1984   4.4305   4.6092   4.8037   4.9093   5.0526   5.0892
     5.4254   5.4707   5.6082   5.6151   5.7873   5.8586   6.1521   6.3080
     6.3709   6.3829   6.6651   7.0859   7.1696   7.1936   7.3676   7.7790
     8.2948   8.4618   8.9692   9.6057   9.7688   9.9113

          k = 0.4000 0.0000 0.0000 ( 29868 PWs)   bands (ev):

   -44.1951 -44.1949 -44.1932 -44.1932 -44.1890 -44.1890 -44.1885 -44.1883
   -44.1873 -44.1872 -44.1869 -44.1867 -44.1645 -44.1644 -44.1611 -44.1610
   -44.1589 -44.1588 -44.1588 -44.1587 -44.1551 -44.1551 -44.1544 -44.1542
   -44.1518 -44.1517 -44.1460 -44.1459 -44.1456 -44.1454 -44.0947 -44.0947
   -44.0929 -44.0928 -44.0576 -44.0575 -44.0535 -44.0534 -44.0421 -44.0421
   -18.1584 -18.1564 -18.1546 -18.1538 -18.1393 -18.1369 -18.1347 -18.1339
   -18.1298 -18.1296 -18.1258 -18.1238 -18.1208 -18.1207 -18.1167 -18.1152
   -18.1133 -18.1126 -18.1092 -18.1051 -18.1050 -18.1037 -18.1034 -18.1034
   -18.0916 -18.0915 -18.0833 -18.0832 -18.0819 -18.0805 -18.0805 -18.0791
   -18.0700 -18.0700 -18.0651 -18.0650 -18.0507 -18.0506 -18.0478 -18.0478
    -9.6983  -9.6483  -9.5861  -9.5659  -9.2790  -9.2419  -9.1858  -9.1851
    -4.3772  -4.2276  -4.0482  -3.9230  -3.8312  -3.6995  -3.5535  -3.4732
    -0.4645  -0.1015   0.0978   0.2525   0.3061   0.3742   0.4204   0.5981
     0.7590   0.9568   1.0142   1.0881   1.1226   1.2230   1.3210   1.4796
     1.7143   1.7649   2.0162   2.1059   2.2209   2.2385   2.3006   2.3531
     4.0201   4.2255   4.3986   4.5288   4.7717   4.7823   4.9624   4.9713
     5.3365   5.4266   5.5113   5.6411   5.6958   5.7866   6.0620   6.1655
     6.2373   6.2743   6.6068   6.9952   7.0768   7.1616   7.3268   7.7287
     8.4401   8.5845   9.0819   9.6282   9.8803   9.9096

          k = 0.4250 0.0000 0.0000 ( 29906 PWs)   bands (ev):

   -44.1951 -44.1950 -44.1933 -44.1933 -44.1890 -44.1890 -44.1885 -44.1884
   -44.1873 -44.1873 -44.1870 -44.1868 -44.1645 -44.1644 -44.1612 -44.1610
   -44.1589 -44.1588 -44.1588 -44.1587 -44.1551 -44.1551 -44.1544 -44.1542
   -44.1518 -44.1517 -44.1460 -44.1460 -44.1456 -44.1455 -44.0948 -44.0947
   -44.0930 -44.0929 -44.0576 -44.0575 -44.0535 -44.0534 -44.0422 -44.0421
   -18.1586 -18.1571 -18.1549 -18.1543 -18.1384 -18.1364 -18.1342 -18.1334
   -18.1303 -18.1301 -18.1256 -18.1240 -18.1211 -18.1210 -18.1164 -18.1152
   -18.1133 -18.1127 -18.1086 -18.1047 -18.1045 -18.1044 -18.1032 -18.1031
   -18.0914 -18.0913 -18.0831 -18.0830 -18.0813 -18.0808 -18.0808 -18.0792
   -18.0703 -18.0703 -18.0652 -18.0651 -18.0503 -18.0502 -18.0477 -18.0476
    -9.6274  -9.5832  -9.5268  -9.5112  -9.2990  -9.2768  -9.2157  -9.2157
    -4.3624  -4.2141  -4.0386  -3.9522  -3.9160  -3.8139  -3.6610  -3.5728
    -0.3581  -0.0039   0.0969   0.2832   0.3823   0.4234   0.4755   0.6291
     0.7698   0.9973   1.0486   1.0731   1.0991   1.2276   1.3254   1.4690
     1.7666   1.7860   2.0166   2.0883   2.1758   2.1765   2.2121   2.2455
     4.1029   4.2815   4.3958   4.4695   4.6694   4.7097   4.8546   4.8712
     5.2731   5.3993   5.4387   5.6333   5.6489   5.7453   5.9513   6.0612
     6.1214   6.1884   6.5936   6.8763   7.0032   7.1325   7.3309   7.6733
     8.5902   8.7097   9.1906   9.6079   9.8725  10.0077

          k = 0.4500 0.0000 0.0000 ( 29924 PWs)   bands (ev):

   -44.1951 -44.1950 -44.1934 -44.1933 -44.1890 -44.1890 -44.1886 -44.1884
   -44.1874 -44.1873 -44.1870 -44.1869 -44.1645 -44.1645 -44.1611 -44.1610
   -44.1589 -44.1588 -44.1588 -44.1588 -44.1551 -44.1551 -44.1544 -44.1542
   -44.1518 -44.1518 -44.1460 -44.1460 -44.1456 -44.1455 -44.0948 -44.0947
   -44.0930 -44.0929 -44.0576 -44.0575 -44.0535 -44.0534 -44.0422 -44.0421
   -18.1587 -18.1577 -18.1551 -18.1547 -18.1377 -18.1362 -18.1338 -18.1332
   -18.1306 -18.1305 -18.1254 -18.1243 -18.1213 -18.1213 -18.1161 -18.1153
   -18.1133 -18.1128 -18.1080 -18.1054 -18.1041 -18.1040 -18.1030 -18.1030
   -18.0913 -18.0912 -18.0830 -18.0829 -18.0811 -18.0811 -18.0808 -18.0794
   -18.0705 -18.0704 -18.0652 -18.0651 -18.0500 -18.0499 -18.0475 -18.0475
    -9.5582  -9.5208  -9.4717  -9.4609  -9.3272  -9.3204  -9.2488  -9.2487
    -4.3327  -4.1861  -4.0573  -4.0154  -3.9145  -3.8970  -3.7565  -3.6624
    -0.2530   0.0670   0.0913   0.2948   0.4453   0.4658   0.5286   0.6424
     0.7939   0.9902   1.0146   1.0782   1.1203   1.2426   1.3408   1.4474
     1.8187   1.8266   2.0038   2.0699   2.1121   2.1152   2.1586   2.1667
     4.1990   4.3586   4.4178   4.4349   4.5790   4.6235   4.7452   4.7736
     5.2411   5.3541   5.4198   5.5921   5.6262   5.7361   5.8430   5.9740
     6.0641   6.1323   6.5970   6.7678   6.9600   7.0818   7.3716   7.6140
     8.7384   8.8284   9.2817   9.5386   9.8202  10.0293

          k = 0.4750 0.0000 0.0000 ( 29928 PWs)   bands (ev):

   -44.1951 -44.1950 -44.1934 -44.1933 -44.1890 -44.1890 -44.1886 -44.1884
   -44.1874 -44.1874 -44.1871 -44.1869 -44.1645 -44.1644 -44.1611 -44.1611
   -44.1589 -44.1588 -44.1588 -44.1587 -44.1552 -44.1551 -44.1544 -44.1542
   -44.1518 -44.1518 -44.1460 -44.1460 -44.1457 -44.1455 -44.0948 -44.0948
   -44.0930 -44.0930 -44.0576 -44.0575 -44.0535 -44.0534 -44.0422 -44.0421
   -18.1587 -18.1582 -18.1552 -18.1550 -18.1370 -18.1363 -18.1334 -18.1331
   -18.1308 -18.1307 -18.1251 -18.1245 -18.1215 -18.1214 -18.1158 -18.1154
   -18.1132 -18.1129 -18.1074 -18.1061 -18.1038 -18.1037 -18.1030 -18.1029
   -18.0912 -18.0912 -18.0829 -18.0828 -18.0813 -18.0812 -18.0804 -18.0796
   -18.0706 -18.0706 -18.0652 -18.0651 -18.0498 -18.0497 -18.0475 -18.0474
    -9.4919  -9.4629  -9.4254  -9.4190  -9.3714  -9.3638  -9.2809  -9.2809
    -4.2876  -4.1552  -4.1364  -4.0145  -3.9642  -3.8711  -3.8299  -3.7400
    -0.1526   0.0143   0.1726   0.2806   0.4877   0.4951   0.5757   0.6367
     0.8336   0.9440   1.0034   1.0470   1.1747   1.2412   1.3678   1.4231
     1.8641   1.8915   1.9714   2.0209   2.0572   2.0651   2.1339   2.1399
     4.3027   4.4156   4.4453   4.4600   4.5227   4.5309   4.6482   4.6692
     5.2406   5.3061   5.4333   5.5315   5.6330   5.7427   5.7645   5.8834
     6.0679   6.1032   6.6055   6.6826   6.9543   7.0272   7.4275   7.5520
     8.8690   8.9203   9.3363   9.4428   9.8009   9.9298

          k = 0.5000 0.0000 0.0000 ( 29934 PWs)   bands (ev):

   -44.1951 -44.1950 -44.1934 -44.1933 -44.1890 -44.1890 -44.1886 -44.1884
   -44.1874 -44.1874 -44.1871 -44.1869 -44.1645 -44.1644 -44.1611 -44.1611
   -44.1589 -44.1588 -44.1588 -44.1587 -44.1551 -44.1551 -44.1544 -44.1542
   -44.1518 -44.1518 -44.1460 -44.1460 -44.1457 -44.1455 -44.0948 -44.0948
   -44.0930 -44.0930 -44.0576 -44.0575 -44.0535 -44.0534 -44.0422 -44.0421
   -18.1585 -18.1585 -18.1552 -18.1551 -18.1366 -18.1366 -18.1332 -18.1332
   -18.1309 -18.1307 -18.1248 -18.1248 -18.1215 -18.1215 -18.1156 -18.1156
   -18.1131 -18.1130 -18.1068 -18.1068 -18.1037 -18.1036 -18.1030 -18.1029
   -18.0912 -18.0911 -18.0829 -18.0828 -18.0813 -18.0813 -18.0800 -18.0799
   -18.0706 -18.0706 -18.0652 -18.0651 -18.0497 -18.0496 -18.0474 -18.0474
    -9.4301  -9.4301  -9.4114  -9.4114  -9.3987  -9.3986  -9.2977  -9.2977
    -4.2268  -4.2268  -4.0830  -4.0830  -3.9160  -3.9159  -3.8035  -3.8035
    -0.0616  -0.0616   0.2384   0.2385   0.5041   0.5042   0.6132   0.6132
     0.8857   0.8857   1.0192   1.0192   1.2160   1.2160   1.3976   1.3976
     1.9186   1.9186   1.9574   1.9574   2.0417   2.0418   2.1318   2.1318
     4.4073   4.4074   4.4360   4.4361   4.5610   4.5611   4.5697   4.5698
     5.2656   5.2656   5.4721   5.4721   5.6759   5.6759   5.8097   5.8097
     6.0854   6.0854   6.6291   6.6291   6.9808   6.9808   7.4891   7.4891
     8.9430   8.9430   9.3707   9.3707   9.8447   9.8447

          k = 0.5000 0.0219 0.0000 ( 29948 PWs)   bands (ev):

   -44.1951 -44.1950 -44.1934 -44.1933 -44.1891 -44.1891 -44.1886 -44.1884
   -44.1874 -44.1874 -44.1871 -44.1869 -44.1646 -44.1645 -44.1611 -44.1611
   -44.1590 -44.1588 -44.1588 -44.1588 -44.1552 -44.1552 -44.1544 -44.1543
   -44.1518 -44.1518 -44.1460 -44.1460 -44.1457 -44.1455 -44.0948 -44.0948
   -44.0930 -44.0930 -44.0576 -44.0576 -44.0535 -44.0535 -44.0422 -44.0421
   -18.1585 -18.1585 -18.1552 -18.1552 -18.1366 -18.1366 -18.1333 -18.1332
   -18.1309 -18.1308 -18.1248 -18.1248 -18.1215 -18.1215 -18.1156 -18.1156
   -18.1131 -18.1130 -18.1068 -18.1068 -18.1037 -18.1036 -18.1030 -18.1029
   -18.0912 -18.0911 -18.0829 -18.0827 -18.0813 -18.0813 -18.0800 -18.0799
   -18.0706 -18.0706 -18.0652 -18.0651 -18.0497 -18.0496 -18.0474 -18.0474
    -9.4292  -9.4292  -9.4105  -9.4105  -9.3979  -9.3978  -9.2969  -9.2968
    -4.2242  -4.2242  -4.0806  -4.0806  -3.9140  -3.9139  -3.8018  -3.8018
    -0.0665  -0.0665   0.2281   0.2281   0.4867   0.4867   0.5963   0.5964
     0.8598   0.8598   1.0046   1.0046   1.2195   1.2195   1.4019   1.4019
     1.9201   1.9201   1.9480   1.9481   2.0464   2.0464   2.1354   2.1354
     4.3606   4.3606   4.4784   4.4784   4.5407   4.5407   4.5886   4.5886
     5.2882   5.2882   5.5022   5.5022   5.7147   5.7147   5.8495   5.8495
     6.0908   6.0908   6.6359   6.6359   6.9806   6.9806   7.4838   7.4838
     8.9440   8.9440   9.3728   9.3728   9.8418   9.8418

          k = 0.5000 0.0439 0.0000 ( 29956 PWs)   bands (ev):

   -44.1951 -44.1950 -44.1934 -44.1933 -44.1891 -44.1890 -44.1886 -44.1884
   -44.1874 -44.1874 -44.1871 -44.1869 -44.1646 -44.1645 -44.1611 -44.1611
   -44.1590 -44.1589 -44.1589 -44.1589 -44.1552 -44.1551 -44.1544 -44.1542
   -44.1518 -44.1518 -44.1460 -44.1460 -44.1457 -44.1455 -44.0948 -44.0948
   -44.0931 -44.0930 -44.0577 -44.0576 -44.0535 -44.0535 -44.0422 -44.0421
   -18.1587 -18.1586 -18.1553 -18.1552 -18.1366 -18.1366 -18.1333 -18.1333
   -18.1309 -18.1308 -18.1248 -18.1248 -18.1216 -18.1216 -18.1156 -18.1155
   -18.1131 -18.1131 -18.1067 -18.1067 -18.1037 -18.1036 -18.1030 -18.1030
   -18.0912 -18.0911 -18.0828 -18.0827 -18.0812 -18.0812 -18.0800 -18.0799
   -18.0706 -18.0706 -18.0652 -18.0651 -18.0497 -18.0496 -18.0474 -18.0474
    -9.4265  -9.4265  -9.4080  -9.4079  -9.3954  -9.3953  -9.2944  -9.2944
    -4.2163  -4.2163  -4.0735  -4.0735  -3.9080  -3.9079  -3.7968  -3.7968
    -0.0816  -0.0816   0.1970   0.1970   0.4353   0.4353   0.5472   0.5472
     0.7994   0.7994   0.9663   0.9664   1.2178   1.2179   1.4081   1.4082
     1.9029   1.9029   1.9374   1.9374   2.0557   2.0557   2.1510   2.1511
     4.2991   4.2991   4.5003   4.5003   4.5541   4.5541   4.6162   4.6162
     5.3589   5.3589   5.5888   5.5888   5.8195   5.8195   5.9566   5.9566
     6.1088   6.1088   6.6574   6.6574   6.9806   6.9806   7.4685   7.4685
     8.9469   8.9469   9.3787   9.3787   9.8300   9.8301

          k = 0.5000 0.0658 0.0000 ( 29956 PWs)   bands (ev):

   -44.1951 -44.1950 -44.1934 -44.1934 -44.1890 -44.1890 -44.1886 -44.1884
   -44.1874 -44.1874 -44.1871 -44.1869 -44.1646 -44.1646 -44.1611 -44.1611
   -44.1590 -44.1589 -44.1589 -44.1589 -44.1551 -44.1551 -44.1544 -44.1542
   -44.1518 -44.1518 -44.1460 -44.1460 -44.1457 -44.1455 -44.0948 -44.0947
   -44.0931 -44.0930 -44.0577 -44.0576 -44.0535 -44.0534 -44.0422 -44.0421
   -18.1588 -18.1588 -18.1554 -18.1554 -18.1366 -18.1366 -18.1334 -18.1334
   -18.1309 -18.1308 -18.1247 -18.1247 -18.1218 -18.1217 -18.1155 -18.1154
   -18.1131 -18.1131 -18.1066 -18.1066 -18.1037 -18.1036 -18.1030 -18.1030
   -18.0912 -18.0911 -18.0827 -18.0826 -18.0811 -18.0810 -18.0799 -18.0799
   -18.0706 -18.0705 -18.0652 -18.0651 -18.0498 -18.0496 -18.0474 -18.0474
    -9.4221  -9.4221  -9.4037  -9.4037  -9.3914  -9.3913  -9.2904  -9.2904
    -4.2032  -4.2032  -4.0618  -4.0618  -3.8981  -3.8981  -3.7887  -3.7886
    -0.1088  -0.1088   0.1449   0.1449   0.3535   0.3535   0.4714   0.4714
     0.7291   0.7291   0.9152   0.9152   1.1989   1.1990   1.4012   1.4012
     1.8546   1.8546   1.9276   1.9277   2.0627   2.0628   2.1843   2.1843
     4.2410   4.2410   4.4898   4.4898   4.6216   4.6216   4.6707   4.6707
     5.4767   5.4767   5.7195   5.7195   5.9640   5.9640   6.0957   6.0957
     6.1557   6.1557   6.6978   6.6979   6.9833   6.9833   7.4444   7.4444
     8.9512   8.9513   9.3878   9.3878   9.7992   9.7992

          k = 0.5000 0.0878 0.0000 ( 29944 PWs)   bands (ev):

   -44.1950 -44.1950 -44.1934 -44.1933 -44.1890 -44.1890 -44.1885 -44.1884
   -44.1874 -44.1874 -44.1871 -44.1869 -44.1646 -44.1645 -44.1611 -44.1611
   -44.1590 -44.1589 -44.1589 -44.1588 -44.1551 -44.1551 -44.1544 -44.1542
   -44.1518 -44.1517 -44.1460 -44.1460 -44.1456 -44.1455 -44.0948 -44.0947
   -44.0930 -44.0930 -44.0577 -44.0576 -44.0535 -44.0534 -44.0422 -44.0421
   -18.1591 -18.1591 -18.1556 -18.1556 -18.1367 -18.1367 -18.1336 -18.1336
   -18.1310 -18.1309 -18.1246 -18.1246 -18.1220 -18.1219 -18.1154 -18.1153
   -18.1131 -18.1131 -18.1065 -18.1065 -18.1037 -18.1035 -18.1031 -18.1030
   -18.0911 -18.0911 -18.0826 -18.0825 -18.0809 -18.0809 -18.0799 -18.0799
   -18.0705 -18.0705 -18.0652 -18.0651 -18.0498 -18.0496 -18.0474 -18.0474
    -9.4160  -9.4160  -9.3979  -9.3979  -9.3858  -9.3858  -9.2849  -9.2849
    -4.1851  -4.1851  -4.0456  -4.0456  -3.8846  -3.8845  -3.7774  -3.7774
    -0.1506  -0.1506   0.0726   0.0727   0.2498   0.2498   0.3783   0.3783
     0.6588   0.6588   0.8590   0.8591   1.1626   1.1626   1.3691   1.3691
     1.7908   1.7908   1.9001   1.9001   2.0649   2.0649   2.2276   2.2276
     4.1990   4.1990   4.4992   4.4992   4.7028   4.7028   4.7713   4.7713
     5.6312   5.6312   5.8747   5.8747   6.1031   6.1031   6.2024   6.2024
     6.2996   6.2996   6.7660   6.7660   6.9937   6.9937   7.4143   7.4143
     8.9565   8.9565   9.3981   9.3981   9.7375   9.7376

          k = 0.5000 0.1097 0.0000 ( 29948 PWs)   bands (ev):

   -44.1950 -44.1949 -44.1934 -44.1934 -44.1890 -44.1890 -44.1885 -44.1883
   -44.1874 -44.1874 -44.1871 -44.1869 -44.1646 -44.1645 -44.1611 -44.1610
   -44.1590 -44.1589 -44.1589 -44.1588 -44.1551 -44.1551 -44.1544 -44.1542
   -44.1518 -44.1518 -44.1460 -44.1460 -44.1457 -44.1455 -44.0947 -44.0947
   -44.0931 -44.0930 -44.0577 -44.0576 -44.0535 -44.0534 -44.0422 -44.0421
   -18.1594 -18.1594 -18.1559 -18.1559 -18.1367 -18.1367 -18.1338 -18.1338
   -18.1311 -18.1310 -18.1245 -18.1245 -18.1222 -18.1222 -18.1152 -18.1152
   -18.1131 -18.1131 -18.1063 -18.1063 -18.1036 -18.1035 -18.1031 -18.1030
   -18.0911 -18.0911 -18.0825 -18.0824 -18.0807 -18.0807 -18.0799 -18.0799
   -18.0705 -18.0704 -18.0652 -18.0651 -18.0498 -18.0496 -18.0475 -18.0474
    -9.4084  -9.4084  -9.3907  -9.3907  -9.3790  -9.3789  -9.2781  -9.2780
    -4.1622  -4.1622  -4.0252  -4.0251  -3.8675  -3.8675  -3.7634  -3.7634
    -0.2100  -0.2100  -0.0169  -0.0169   0.1360   0.1360   0.2757   0.2757
     0.5901   0.5902   0.8005   0.8005   1.1113   1.1113   1.3101   1.3101
     1.7182   1.7182   1.8559   1.8560   2.0599   2.0599   2.2661   2.2661
     4.1854   4.1854   4.5386   4.5386   4.8077   4.8077   4.9106   4.9106
     5.8062   5.8062   6.0242   6.0242   6.2045   6.2045   6.3489   6.3490
     6.4745   6.4745   6.8743   6.8743   7.0225   7.0225   7.3837   7.3837
     8.9615   8.9616   9.4049   9.4049   9.6571   9.6571

          k = 0.5000 0.1317 0.0000 ( 29934 PWs)   bands (ev):

   -44.1950 -44.1949 -44.1934 -44.1933 -44.1889 -44.1889 -44.1885 -44.1883
   -44.1874 -44.1874 -44.1870 -44.1869 -44.1646 -44.1645 -44.1610 -44.1610
   -44.1590 -44.1589 -44.1589 -44.1589 -44.1551 -44.1551 -44.1543 -44.1541
   -44.1518 -44.1517 -44.1460 -44.1460 -44.1456 -44.1454 -44.0947 -44.0946
   -44.0930 -44.0930 -44.0577 -44.0576 -44.0534 -44.0534 -44.0422 -44.0421
   -18.1597 -18.1597 -18.1562 -18.1562 -18.1368 -18.1368 -18.1340 -18.1340
   -18.1311 -18.1310 -18.1244 -18.1244 -18.1225 -18.1225 -18.1151 -18.1150
   -18.1131 -18.1131 -18.1062 -18.1062 -18.1036 -18.1035 -18.1031 -18.1031
   -18.0911 -18.0910 -18.0823 -18.0822 -18.0805 -18.0804 -18.0799 -18.0799
   -18.0704 -18.0704 -18.0652 -18.0651 -18.0498 -18.0496 -18.0475 -18.0474
    -9.3995  -9.3995  -9.3822  -9.3822  -9.3709  -9.3708  -9.2700  -9.2700
    -4.1347  -4.1347  -4.0008  -4.0007  -3.8474  -3.8473  -3.7468  -3.7468
    -0.2889  -0.2889  -0.1193  -0.1192   0.0223   0.0223   0.1689   0.1689
     0.5223   0.5223   0.7384   0.7384   1.0468   1.0468   1.2298   1.2298
     1.6407   1.6407   1.8017   1.8017   2.0466   2.0466   2.2893   2.2893
     4.2082   4.2082   4.6093   4.6093   4.9405   4.9405   5.0794   5.0794
     5.9747   5.9747   6.1420   6.1421   6.3324   6.3324   6.4905   6.4906
     6.6487   6.6487   7.0232   7.0232   7.0899   7.0899   7.3653   7.3653
     8.9651   8.9651   9.3971   9.3971   9.5902   9.5902

          k = 0.5000 0.1536 0.0000 ( 29936 PWs)   bands (ev):

   -44.1949 -44.1949 -44.1934 -44.1933 -44.1889 -44.1889 -44.1884 -44.1882
   -44.1874 -44.1874 -44.1870 -44.1869 -44.1646 -44.1646 -44.1610 -44.1610
   -44.1591 -44.1589 -44.1589 -44.1589 -44.1550 -44.1550 -44.1543 -44.1541
   -44.1518 -44.1517 -44.1460 -44.1460 -44.1456 -44.1455 -44.0946 -44.0946
   -44.0930 -44.0930 -44.0577 -44.0577 -44.0534 -44.0533 -44.0422 -44.0421
   -18.1601 -18.1601 -18.1566 -18.1565 -18.1369 -18.1369 -18.1343 -18.1342
   -18.1312 -18.1311 -18.1242 -18.1242 -18.1228 -18.1228 -18.1149 -18.1149
   -18.1131 -18.1130 -18.1060 -18.1060 -18.1036 -18.1035 -18.1032 -18.1031
   -18.0910 -18.0910 -18.0822 -18.0821 -18.0802 -18.0802 -18.0798 -18.0798
   -18.0703 -18.0703 -18.0652 -18.0651 -18.0498 -18.0496 -18.0475 -18.0474
    -9.3894  -9.3894  -9.3726  -9.3726  -9.3618  -9.3617  -9.2609  -9.2609
    -4.1030  -4.1030  -3.9728  -3.9728  -3.8244  -3.8244  -3.7281  -3.7281
    -0.3858  -0.3858  -0.2291  -0.2291  -0.0856  -0.0856   0.0617   0.0617
     0.4529   0.4530   0.6696   0.6696   0.9704   0.9704   1.1370   1.1370
     1.5606   1.5607   1.7446   1.7446   2.0268   2.0269   2.2933   2.2933
     4.2684   4.2684   4.7072   4.7072   5.0968   5.0968   5.2713   5.2713
     6.0895   6.0895   6.2704   6.2704   6.4680   6.4680   6.6089   6.6089
     6.8199   6.8199   7.1677   7.1677   7.2186   7.2186   7.4032   7.4032
     8.9654   8.9654   9.3625   9.3625   9.5629   9.5629

          k = 0.5000 0.1756 0.0000 ( 29946 PWs)   bands (ev):

   -44.1949 -44.1948 -44.1934 -44.1933 -44.1889 -44.1889 -44.1884 -44.1882
   -44.1874 -44.1874 -44.1871 -44.1869 -44.1647 -44.1646 -44.1610 -44.1609
   -44.1591 -44.1590 -44.1590 -44.1589 -44.1550 -44.1550 -44.1543 -44.1541
   -44.1518 -44.1518 -44.1460 -44.1460 -44.1457 -44.1455 -44.0946 -44.0946
   -44.0931 -44.0930 -44.0577 -44.0577 -44.0534 -44.0533 -44.0422 -44.0421
   -18.1606 -18.1606 -18.1569 -18.1569 -18.1370 -18.1370 -18.1346 -18.1345
   -18.1313 -18.1312 -18.1241 -18.1241 -18.1232 -18.1231 -18.1147 -18.1147
   -18.1130 -18.1130 -18.1058 -18.1058 -18.1035 -18.1034 -18.1032 -18.1031
   -18.0910 -18.0909 -18.0820 -18.0819 -18.0801 -18.0800 -18.0797 -18.0796
   -18.0702 -18.0702 -18.0651 -18.0650 -18.0498 -18.0497 -18.0475 -18.0474
    -9.3783  -9.3783  -9.3622  -9.3621  -9.3519  -9.3518  -9.2510  -9.2510
    -4.0675  -4.0675  -3.9417  -3.9417  -3.7992  -3.7992  -3.7076  -3.7076
    -0.4951  -0.4951  -0.3417  -0.3417  -0.1868  -0.1868  -0.0431  -0.0431
     0.3787   0.3788   0.5912   0.5912   0.8838   0.8838   1.0405   1.0405
     1.4802   1.4802   1.6910   1.6910   2.0041   2.0041   2.2803   2.2803
     4.3611   4.3611   4.8246   4.8246   5.2689   5.2689   5.4808   5.4808
     6.1508   6.1508   6.4100   6.4100   6.5677   6.5677   6.7293   6.7294
     6.9826   6.9826   7.2602   7.2602   7.3978   7.3978   7.5621   7.5621
     8.9612   8.9612   9.3152   9.3152   9.5687   9.5687

          k = 0.5000 0.1975 0.0000 ( 29976 PWs)   bands (ev):

   -44.1949 -44.1948 -44.1935 -44.1934 -44.1889 -44.1889 -44.1884 -44.1882
   -44.1875 -44.1874 -44.1871 -44.1869 -44.1647 -44.1647 -44.1610 -44.1609
   -44.1592 -44.1590 -44.1590 -44.1590 -44.1550 -44.1550 -44.1543 -44.1541
   -44.1519 -44.1518 -44.1460 -44.1460 -44.1457 -44.1455 -44.0946 -44.0946
   -44.0931 -44.0930 -44.0578 -44.0577 -44.0534 -44.0533 -44.0422 -44.0422
   -18.1611 -18.1610 -18.1573 -18.1573 -18.1371 -18.1371 -18.1349 -18.1348
   -18.1314 -18.1313 -18.1240 -18.1239 -18.1235 -18.1235 -18.1146 -18.1145
   -18.1130 -18.1129 -18.1057 -18.1057 -18.1035 -18.1034 -18.1032 -18.1032
   -18.0910 -18.0909 -18.0818 -18.0817 -18.0800 -18.0800 -18.0794 -18.0794
   -18.0701 -18.0701 -18.0651 -18.0650 -18.0498 -18.0497 -18.0475 -18.0474
    -9.3666  -9.3666  -9.3511  -9.3511  -9.3414  -9.3413  -9.2405  -9.2405
    -4.0289  -4.0288  -3.9080  -3.9080  -3.7723  -3.7723  -3.6859  -3.6859
    -0.6095  -0.6095  -0.4531  -0.4530  -0.2823  -0.2823  -0.1434  -0.1434
     0.2967   0.2967   0.5020   0.5020   0.7886   0.7886   0.9460   0.9460
     1.4029   1.4029   1.6455   1.6455   1.9816   1.9816   2.2551   2.2551
     4.4781   4.4781   4.9527   4.9527   5.4468   5.4468   5.7022   5.7022
     6.1923   6.1923   6.5188   6.5188   6.6295   6.6296   6.8593   6.8593
     7.1197   7.1197   7.3827   7.3827   7.6117   7.6117   7.7838   7.7838
     8.9529   8.9529   9.2775   9.2775   9.5905   9.5905

          k = 0.5000 0.2194 0.0000 ( 29956 PWs)   bands (ev):

   -44.1949 -44.1948 -44.1934 -44.1933 -44.1889 -44.1889 -44.1884 -44.1882
   -44.1874 -44.1874 -44.1871 -44.1869 -44.1647 -44.1647 -44.1610 -44.1609
   -44.1592 -44.1590 -44.1590 -44.1590 -44.1550 -44.1550 -44.1543 -44.1541
   -44.1518 -44.1517 -44.1459 -44.1459 -44.1456 -44.1454 -44.0946 -44.0946
   -44.0930 -44.0930 -44.0578 -44.0577 -44.0534 -44.0533 -44.0421 -44.0421
   -18.1615 -18.1615 -18.1577 -18.1577 -18.1373 -18.1372 -18.1352 -18.1351
   -18.1314 -18.1314 -18.1240 -18.1240 -18.1236 -18.1236 -18.1144 -18.1144
   -18.1129 -18.1129 -18.1055 -18.1055 -18.1035 -18.1034 -18.1032 -18.1031
   -18.0909 -18.0908 -18.0816 -18.0815 -18.0799 -18.0799 -18.0791 -18.0790
   -18.0700 -18.0700 -18.0651 -18.0650 -18.0498 -18.0497 -18.0475 -18.0474
    -9.3545  -9.3545  -9.3397  -9.3397  -9.3306  -9.3305  -9.2297  -9.2297
    -3.9876  -3.9876  -3.8725  -3.8725  -3.7444  -3.7443  -3.6633  -3.6633
    -0.7229  -0.7229  -0.5600  -0.5600  -0.3724  -0.3723  -0.2378  -0.2378
     0.2060   0.2060   0.4031   0.4031   0.6866   0.6866   0.8546   0.8546
     1.3340   1.3341   1.6107   1.6108   1.9614   1.9614   2.2224   2.2224
     4.6106   4.6106   5.0826   5.0826   5.6165   5.6165   5.9299   5.9299
     6.2277   6.2278   6.5921   6.5921   6.6772   6.6772   6.9655   6.9655
     7.2611   7.2611   7.5685   7.5685   7.8388   7.8388   8.0185   8.0185
     8.9447   8.9447   9.2592   9.2593   9.6210   9.6210

          k = 0.5000 0.2414 0.0000 ( 29988 PWs)   bands (ev):

   -44.1949 -44.1949 -44.1934 -44.1934 -44.1889 -44.1889 -44.1884 -44.1882
   -44.1874 -44.1874 -44.1871 -44.1869 -44.1648 -44.1647 -44.1610 -44.1610
   -44.1592 -44.1591 -44.1590 -44.1590 -44.1550 -44.1550 -44.1543 -44.1541
   -44.1518 -44.1518 -44.1460 -44.1460 -44.1457 -44.1455 -44.0947 -44.0946
   -44.0931 -44.0930 -44.0578 -44.0578 -44.0534 -44.0533 -44.0422 -44.0421
   -18.1620 -18.1620 -18.1581 -18.1581 -18.1375 -18.1374 -18.1354 -18.1353
   -18.1315 -18.1314 -18.1244 -18.1243 -18.1235 -18.1235 -18.1143 -18.1143
   -18.1128 -18.1127 -18.1054 -18.1053 -18.1035 -18.1034 -18.1031 -18.1030
   -18.0908 -18.0908 -18.0814 -18.0813 -18.0799 -18.0799 -18.0788 -18.0787
   -18.0699 -18.0699 -18.0651 -18.0650 -18.0498 -18.0497 -18.0475 -18.0474
    -9.3422  -9.3422  -9.3282  -9.3282  -9.3198  -9.3197  -9.2188  -9.2188
    -3.9445  -3.9445  -3.8358  -3.8358  -3.7161  -3.7160  -3.6404  -3.6404
    -0.8311  -0.8311  -0.6601  -0.6601  -0.4564  -0.4564  -0.3258  -0.3258
     0.1095   0.1095   0.2976   0.2976   0.5798   0.5798   0.7638   0.7638
     1.2790   1.2790   1.5873   1.5873   1.9444   1.9444   2.1860   2.1860
     4.7510   4.7510   5.2060   5.2060   5.7589   5.7589   6.1575   6.1575
     6.2634   6.2635   6.6431   6.6431   6.7319   6.7319   7.0477   7.0477
     7.4308   7.4308   7.7767   7.7767   8.0661   8.0661   8.2505   8.2506
     8.9457   8.9457   9.2619   9.2619   9.6580   9.6580

          k = 0.5000 0.2633 0.0000 ( 29974 PWs)   bands (ev):

   -44.1949 -44.1949 -44.1934 -44.1933 -44.1889 -44.1889 -44.1884 -44.1882
   -44.1874 -44.1874 -44.1870 -44.1869 -44.1648 -44.1647 -44.1610 -44.1609
   -44.1592 -44.1590 -44.1590 -44.1590 -44.1550 -44.1550 -44.1543 -44.1541
   -44.1518 -44.1517 -44.1459 -44.1459 -44.1456 -44.1454 -44.0946 -44.0946
   -44.0930 -44.0930 -44.0578 -44.0578 -44.0534 -44.0533 -44.0421 -44.0421
   -18.1625 -18.1624 -18.1585 -18.1585 -18.1376 -18.1376 -18.1356 -18.1356
   -18.1316 -18.1315 -18.1247 -18.1247 -18.1234 -18.1234 -18.1142 -18.1142
   -18.1126 -18.1126 -18.1053 -18.1052 -18.1035 -18.1034 -18.1030 -18.1029
   -18.0908 -18.0907 -18.0812 -18.0812 -18.0799 -18.0799 -18.0784 -18.0784
   -18.0698 -18.0697 -18.0651 -18.0650 -18.0498 -18.0497 -18.0475 -18.0474
    -9.3301  -9.3300  -9.3170  -9.3169  -9.3092  -9.3091  -9.2081  -9.2081
    -3.9005  -3.9004  -3.7989  -3.7989  -3.6883  -3.6883  -3.6178  -3.6178
    -0.9312  -0.9312  -0.7514  -0.7514  -0.5332  -0.5332  -0.4074  -0.4074
     0.0122   0.0122   0.1896   0.1896   0.4708   0.4708   0.6706   0.6706
     1.2412   1.2412   1.5743   1.5743   1.9304   1.9304   2.1482   2.1482
     4.8932   4.8932   5.3168   5.3168   5.8548   5.8549   6.2907   6.2907
     6.3824   6.3824   6.7002   6.7002   6.8060   6.8060   7.1269   7.1269
     7.6039   7.6039   7.9822   7.9823   8.2854   8.2854   8.4720   8.4720
     8.9673   8.9673   9.2837   9.2837   9.7005   9.7005

          k = 0.5000 0.2853 0.0000 ( 30010 PWs)   bands (ev):

   -44.1950 -44.1949 -44.1934 -44.1933 -44.1889 -44.1889 -44.1885 -44.1883
   -44.1874 -44.1874 -44.1871 -44.1869 -44.1648 -44.1647 -44.1610 -44.1610
   -44.1592 -44.1591 -44.1591 -44.1591 -44.1551 -44.1551 -44.1543 -44.1541
   -44.1518 -44.1517 -44.1459 -44.1459 -44.1456 -44.1454 -44.0947 -44.0946
   -44.0931 -44.0930 -44.0579 -44.0578 -44.0534 -44.0534 -44.0421 -44.0421
   -18.1629 -18.1629 -18.1589 -18.1589 -18.1379 -18.1378 -18.1358 -18.1358
   -18.1317 -18.1316 -18.1251 -18.1251 -18.1232 -18.1232 -18.1142 -18.1142
   -18.1125 -18.1125 -18.1052 -18.1051 -18.1035 -18.1035 -18.1029 -18.1028
   -18.0907 -18.0907 -18.0811 -18.0810 -18.0798 -18.0798 -18.0781 -18.0781
   -18.0697 -18.0696 -18.0650 -18.0649 -18.0498 -18.0497 -18.0475 -18.0474
    -9.3184  -9.3184  -9.3062  -9.3062  -9.2991  -9.2990  -9.1979  -9.1979
    -3.8565  -3.8565  -3.7627  -3.7627  -3.6620  -3.6619  -3.5960  -3.5960
    -1.0212  -1.0212  -0.8325  -0.8325  -0.6017  -0.6016  -0.4835  -0.4835
    -0.0795  -0.0795   0.0834   0.0834   0.3626   0.3626   0.5742   0.5742
     1.2204   1.2205   1.5699   1.5700   1.9189   1.9189   2.1103   2.1103
     5.0327   5.0327   5.4114   5.4114   5.9016   5.9016   6.2974   6.2974
     6.5911   6.5911   6.7963   6.7963   6.8990   6.8991   7.2071   7.2071
     7.7592   7.7592   8.1721   8.1721   8.4916   8.4916   8.6774   8.6774
     9.0194   9.0194   9.3223   9.3224   9.7475   9.7475

          k = 0.5000 0.3072 0.0000 ( 30026 PWs)   bands (ev):

   -44.1950 -44.1949 -44.1934 -44.1934 -44.1889 -44.1889 -44.1885 -44.1883
   -44.1874 -44.1874 -44.1871 -44.1869 -44.1648 -44.1647 -44.1611 -44.1610
   -44.1592 -44.1591 -44.1591 -44.1590 -44.1551 -44.1551 -44.1543 -44.1542
   -44.1518 -44.1518 -44.1460 -44.1460 -44.1457 -44.1455 -44.0947 -44.0946
   -44.0931 -44.0930 -44.0579 -44.0578 -44.0534 -44.0534 -44.0422 -44.0421
   -18.1633 -18.1633 -18.1593 -18.1592 -18.1381 -18.1380 -18.1360 -18.1360
   -18.1317 -18.1317 -18.1254 -18.1254 -18.1231 -18.1231 -18.1141 -18.1141
   -18.1123 -18.1123 -18.1051 -18.1051 -18.1036 -18.1035 -18.1027 -18.1027
   -18.0907 -18.0906 -18.0810 -18.0809 -18.0798 -18.0798 -18.0779 -18.0778
   -18.0696 -18.0695 -18.0650 -18.0649 -18.0499 -18.0497 -18.0475 -18.0474
    -9.3074  -9.3074  -9.2963  -9.2963  -9.2898  -9.2897  -9.1884  -9.1884
    -3.8139  -3.8139  -3.7283  -3.7283  -3.6379  -3.6379  -3.5754  -3.5753
    -1.0999  -1.0999  -0.9023  -0.9023  -0.6610  -0.6610  -0.5547  -0.5547
    -0.1598  -0.1598  -0.0168  -0.0168   0.2584   0.2584   0.4768   0.4768
     1.2139   1.2139   1.5721   1.5721   1.9094   1.9094   2.0735   2.0735
     5.1662   5.1662   5.4889   5.4890   5.9139   5.9139   6.2726   6.2726
     6.7827   6.7827   6.9247   6.9247   7.0092   7.0092   7.2842   7.2842
     7.8860   7.8860   8.3384   8.3384   8.6818   8.6818   8.8639   8.8639
     9.1049   9.1050   9.3749   9.3749   9.7980   9.7980

          k = 0.5000 0.3292 0.0000 ( 30018 PWs)   bands (ev):

   -44.1950 -44.1949 -44.1934 -44.1933 -44.1890 -44.1889 -44.1885 -44.1883
   -44.1874 -44.1874 -44.1870 -44.1869 -44.1648 -44.1647 -44.1611 -44.1610
   -44.1592 -44.1591 -44.1590 -44.1590 -44.1551 -44.1551 -44.1543 -44.1542
   -44.1518 -44.1517 -44.1459 -44.1459 -44.1456 -44.1454 -44.0947 -44.0947
   -44.0930 -44.0930 -44.0578 -44.0578 -44.0535 -44.0534 -44.0421 -44.0421
   -18.1637 -18.1637 -18.1596 -18.1595 -18.1383 -18.1382 -18.1361 -18.1361
   -18.1318 -18.1317 -18.1257 -18.1257 -18.1230 -18.1230 -18.1141 -18.1141
   -18.1122 -18.1122 -18.1050 -18.1050 -18.1036 -18.1035 -18.1026 -18.1026
   -18.0907 -18.0906 -18.0808 -18.0808 -18.0797 -18.0797 -18.0776 -18.0776
   -18.0695 -18.0694 -18.0650 -18.0649 -18.0499 -18.0497 -18.0475 -18.0474
    -9.2975  -9.2975  -9.2874  -9.2874  -9.2815  -9.2814  -9.1799  -9.1798
    -3.7738  -3.7738  -3.6968  -3.6968  -3.6170  -3.6170  -3.5565  -3.5565
    -1.1663  -1.1663  -0.9603  -0.9602  -0.7109  -0.7109  -0.6215  -0.6215
    -0.2245  -0.2245  -0.1071  -0.1071   0.1613   0.1613   0.3822   0.3822
     1.2175   1.2175   1.5787   1.5787   1.9012   1.9012   2.0388   2.0388
     5.2912   5.2912   5.5506   5.5506   5.9079   5.9079   6.2276   6.2276
     6.9526   6.9526   7.0511   7.0511   7.1350   7.1350   7.3548   7.3548
     7.9823   7.9823   8.4779   8.4779   8.8549   8.8549   9.0315   9.0316
     9.2141   9.2142   9.4378   9.4378   9.8495   9.8495

          k = 0.5000 0.3511 0.0000 ( 30030 PWs)   bands (ev):

   -44.1950 -44.1949 -44.1934 -44.1933 -44.1889 -44.1889 -44.1885 -44.1883
   -44.1874 -44.1874 -44.1871 -44.1869 -44.1647 -44.1647 -44.1611 -44.1610
   -44.1592 -44.1590 -44.1590 -44.1590 -44.1551 -44.1551 -44.1543 -44.1542
   -44.1518 -44.1518 -44.1460 -44.1460 -44.1457 -44.1455 -44.0947 -44.0946
   -44.0930 -44.0930 -44.0578 -44.0577 -44.0534 -44.0534 -44.0422 -44.0421
   -18.1640 -18.1640 -18.1598 -18.1598 -18.1385 -18.1384 -18.1362 -18.1362
   -18.1318 -18.1318 -18.1260 -18.1259 -18.1229 -18.1229 -18.1141 -18.1141
   -18.1121 -18.1120 -18.1050 -18.1050 -18.1036 -18.1035 -18.1025 -18.1025
   -18.0906 -18.0906 -18.0807 -18.0807 -18.0797 -18.0797 -18.0774 -18.0773
   -18.0694 -18.0693 -18.0650 -18.0649 -18.0499 -18.0497 -18.0475 -18.0474
    -9.2889  -9.2889  -9.2799  -9.2799  -9.2743  -9.2742  -9.1726  -9.1725
    -3.7377  -3.7377  -3.6693  -3.6693  -3.5999  -3.5998  -3.5398  -3.5398
    -1.2201  -1.2201  -1.0063  -1.0063  -0.7517  -0.7516  -0.6823  -0.6823
    -0.2723  -0.2723  -0.1836  -0.1836   0.0747   0.0747   0.2944   0.2944
     1.2273   1.2273   1.5876   1.5876   1.8941   1.8941   2.0073   2.0073
     5.4057   5.4058   5.5988   5.5988   5.8935   5.8935   6.1726   6.1726
     7.0956   7.0956   7.1572   7.1573   7.2626   7.2626   7.4183   7.4183
     8.0528   8.0528   8.5915   8.5915   9.0092   9.0092   9.1811   9.1811
     9.3285   9.3286   9.5069   9.5069   9.8960   9.8960

          k = 0.5000 0.3730 0.0000 ( 30034 PWs)   bands (ev):

   -44.1950 -44.1949 -44.1933 -44.1933 -44.1890 -44.1890 -44.1885 -44.1883
   -44.1873 -44.1873 -44.1870 -44.1868 -44.1647 -44.1647 -44.1611 -44.1610
   -44.1592 -44.1591 -44.1590 -44.1590 -44.1551 -44.1551 -44.1544 -44.1542
   -44.1518 -44.1517 -44.1459 -44.1459 -44.1456 -44.1454 -44.0947 -44.0947
   -44.0930 -44.0929 -44.0578 -44.0578 -44.0535 -44.0534 -44.0421 -44.0421
   -18.1642 -18.1642 -18.1601 -18.1600 -18.1387 -18.1386 -18.1363 -18.1363
   -18.1319 -18.1318 -18.1262 -18.1261 -18.1228 -18.1228 -18.1141 -18.1140
   -18.1120 -18.1119 -18.1050 -18.1049 -18.1036 -18.1035 -18.1024 -18.1024
   -18.0906 -18.0905 -18.0807 -18.0806 -18.0797 -18.0796 -18.0772 -18.0772
   -18.0693 -18.0693 -18.0650 -18.0649 -18.0499 -18.0497 -18.0475 -18.0474
    -9.2819  -9.2818  -9.2739  -9.2739  -9.2686  -9.2685  -9.1667  -9.1666
    -3.7070  -3.7070  -3.6469  -3.6469  -3.5869  -3.5869  -3.5260  -3.5260
    -1.2612  -1.2612  -1.0407  -1.0407  -0.7841  -0.7841  -0.7342  -0.7342
    -0.3055  -0.3055  -0.2424  -0.2424   0.0019   0.0019   0.2180   0.2180
     1.2395   1.2395   1.5971   1.5971   1.8878   1.8879   1.9805   1.9805
     5.5074   5.5074   5.6363   5.6363   5.8766   5.8766   6.1140   6.1141
     7.2054   7.2054   7.2408   7.2409   7.3730   7.3730   7.4753   7.4754
     8.1040   8.1040   8.6808   8.6808   9.1402   9.1402   9.3103   9.3103
     9.4313   9.4314   9.5761   9.5761   9.9311   9.9311

          k = 0.5000 0.3950 0.0000 ( 30050 PWs)   bands (ev):

   -44.1950 -44.1950 -44.1933 -44.1933 -44.1890 -44.1890 -44.1885 -44.1883
   -44.1873 -44.1873 -44.1870 -44.1868 -44.1648 -44.1647 -44.1611 -44.1610
   -44.1592 -44.1591 -44.1591 -44.1590 -44.1551 -44.1551 -44.1544 -44.1542
   -44.1518 -44.1517 -44.1459 -44.1459 -44.1456 -44.1454 -44.0947 -44.0947
   -44.0930 -44.0929 -44.0579 -44.0578 -44.0535 -44.0534 -44.0421 -44.0421
   -18.1644 -18.1644 -18.1602 -18.1602 -18.1388 -18.1387 -18.1364 -18.1363
   -18.1319 -18.1318 -18.1263 -18.1263 -18.1228 -18.1228 -18.1141 -18.1140
   -18.1119 -18.1119 -18.1050 -18.1049 -18.1036 -18.1036 -18.1023 -18.1023
   -18.0906 -18.0905 -18.0806 -18.0806 -18.0796 -18.0796 -18.0771 -18.0771
   -18.0692 -18.0692 -18.0649 -18.0648 -18.0499 -18.0497 -18.0475 -18.0474
    -9.2766  -9.2766  -9.2696  -9.2696  -9.2643  -9.2642  -9.1623  -9.1623
    -3.6832  -3.6832  -3.6304  -3.6304  -3.5781  -3.5780  -3.5156  -3.5156
    -1.2900  -1.2900  -1.0641  -1.0641  -0.8095  -0.8095  -0.7724  -0.7724
    -0.3295  -0.3295  -0.2793  -0.2793  -0.0538  -0.0538   0.1576   0.1576
     1.2509   1.2509   1.6054   1.6054   1.8826   1.8827   1.9600   1.9600
     5.5909   5.5909   5.6667   5.6667   5.8607   5.8608   6.0574   6.0574
     7.2794   7.2795   7.2993   7.2993   7.4574   7.4574   7.5234   7.5234
     8.1400   8.1400   8.7459   8.7459   9.2413   9.2413   9.4134   9.4134
     9.5116   9.5116   9.6369   9.6369   9.9524   9.9524

          k = 0.5000 0.4169 0.0000 ( 30026 PWs)   bands (ev):

   -44.1950 -44.1949 -44.1933 -44.1932 -44.1889 -44.1889 -44.1885 -44.1883
   -44.1873 -44.1873 -44.1870 -44.1868 -44.1648 -44.1648 -44.1610 -44.1610
   -44.1593 -44.1591 -44.1591 -44.1591 -44.1551 -44.1551 -44.1543 -44.1541
   -44.1517 -44.1517 -44.1459 -44.1459 -44.1456 -44.1454 -44.0947 -44.0946
   -44.0930 -44.0929 -44.0579 -44.0578 -44.0534 -44.0534 -44.0421 -44.0420
   -18.1645 -18.1645 -18.1603 -18.1603 -18.1388 -18.1388 -18.1364 -18.1364
   -18.1319 -18.1318 -18.1264 -18.1264 -18.1227 -18.1227 -18.1141 -18.1140
   -18.1118 -18.1118 -18.1049 -18.1049 -18.1036 -18.1036 -18.1023 -18.1022
   -18.0906 -18.0905 -18.0806 -18.0806 -18.0796 -18.0796 -18.0770 -18.0770
   -18.0692 -18.0692 -18.0649 -18.0648 -18.0499 -18.0497 -18.0475 -18.0474
    -9.2733  -9.2733  -9.2670  -9.2670  -9.2618  -9.2616  -9.1597  -9.1596
    -3.6679  -3.6679  -3.6204  -3.6204  -3.5731  -3.5731  -3.5091  -3.5091
    -1.3069  -1.3069  -1.0776  -1.0776  -0.8275  -0.8275  -0.7943  -0.7943
    -0.3468  -0.3468  -0.2955  -0.2955  -0.0890  -0.0890   0.1184   0.1184
     1.2590   1.2590   1.6110   1.6110   1.8790   1.8791   1.9471   1.9471
     5.6429   5.6429   5.6967   5.6967   5.8484   5.8484   6.0112   6.0113
     7.3208   7.3208   7.3327   7.3327   7.5120   7.5121   7.5551   7.5551
     8.1619   8.1619   8.7859   8.7859   9.3055   9.3055   9.4821   9.4821
     9.5624   9.5624   9.6788   9.6788   9.9623   9.9623

          k = 0.5000 0.4389 0.0000 ( 30032 PWs)   bands (ev):

   -44.1950 -44.1949 -44.1933 -44.1932 -44.1890 -44.1890 -44.1885 -44.1883
   -44.1873 -44.1873 -44.1870 -44.1868 -44.1648 -44.1648 -44.1610 -44.1610
   -44.1593 -44.1591 -44.1591 -44.1591 -44.1551 -44.1551 -44.1543 -44.1542
   -44.1517 -44.1516 -44.1459 -44.1459 -44.1455 -44.1454 -44.0947 -44.0947
   -44.0930 -44.0929 -44.0579 -44.0578 -44.0534 -44.0534 -44.0421 -44.0420
   -18.1646 -18.1645 -18.1604 -18.1603 -18.1389 -18.1388 -18.1364 -18.1364
   -18.1319 -18.1318 -18.1265 -18.1264 -18.1227 -18.1227 -18.1141 -18.1140
   -18.1118 -18.1118 -18.1049 -18.1049 -18.1036 -18.1036 -18.1023 -18.1022
   -18.0905 -18.0905 -18.0806 -18.0805 -18.0796 -18.0796 -18.0770 -18.0770
   -18.0692 -18.0692 -18.0649 -18.0648 -18.0499 -18.0497 -18.0475 -18.0474
    -9.2722  -9.2722  -9.2661  -9.2661  -9.2609  -9.2608  -9.1588  -9.1587
    -3.6626  -3.6626  -3.6171  -3.6171  -3.5715  -3.5715  -3.5069  -3.5069
    -1.3125  -1.3125  -1.0820  -1.0820  -0.8343  -0.8343  -0.8011  -0.8011
    -0.3533  -0.3533  -0.2994  -0.2994  -0.1011  -0.1011   0.1047   0.1047
     1.2619   1.2619   1.6130   1.6130   1.8777   1.8777   1.9427   1.9427
     5.6573   5.6573   5.7146   5.7146   5.8431   5.8431   5.9919   5.9919
     7.3338   7.3339   7.3434   7.3435   7.5317   7.5318   7.5655   7.5656
     8.1693   8.1693   8.7994   8.7994   9.3275   9.3275   9.5066   9.5066
     9.5797   9.5797   9.6937   9.6937   9.9650   9.9650

          k = 0.4750 0.4169 0.0000 ( 30064 PWs)   bands (ev):

   -44.1950 -44.1950 -44.1934 -44.1933 -44.1890 -44.1890 -44.1885 -44.1883
   -44.1874 -44.1874 -44.1870 -44.1869 -44.1648 -44.1648 -44.1611 -44.1610
   -44.1593 -44.1591 -44.1591 -44.1591 -44.1551 -44.1551 -44.1544 -44.1542
   -44.1518 -44.1517 -44.1460 -44.1459 -44.1456 -44.1454 -44.0948 -44.0947
   -44.0930 -44.0930 -44.0579 -44.0578 -44.0535 -44.0534 -44.0421 -44.0421
   -18.1647 -18.1642 -18.1602 -18.1602 -18.1390 -18.1386 -18.1365 -18.1363
   -18.1321 -18.1317 -18.1264 -18.1263 -18.1230 -18.1224 -18.1142 -18.1139
   -18.1119 -18.1118 -18.1051 -18.1049 -18.1037 -18.1036 -18.1027 -18.1018
   -18.0906 -18.0905 -18.0808 -18.0805 -18.0799 -18.0793 -18.0770 -18.0770
   -18.0692 -18.0692 -18.0649 -18.0648 -18.0499 -18.0498 -18.0475 -18.0475
    -9.2890  -9.2799  -9.2775  -9.2633  -9.2561  -9.2556  -9.1624  -9.1624
    -3.7023  -3.6759  -3.6665  -3.5770  -3.5581  -3.5492  -3.5063  -3.5043
    -1.3308  -1.2910  -1.1165  -1.0489  -0.8473  -0.8055  -0.7944  -0.7859
    -0.3593  -0.3251  -0.3134  -0.2584  -0.0883  -0.0363   0.1170   0.1818
     1.2354   1.2722   1.5830   1.6318   1.8719   1.8902   1.9513   1.9543
     5.5749   5.6399   5.6702   5.7172   5.8472   5.8713   6.0049   6.0925
     7.2932   7.2943   7.3397   7.3465   7.4822   7.5227   7.5475   7.5650
     8.1537   8.1698   8.7587   8.8013   9.2593   9.3239   9.4440   9.4796
     9.5290   9.5656   9.6442   9.6790   9.9457   9.9547

          k = 0.4500 0.3950 0.0000 ( 30061 PWs)   bands (ev):

   -44.1950 -44.1949 -44.1935 -44.1933 -44.1890 -44.1889 -44.1885 -44.1883
   -44.1874 -44.1874 -44.1871 -44.1869 -44.1648 -44.1647 -44.1611 -44.1610
   -44.1593 -44.1591 -44.1591 -44.1590 -44.1551 -44.1551 -44.1544 -44.1542
   -44.1518 -44.1518 -44.1460 -44.1460 -44.1457 -44.1455 -44.0947 -44.0947
   -44.0931 -44.0930 -44.0579 -44.0578 -44.0535 -44.0534 -44.0422 -44.0421
   -18.1646 -18.1635 -18.1599 -18.1598 -18.1391 -18.1383 -18.1366 -18.1363
   -18.1323 -18.1317 -18.1260 -18.1260 -18.1234 -18.1221 -18.1143 -18.1138
   -18.1120 -18.1119 -18.1054 -18.1050 -18.1039 -18.1037 -18.1031 -18.1014
   -18.0907 -18.0906 -18.0812 -18.0805 -18.0800 -18.0789 -18.0772 -18.0771
   -18.0691 -18.0691 -18.0650 -18.0649 -18.0501 -18.0499 -18.0477 -18.0476
    -9.3219  -9.3061  -9.2925  -9.2679  -9.2554  -9.2500  -9.1711  -9.1711
    -3.7749  -3.7243  -3.7056  -3.5490  -3.5422  -3.5233  -3.4968  -3.4888
    -1.3670  -1.2308  -1.1596  -0.9958  -0.8909  -0.8044  -0.7275  -0.7190
    -0.3240  -0.3086  -0.2727  -0.1399  -0.0449   0.1024   0.1711   0.3591
     1.1718   1.2995   1.5292   1.6589   1.8574   1.9199   1.9789   1.9817
     5.3835   5.5453   5.6575   5.7400   5.8796   5.9251   6.0569   6.2355
     7.1983   7.1990   7.2663   7.3075   7.3790   7.4854   7.5128   7.5788
     8.1080   8.1628   8.6546   8.7862   9.0864   9.2631   9.2843   9.3629
     9.4500   9.5079   9.5514   9.6218   9.8811   9.9335

          k = 0.4250 0.3730 0.0000 ( 30044 PWs)   bands (ev):

   -44.1950 -44.1949 -44.1935 -44.1934 -44.1890 -44.1889 -44.1885 -44.1883
   -44.1875 -44.1874 -44.1871 -44.1869 -44.1648 -44.1647 -44.1611 -44.1610
   -44.1592 -44.1591 -44.1590 -44.1590 -44.1551 -44.1551 -44.1544 -44.1542
   -44.1518 -44.1517 -44.1460 -44.1459 -44.1456 -44.1455 -44.0947 -44.0947
   -44.0931 -44.0930 -44.0578 -44.0578 -44.0534 -44.0534 -44.0422 -44.0421
   -18.1642 -18.1626 -18.1594 -18.1592 -18.1394 -18.1380 -18.1366 -18.1364
   -18.1324 -18.1317 -18.1255 -18.1254 -18.1237 -18.1218 -18.1144 -18.1138
   -18.1123 -18.1119 -18.1058 -18.1052 -18.1043 -18.1039 -18.1035 -18.1010
   -18.0908 -18.0907 -18.0817 -18.0805 -18.0801 -18.0787 -18.0773 -18.0772
   -18.0691 -18.0691 -18.0650 -18.0649 -18.0503 -18.0501 -18.0479 -18.0478
    -9.3693  -9.3453  -9.3160  -9.2892  -9.2601  -9.2433  -9.1794  -9.1793
    -3.8596  -3.7866  -3.7355  -3.5441  -3.5421  -3.4982  -3.4703  -3.4592
    -1.3949  -1.2094  -1.1223  -0.9768  -0.8763  -0.8373  -0.6194  -0.6101
    -0.2808  -0.2695  -0.1358  -0.0163   0.0797   0.1781   0.3522   0.5781
     1.0972   1.3433   1.4623   1.7006   1.8315   1.9669   2.0105   2.0282
     5.1553   5.4314   5.6568   5.7819   5.9149   5.9878   6.1173   6.3589
     6.9976   7.0414   7.1148   7.2073   7.2873   7.4466   7.4862   7.6103
     8.0346   8.1260   8.4823   8.7323   8.8315   9.0036   9.1844   9.2347
     9.3702   9.4012   9.4868   9.5158   9.7289   9.8953

          k = 0.4000 0.3511 0.0000 ( 30041 PWs)   bands (ev):

   -44.1950 -44.1949 -44.1935 -44.1934 -44.1890 -44.1889 -44.1885 -44.1883
   -44.1875 -44.1874 -44.1871 -44.1869 -44.1648 -44.1647 -44.1611 -44.1610
   -44.1593 -44.1591 -44.1591 -44.1590 -44.1551 -44.1551 -44.1543 -44.1542
   -44.1518 -44.1518 -44.1460 -44.1460 -44.1457 -44.1455 -44.0947 -44.0946
   -44.0931 -44.0930 -44.0579 -44.0578 -44.0534 -44.0534 -44.0422 -44.0421
   -18.1636 -18.1614 -18.1586 -18.1583 -18.1398 -18.1378 -18.1368 -18.1365
   -18.1323 -18.1316 -18.1247 -18.1247 -18.1241 -18.1214 -18.1144 -18.1138
   -18.1127 -18.1120 -18.1064 -18.1056 -18.1048 -18.1042 -18.1039 -18.1005
   -18.0910 -18.0908 -18.0824 -18.0806 -18.0801 -18.0785 -18.0775 -18.0774
   -18.0690 -18.0689 -18.0650 -18.0649 -18.0506 -18.0504 -18.0482 -18.0481
    -9.4294  -9.3972  -9.3539  -9.3271  -9.2674  -9.2373  -9.1831  -9.1828
    -3.9488  -3.8513  -3.7618  -3.5498  -3.5469  -3.4740  -3.4354  -3.4215
    -1.4016  -1.2262  -1.0397  -0.9618  -0.8914  -0.7549  -0.4924  -0.4771
    -0.2376  -0.1953   0.0455   0.0983   0.2329   0.2957   0.5782   0.8086
     1.0436   1.3615   1.4431   1.7403   1.8178   2.0192   2.0446   2.0994
     4.9162   5.3018   5.6629   5.8354   5.9535   6.0446   6.1647   6.4225
     6.7268   6.8332   6.8914   7.0828   7.2021   7.3957   7.4682   7.6515
     7.9311   8.0505   8.2415   8.4951   8.5855   8.7853   9.0772   9.1470
     9.2613   9.3280   9.3652   9.4302   9.5279   9.7767

          k = 0.3750 0.3292 0.0000 ( 30025 PWs)   bands (ev):

   -44.1950 -44.1949 -44.1935 -44.1934 -44.1890 -44.1889 -44.1885 -44.1883
   -44.1875 -44.1874 -44.1871 -44.1869 -44.1648 -44.1647 -44.1611 -44.1610
   -44.1592 -44.1591 -44.1590 -44.1590 -44.1551 -44.1551 -44.1543 -44.1542
   -44.1518 -44.1517 -44.1460 -44.1460 -44.1456 -44.1455 -44.0947 -44.0946
   -44.0931 -44.0930 -44.0579 -44.0578 -44.0534 -44.0534 -44.0422 -44.0421
   -18.1628 -18.1601 -18.1578 -18.1573 -18.1405 -18.1378 -18.1371 -18.1365
   -18.1318 -18.1314 -18.1245 -18.1238 -18.1238 -18.1211 -18.1146 -18.1139
   -18.1132 -18.1121 -18.1070 -18.1060 -18.1054 -18.1046 -18.1043 -18.1000
   -18.0912 -18.0910 -18.0831 -18.0807 -18.0801 -18.0785 -18.0777 -18.0776
   -18.0688 -18.0688 -18.0650 -18.0649 -18.0510 -18.0508 -18.0485 -18.0484
    -9.5002  -9.4605  -9.4068  -9.3792  -9.2750  -9.2327  -9.1824  -9.1810
    -4.0363  -3.9153  -3.7847  -3.5562  -3.5497  -3.4488  -3.3937  -3.3742
    -1.3836  -1.2204  -1.0370  -0.9221  -0.8198  -0.6249  -0.3679  -0.3566
    -0.1691  -0.0901   0.1693   0.2958   0.3174   0.5207   0.8051   1.0074
     1.0631   1.3229   1.5245   1.7281   1.8816   2.0319   2.1280   2.1926
     4.6827   5.1586   5.6603   5.8911   5.9898   6.0869   6.1793   6.3238
     6.4411   6.6336   6.7066   6.9175   7.0588   7.3445   7.4550   7.6786
     7.7984   7.9638   7.9918   8.1571   8.2420   8.7095   9.0341   9.0550
     9.1329   9.1988   9.2278   9.3212   9.4566   9.6399

          k = 0.3500 0.3072 0.0000 ( 30004 PWs)   bands (ev):

   -44.1950 -44.1949 -44.1935 -44.1934 -44.1890 -44.1889 -44.1885 -44.1883
   -44.1875 -44.1874 -44.1871 -44.1869 -44.1648 -44.1646 -44.1611 -44.1610
   -44.1592 -44.1591 -44.1590 -44.1589 -44.1551 -44.1550 -44.1543 -44.1542
   -44.1518 -44.1517 -44.1460 -44.1460 -44.1457 -44.1455 -44.0947 -44.0946
   -44.0931 -44.0930 -44.0578 -44.0578 -44.0534 -44.0534 -44.0422 -44.0421
   -18.1619 -18.1586 -18.1569 -18.1562 -18.1414 -18.1383 -18.1376 -18.1367
   -18.1311 -18.1308 -18.1248 -18.1229 -18.1228 -18.1208 -18.1149 -18.1141
   -18.1137 -18.1121 -18.1078 -18.1065 -18.1060 -18.1050 -18.1047 -18.0995
   -18.0914 -18.0911 -18.0838 -18.0808 -18.0802 -18.0786 -18.0779 -18.0777
   -18.0686 -18.0686 -18.0649 -18.0648 -18.0514 -18.0513 -18.0488 -18.0488
    -9.5791  -9.5328  -9.4716  -9.4419  -9.2823  -9.2298  -9.1793  -9.1755
    -4.1172  -3.9754  -3.8058  -3.5686  -3.5366  -3.4150  -3.3425  -3.3162
    -1.3416  -1.1903  -1.0232  -0.9214  -0.6651  -0.4897  -0.3021  -0.2625
    -0.0571   0.0360   0.2931   0.3905   0.5448   0.7427   1.0123   1.0888
     1.2395   1.3228   1.6042   1.7504   1.9738   2.0490   2.2353   2.3009
     4.4751   5.0111   5.6096   5.9154   5.9783   6.0354   6.1465   6.1636
     6.2402   6.4328   6.5823   6.7204   6.8278   7.3094   7.4415   7.5990
     7.6840   7.7659   7.8183   7.8775   8.0072   8.6497   8.8785   8.9773
     9.0216   9.0769   9.1430   9.1916   9.4831   9.4985

          k = 0.3250 0.2853 0.0000 ( 29993 PWs)   bands (ev):

   -44.1950 -44.1949 -44.1935 -44.1934 -44.1890 -44.1889 -44.1885 -44.1883
   -44.1875 -44.1874 -44.1871 -44.1869 -44.1648 -44.1646 -44.1611 -44.1609
   -44.1592 -44.1591 -44.1590 -44.1589 -44.1551 -44.1551 -44.1543 -44.1542
   -44.1519 -44.1517 -44.1460 -44.1460 -44.1457 -44.1455 -44.0947 -44.0947
   -44.0931 -44.0930 -44.0578 -44.0577 -44.0535 -44.0534 -44.0422 -44.0421
   -18.1609 -18.1570 -18.1559 -18.1549 -18.1424 -18.1390 -18.1380 -18.1373
   -18.1301 -18.1300 -18.1250 -18.1219 -18.1219 -18.1206 -18.1155 -18.1144
   -18.1139 -18.1120 -18.1086 -18.1070 -18.1067 -18.1054 -18.1052 -18.0989
   -18.0917 -18.0913 -18.0845 -18.0811 -18.0805 -18.0788 -18.0780 -18.0777
   -18.0684 -18.0683 -18.0647 -18.0646 -18.0520 -18.0519 -18.0492 -18.0492
    -9.6638  -9.6118  -9.5445  -9.5122  -9.2899  -9.2284  -9.1752  -9.1680
    -4.1871  -4.0279  -3.8253  -3.5823  -3.5050  -3.3671  -3.2793  -3.2464
    -1.2776  -1.1382  -0.9879  -0.8953  -0.5319  -0.3610  -0.2902  -0.1802
     0.0641   0.1477   0.4258   0.5282   0.7672   0.9500   1.1882   1.2095
     1.3791   1.4040   1.6258   1.8902   1.9989   2.1571   2.3531   2.4040
     4.3225   4.8800   5.4678   5.6590   5.8964   6.0051   6.0850   6.1522
     6.1912   6.2479   6.3985   6.4994   6.5587   7.2824   7.3950   7.4309
     7.4749   7.5116   7.6318   7.8110   8.0311   8.5786   8.6812   8.8188
     8.8637   8.9163   9.0712   9.2885   9.3615   9.4317

          k = 0.3000 0.2633 0.0000 ( 29977 PWs)   bands (ev):

   -44.1950 -44.1949 -44.1935 -44.1933 -44.1890 -44.1889 -44.1885 -44.1883
   -44.1875 -44.1874 -44.1871 -44.1869 -44.1648 -44.1646 -44.1611 -44.1610
   -44.1592 -44.1591 -44.1590 -44.1589 -44.1551 -44.1551 -44.1543 -44.1542
   -44.1519 -44.1517 -44.1460 -44.1460 -44.1456 -44.1455 -44.0947 -44.0947
   -44.0931 -44.0930 -44.0578 -44.0577 -44.0535 -44.0534 -44.0422 -44.0421
   -18.1598 -18.1555 -18.1550 -18.1537 -18.1434 -18.1400 -18.1386 -18.1380
   -18.1290 -18.1288 -18.1251 -18.1212 -18.1211 -18.1204 -18.1163 -18.1149
   -18.1138 -18.1120 -18.1094 -18.1076 -18.1074 -18.1059 -18.1057 -18.0983
   -18.0919 -18.0914 -18.0852 -18.0814 -18.0809 -18.0791 -18.0779 -18.0776
   -18.0681 -18.0680 -18.0645 -18.0644 -18.0526 -18.0525 -18.0495 -18.0495
    -9.7517  -9.6947  -9.6223  -9.5873  -9.2981  -9.2286  -9.1709  -9.1595
    -4.2427  -4.0697  -3.8415  -3.5939  -3.4530  -3.3027  -3.2024  -3.1637
    -1.1946  -1.0674  -0.9351  -0.8445  -0.4962  -0.2593  -0.2237  -0.1160
     0.1738   0.2312   0.5465   0.7053   0.9658   1.1403   1.3467   1.3728
     1.4833   1.5196   1.6628   2.0044   2.0796   2.2992   2.4617   2.4733
     4.2587   4.7951   5.2828   5.3660   5.7735   5.9000   5.9689   6.0490
     6.1460   6.1658   6.1980   6.2973   6.4052   7.1499   7.1683   7.2698
     7.3510   7.4137   7.6192   7.8009   8.0639   8.4552   8.5179   8.6541
     8.7007   8.7312   8.9675   9.2373   9.3311   9.5408

          k = 0.2750 0.2414 0.0000 ( 29964 PWs)   bands (ev):

   -44.1950 -44.1949 -44.1935 -44.1934 -44.1890 -44.1889 -44.1885 -44.1883
   -44.1875 -44.1875 -44.1871 -44.1869 -44.1648 -44.1646 -44.1612 -44.1609
   -44.1592 -44.1591 -44.1590 -44.1589 -44.1551 -44.1551 -44.1543 -44.1542
   -44.1518 -44.1517 -44.1460 -44.1459 -44.1457 -44.1455 -44.0947 -44.0947
   -44.0931 -44.0930 -44.0578 -44.0577 -44.0535 -44.0534 -44.0422 -44.0421
   -18.1588 -18.1547 -18.1537 -18.1524 -18.1442 -18.1410 -18.1394 -18.1390
   -18.1278 -18.1277 -18.1251 -18.1212 -18.1207 -18.1200 -18.1168 -18.1152
   -18.1137 -18.1119 -18.1102 -18.1082 -18.1081 -18.1063 -18.1061 -18.0976
   -18.0921 -18.0916 -18.0858 -18.0818 -18.0814 -18.0794 -18.0779 -18.0776
   -18.0677 -18.0677 -18.0641 -18.0640 -18.0533 -18.0532 -18.0499 -18.0498
    -9.8405  -9.7792  -9.7025  -9.6645  -9.3072  -9.2301  -9.1670  -9.1509
    -4.2817  -4.0983  -3.8511  -3.5999  -3.3806  -3.2212  -3.1111  -3.0679
    -1.0954  -0.9830  -0.8758  -0.7721  -0.5454  -0.2171  -0.0994  -0.0431
     0.2781   0.3130   0.6306   0.8770   1.1243   1.3056   1.4991   1.5591
     1.5799   1.6039   1.7529   2.0420   2.2339   2.4172   2.5119   2.5474
     4.2965   4.7818   5.1065   5.1810   5.5617   5.6978   5.7981   5.8532
     5.9487   6.0016   6.1244   6.3233   6.4162   6.9493   6.9736   7.1633
     7.3401   7.3679   7.6317   7.7733   8.0697   8.2670   8.4043   8.4829
     8.5249   8.5668   8.8629   9.1427   9.2930   9.8056

          k = 0.2500 0.2194 0.0000 ( 29958 PWs)   bands (ev):

   -44.1951 -44.1949 -44.1935 -44.1934 -44.1890 -44.1889 -44.1885 -44.1883
   -44.1875 -44.1874 -44.1871 -44.1870 -44.1648 -44.1646 -44.1612 -44.1609
   -44.1592 -44.1591 -44.1590 -44.1589 -44.1551 -44.1551 -44.1543 -44.1542
   -44.1519 -44.1518 -44.1461 -44.1460 -44.1457 -44.1455 -44.0947 -44.0947
   -44.0931 -44.0930 -44.0578 -44.0578 -44.0535 -44.0534 -44.0422 -44.0421
   -18.1580 -18.1545 -18.1523 -18.1511 -18.1446 -18.1419 -18.1402 -18.1399
   -18.1267 -18.1266 -18.1249 -18.1216 -18.1208 -18.1195 -18.1170 -18.1152
   -18.1137 -18.1118 -18.1109 -18.1087 -18.1087 -18.1067 -18.1064 -18.0968
   -18.0924 -18.0918 -18.0864 -18.0823 -18.0819 -18.0797 -18.0777 -18.0775
   -18.0673 -18.0673 -18.0637 -18.0636 -18.0540 -18.0539 -18.0502 -18.0501
    -9.9281  -9.8630  -9.7825  -9.7418  -9.3172  -9.2329  -9.1639  -9.1428
    -4.3029  -4.1120  -3.8513  -3.5972  -3.2893  -3.1231  -3.0055  -2.9590
    -0.9837  -0.8967  -0.8373  -0.6820  -0.5833  -0.2369   0.0050   0.0612
     0.3816   0.4100   0.6867   1.0036   1.2333   1.4169   1.5692   1.5775
     1.7470   1.7696   1.8915   2.1205   2.2803   2.4848   2.5814   2.6157
     4.4005   4.8273   4.9844   5.1384   5.3153   5.5106   5.5760   5.6236
     5.8102   5.8865   6.1077   6.3408   6.4665   6.8511   6.8598   7.0757
     7.3082   7.3435   7.6345   7.7312   8.0204   8.0893   8.2615   8.2824
     8.3488   8.4922   8.7535   9.0826   9.2753   9.7276

          k = 0.2250 0.1975 0.0000 ( 29940 PWs)   bands (ev):

   -44.1951 -44.1949 -44.1935 -44.1934 -44.1890 -44.1890 -44.1885 -44.1883
   -44.1875 -44.1875 -44.1872 -44.1870 -44.1648 -44.1646 -44.1612 -44.1609
   -44.1592 -44.1591 -44.1589 -44.1589 -44.1551 -44.1551 -44.1543 -44.1542
   -44.1519 -44.1518 -44.1461 -44.1460 -44.1457 -44.1455 -44.0947 -44.0947
   -44.0932 -44.0931 -44.0578 -44.0577 -44.0534 -44.0534 -44.0422 -44.0421
   -18.1575 -18.1547 -18.1510 -18.1498 -18.1447 -18.1426 -18.1412 -18.1409
   -18.1259 -18.1257 -18.1248 -18.1221 -18.1213 -18.1192 -18.1171 -18.1150
   -18.1138 -18.1117 -18.1113 -18.1092 -18.1091 -18.1071 -18.1067 -18.0960
   -18.0927 -18.0920 -18.0870 -18.0828 -18.0824 -18.0800 -18.0776 -18.0774
   -18.0669 -18.0669 -18.0631 -18.0630 -18.0547 -18.0546 -18.0504 -18.0504
   -10.0124  -9.9442  -9.8603  -9.8170  -9.3282  -9.2370  -9.1616  -9.1354
    -4.3059  -4.1100  -3.8402  -3.5841  -3.1810  -3.0096  -2.8865  -2.8379
    -0.8937  -0.8641  -0.7868  -0.5793  -0.5488  -0.2736   0.0574   0.1767
     0.4864   0.5192   0.7459   1.0776   1.2869   1.4523   1.4917   1.5494
     1.9040   1.9383   2.0246   2.2259   2.2833   2.5276   2.6448   2.6861
     4.5013   4.8526   4.9663   5.0812   5.1990   5.3823   5.4354   5.4856
     5.7255   5.8737   6.0964   6.3201   6.4885   6.8146   6.8675   7.0017
     7.2588   7.3187   7.5963   7.6948   7.8938   7.9560   8.0554   8.1230
     8.2113   8.4795   8.6433   9.0474   9.2711   9.6296

          k = 0.2000 0.1756 0.0000 ( 29931 PWs)   bands (ev):

   -44.1951 -44.1948 -44.1936 -44.1935 -44.1890 -44.1889 -44.1885 -44.1883
   -44.1876 -44.1875 -44.1872 -44.1870 -44.1648 -44.1645 -44.1612 -44.1609
   -44.1592 -44.1591 -44.1589 -44.1588 -44.1551 -44.1551 -44.1543 -44.1541
   -44.1519 -44.1518 -44.1461 -44.1460 -44.1457 -44.1455 -44.0947 -44.0946
   -44.0932 -44.0931 -44.0578 -44.0577 -44.0534 -44.0534 -44.0422 -44.0422
   -18.1577 -18.1550 -18.1501 -18.1485 -18.1447 -18.1430 -18.1420 -18.1417
   -18.1256 -18.1255 -18.1247 -18.1224 -18.1215 -18.1190 -18.1173 -18.1149
   -18.1140 -18.1115 -18.1114 -18.1094 -18.1093 -18.1074 -18.1069 -18.0954
   -18.0931 -18.0921 -18.0875 -18.0833 -18.0829 -18.0803 -18.0775 -18.0773
   -18.0665 -18.0665 -18.0625 -18.0624 -18.0554 -18.0553 -18.0507 -18.0507
   -10.0918 -10.0209  -9.9341  -9.8885  -9.3398  -9.2421  -9.1604  -9.1291
    -4.2915  -4.0927  -3.8169  -3.5597  -3.0581  -2.8826  -2.7557  -2.7065
    -0.9690  -0.7544  -0.7117  -0.4716  -0.4651  -0.2840   0.0673   0.2692
     0.5945   0.6337   0.8254   1.1174   1.2680   1.3472   1.4125   1.4604
     1.9891   2.0364   2.1004   2.3034   2.3382   2.5834   2.6924   2.7412
     4.5341   4.8150   4.9231   5.0538   5.2106   5.3421   5.3867   5.5885
     5.7449   5.9667   6.0978   6.2843   6.4673   6.8306   6.9030   6.9783
     7.2080   7.2675   7.5395   7.6511   7.7428   7.8448   7.8637   7.9970
     8.1316   8.4857   8.5451   9.0227   9.2701   9.5284

          k = 0.1750 0.1536 0.0000 ( 29933 PWs)   bands (ev):

   -44.1951 -44.1948 -44.1936 -44.1935 -44.1890 -44.1889 -44.1885 -44.1883
   -44.1877 -44.1876 -44.1873 -44.1871 -44.1648 -44.1645 -44.1612 -44.1609
   -44.1592 -44.1591 -44.1589 -44.1588 -44.1551 -44.1551 -44.1543 -44.1541
   -44.1519 -44.1518 -44.1461 -44.1460 -44.1457 -44.1455 -44.0947 -44.0946
   -44.0933 -44.0932 -44.0577 -44.0577 -44.0534 -44.0534 -44.0423 -44.0422
   -18.1585 -18.1552 -18.1493 -18.1474 -18.1449 -18.1434 -18.1424 -18.1420
   -18.1262 -18.1261 -18.1244 -18.1223 -18.1213 -18.1187 -18.1175 -18.1151
   -18.1145 -18.1113 -18.1112 -18.1094 -18.1093 -18.1075 -18.1070 -18.0949
   -18.0935 -18.0920 -18.0880 -18.0837 -18.0832 -18.0806 -18.0774 -18.0773
   -18.0661 -18.0661 -18.0618 -18.0617 -18.0560 -18.0559 -18.0509 -18.0509
   -10.1649 -10.0917 -10.0025  -9.9547  -9.3517  -9.2479  -9.1601  -9.1240
    -4.2615  -4.0614  -3.7822  -3.5246  -2.9237  -2.7445  -2.6154  -2.5669
    -1.0532  -0.7285  -0.6054  -0.3740  -0.3599  -0.2366   0.0530   0.3209
     0.7029   0.7451   0.9138   1.1181   1.1447   1.2229   1.3155   1.3450
     1.9911   2.0502   2.1326   2.3358   2.3930   2.6293   2.7338   2.7797
     4.4986   4.7943   4.8999   5.1424   5.1960   5.3849   5.5176   5.7693
     5.8473   6.0886   6.1324   6.2669   6.4247   6.8234   6.9176   7.0369
     7.1771   7.2002   7.5029   7.5767   7.6497   7.7021   7.7885   7.9146
     8.1004   8.4399   8.5113   9.0005   9.2661   9.4350

          k = 0.1500 0.1317 0.0000 ( 29935 PWs)   bands (ev):

   -44.1950 -44.1948 -44.1937 -44.1936 -44.1890 -44.1889 -44.1884 -44.1883
   -44.1877 -44.1876 -44.1873 -44.1872 -44.1648 -44.1645 -44.1611 -44.1609
   -44.1592 -44.1591 -44.1589 -44.1588 -44.1551 -44.1550 -44.1543 -44.1541
   -44.1520 -44.1518 -44.1461 -44.1461 -44.1457 -44.1456 -44.0947 -44.0946
   -44.0933 -44.0933 -44.0578 -44.0577 -44.0534 -44.0534 -44.0423 -44.0422
   -18.1596 -18.1556 -18.1487 -18.1467 -18.1453 -18.1440 -18.1421 -18.1417
   -18.1271 -18.1270 -18.1241 -18.1224 -18.1211 -18.1181 -18.1175 -18.1154
   -18.1151 -18.1112 -18.1109 -18.1092 -18.1091 -18.1076 -18.1071 -18.0948
   -18.0939 -18.0918 -18.0885 -18.0840 -18.0835 -18.0809 -18.0773 -18.0772
   -18.0657 -18.0657 -18.0612 -18.0611 -18.0566 -18.0565 -18.0512 -18.0511
   -10.2305 -10.1553 -10.0640 -10.0145  -9.3635  -9.2541  -9.1605  -9.1199
    -4.2186  -4.0185  -3.7378  -3.4805  -2.7818  -2.5988  -2.4688  -2.4227
    -1.1307  -0.7619  -0.5025  -0.2802  -0.2583  -0.1468   0.0450   0.3256
     0.7870   0.8152   0.9278   1.0203   1.0837   1.1058   1.1826   1.3245
     1.9236   1.9988   2.1230   2.3380   2.4016   2.6360   2.7598   2.8053
     4.4328   4.8263   4.9880   5.2262   5.2828   5.4936   5.7439   5.8484
     5.9959   6.1275   6.1671   6.2993   6.3843   6.7846   6.9513   7.0440
     7.1441   7.2659   7.4499   7.5322   7.6028   7.7234   7.7829   7.8841
     8.0843   8.3782   8.4955   8.9776   9.2603   9.3551

          k = 0.1250 0.1097 0.0000 ( 29932 PWs)   bands (ev):

   -44.1950 -44.1948 -44.1937 -44.1936 -44.1889 -44.1889 -44.1884 -44.1882
   -44.1877 -44.1877 -44.1874 -44.1872 -44.1648 -44.1645 -44.1611 -44.1609
   -44.1592 -44.1591 -44.1589 -44.1588 -44.1551 -44.1550 -44.1543 -44.1541
   -44.1520 -44.1518 -44.1461 -44.1461 -44.1458 -44.1456 -44.0947 -44.0946
   -44.0934 -44.0933 -44.0577 -44.0577 -44.0534 -44.0533 -44.0423 -44.0422
   -18.1608 -18.1562 -18.1481 -18.1469 -18.1455 -18.1443 -18.1417 -18.1411
   -18.1281 -18.1280 -18.1238 -18.1226 -18.1212 -18.1175 -18.1172 -18.1159
   -18.1158 -18.1110 -18.1107 -18.1090 -18.1088 -18.1075 -18.1071 -18.0948
   -18.0944 -18.0914 -18.0890 -18.0843 -18.0837 -18.0811 -18.0773 -18.0772
   -18.0654 -18.0653 -18.0605 -18.0605 -18.0571 -18.0570 -18.0514 -18.0513
   -10.2875 -10.2107 -10.1177 -10.0667  -9.3746  -9.2604  -9.1616  -9.1169
    -4.1668  -3.9675  -3.6868  -3.4304  -2.6383  -2.4505  -2.3205  -2.2780
    -1.1959  -0.8157  -0.4438  -0.1986  -0.1633  -0.0484   0.0708   0.2952
     0.6818   0.7922   0.8644   0.9367   1.0068   1.0925   1.1990   1.3795
     1.8111   1.8919   2.0478   2.3194   2.3776   2.6265   2.7783   2.8275
     4.3611   4.8404   5.1560   5.3541   5.4615   5.6907   5.8492   5.9651
     6.0462   6.0972   6.1554   6.3136   6.3656   6.7576   6.9361   7.0524
     7.1923   7.3468   7.4439   7.4868   7.7416   7.7716   7.9083   7.9496
     8.0630   8.3343   8.4560   8.9484   9.2525   9.2965

          k = 0.1000 0.0878 0.0000 ( 29929 PWs)   bands (ev):

   -44.1950 -44.1949 -44.1938 -44.1936 -44.1889 -44.1889 -44.1884 -44.1883
   -44.1878 -44.1877 -44.1874 -44.1872 -44.1647 -44.1645 -44.1611 -44.1609
   -44.1591 -44.1590 -44.1589 -44.1588 -44.1551 -44.1550 -44.1543 -44.1541
   -44.1520 -44.1518 -44.1461 -44.1461 -44.1457 -44.1455 -44.0947 -44.0946
   -44.0934 -44.0933 -44.0577 -44.0576 -44.0534 -44.0533 -44.0423 -44.0422
   -18.1619 -18.1568 -18.1478 -18.1474 -18.1460 -18.1439 -18.1412 -18.1405
   -18.1290 -18.1289 -18.1236 -18.1229 -18.1214 -18.1170 -18.1169 -18.1163
   -18.1162 -18.1109 -18.1106 -18.1087 -18.1085 -18.1073 -18.1070 -18.0950
   -18.0947 -18.0911 -18.0894 -18.0843 -18.0838 -18.0813 -18.0772 -18.0772
   -18.0650 -18.0650 -18.0601 -18.0600 -18.0574 -18.0574 -18.0515 -18.0515
   -10.3352 -10.2571 -10.1627 -10.1105  -9.3846  -9.2662  -9.1629  -9.1147
    -4.1110  -3.9133  -3.6336  -3.3785  -2.5009  -2.3062  -2.1764  -2.1380
    -1.2464  -0.8725  -0.4480  -0.1173  -0.0930   0.0343   0.1221   0.2632
     0.5361   0.6741   0.7075   0.7764   1.0809   1.1660   1.2893   1.4439
     1.6890   1.7561   1.9159   2.2198   2.3971   2.6324   2.7988   2.8511
     4.2965   4.8143   5.3453   5.5032   5.6331   5.9033   5.9317   5.9801
     6.0511   6.0821   6.1085   6.3033   6.3721   6.7567   6.9024   7.0937
     7.2669   7.3466   7.4143   7.6962   7.7660   7.9790   8.0077   8.0320
     8.2210   8.2876   8.4089   8.9066   9.2008   9.2752

          k = 0.0750 0.0658 0.0000 ( 29914 PWs)   bands (ev):

   -44.1950 -44.1949 -44.1938 -44.1936 -44.1889 -44.1889 -44.1884 -44.1883
   -44.1878 -44.1877 -44.1874 -44.1872 -44.1646 -44.1644 -44.1611 -44.1610
   -44.1590 -44.1589 -44.1587 -44.1587 -44.1551 -44.1550 -44.1543 -44.1541
   -44.1520 -44.1518 -44.1462 -44.1461 -44.1457 -44.1456 -44.0947 -44.0946
   -44.0934 -44.0933 -44.0576 -44.0575 -44.0534 -44.0533 -44.0423 -44.0422
   -18.1629 -18.1573 -18.1483 -18.1472 -18.1463 -18.1434 -18.1407 -18.1401
   -18.1298 -18.1297 -18.1237 -18.1232 -18.1216 -18.1172 -18.1170 -18.1160
   -18.1159 -18.1108 -18.1106 -18.1086 -18.1082 -18.1071 -18.1068 -18.0952
   -18.0950 -18.0908 -18.0898 -18.0843 -18.0839 -18.0815 -18.0772 -18.0771
   -18.0648 -18.0647 -18.0598 -18.0597 -18.0576 -18.0575 -18.0517 -18.0516
   -10.3728 -10.2938 -10.1983 -10.1452  -9.3929  -9.2712  -9.1643  -9.1133
    -4.0573  -3.8614  -3.5833  -3.3299  -2.3799  -2.1752  -2.0444  -2.0088
    -1.2821  -0.9240  -0.4897  -0.0829  -0.0401   0.0817   0.1709   0.2723
     0.4304   0.5500   0.5695   0.6255   1.1600   1.2496   1.3616   1.4609
     1.6170   1.6299   1.7692   2.0939   2.4313   2.6491   2.8204   2.8726
     4.2453   4.7791   5.4513   5.6008   5.7611   5.8554   5.9298   5.9975
     6.0618   6.1349   6.2319   6.3455   6.4422   6.7779   6.8831   7.1651
     7.2067   7.3400   7.5782   7.7356   7.9493   7.9908   8.0572   8.2187
     8.2763   8.3869   8.4858   8.8572   9.1364   9.2237

          k = 0.0500 0.0439 0.0000 ( 29884 PWs)   bands (ev):

   -44.1949 -44.1948 -44.1938 -44.1935 -44.1889 -44.1889 -44.1884 -44.1882
   -44.1878 -44.1877 -44.1873 -44.1871 -44.1645 -44.1643 -44.1610 -44.1609
   -44.1590 -44.1588 -44.1587 -44.1586 -44.1550 -44.1550 -44.1543 -44.1541
   -44.1520 -44.1517 -44.1462 -44.1461 -44.1457 -44.1455 -44.0946 -44.0946
   -44.0933 -44.0933 -44.0576 -44.0575 -44.0534 -44.0533 -44.0423 -44.0422
   -18.1636 -18.1578 -18.1488 -18.1474 -18.1462 -18.1430 -18.1403 -18.1397
   -18.1304 -18.1302 -18.1238 -18.1234 -18.1216 -18.1175 -18.1174 -18.1156
   -18.1155 -18.1108 -18.1106 -18.1084 -18.1080 -18.1070 -18.1067 -18.0954
   -18.0953 -18.0907 -18.0900 -18.0842 -18.0840 -18.0817 -18.0772 -18.0771
   -18.0646 -18.0645 -18.0596 -18.0595 -18.0576 -18.0575 -18.0518 -18.0518
   -10.4001 -10.3204 -10.2241 -10.1703  -9.3991  -9.2750  -9.1655  -9.1124
    -4.0121  -3.8180  -3.5416  -3.2900  -2.2862  -2.0686  -1.9346  -1.8986
    -1.3060  -0.9657  -0.5382  -0.1194  -0.0029   0.1046   0.2185   0.2978
     0.3538   0.4537   0.4972   0.5103   1.2213   1.3116   1.3615   1.4271
     1.5519   1.6216   1.6588   1.9873   2.4607   2.6654   2.8386   2.8889
     4.2095   4.7501   5.4667   5.6438   5.7399   5.8261   5.8700   6.0009
     6.0360   6.1887   6.4116   6.4544   6.6049   6.7858   6.9315   7.1610
     7.2671   7.2929   7.6919   7.7766   7.9550   8.0668   8.1153   8.2033
     8.3648   8.5034   8.6950   8.8142   9.0857   9.1738

          k = 0.0250 0.0219 0.0000 ( 29907 PWs)   bands (ev):

   -44.1949 -44.1949 -44.1939 -44.1935 -44.1889 -44.1889 -44.1884 -44.1882
   -44.1878 -44.1877 -44.1873 -44.1872 -44.1645 -44.1643 -44.1610 -44.1610
   -44.1590 -44.1588 -44.1587 -44.1586 -44.1551 -44.1550 -44.1543 -44.1541
   -44.1521 -44.1518 -44.1462 -44.1461 -44.1458 -44.1456 -44.0946 -44.0946
   -44.0934 -44.0933 -44.0576 -44.0575 -44.0534 -44.0533 -44.0423 -44.0423
   -18.1640 -18.1581 -18.1491 -18.1476 -18.1460 -18.1427 -18.1401 -18.1395
   -18.1307 -18.1306 -18.1240 -18.1235 -18.1215 -18.1178 -18.1176 -18.1153
   -18.1152 -18.1109 -18.1106 -18.1084 -18.1078 -18.1068 -18.1066 -18.0955
   -18.0954 -18.0906 -18.0902 -18.0842 -18.0840 -18.0818 -18.0771 -18.0771
   -18.0645 -18.0644 -18.0596 -18.0595 -18.0576 -18.0575 -18.0518 -18.0518
   -10.4165 -10.3365 -10.2397 -10.1856  -9.4030  -9.2774  -9.1663  -9.1119
    -3.9819  -3.7891  -3.5140  -3.2638  -2.2278  -1.9984  -1.8598  -1.8201
    -1.3213  -0.9935  -0.5745  -0.1597  -0.0102   0.1401   0.2443   0.2620
     0.3378   0.4058   0.4222   0.4982   1.2560   1.3126   1.3264   1.4196
     1.5178   1.5827   1.6670   1.9210   2.4797   2.6762   2.8504   2.8988
     4.1887   4.7319   5.4597   5.6389   5.6811   5.7952   5.8291   6.0176
     6.0294   6.2225   6.4845   6.5759   6.7492   6.7783   7.0385   7.1339
     7.2580   7.3713   7.6505   7.8837   7.9490   8.0349   8.1064   8.3086
     8.3525   8.6316   8.7838   8.8257   9.0565   9.1447

          k = 0.0000 0.0000 0.0000 ( 29897 PWs)   bands (ev):

   -44.1949 -44.1948 -44.1939 -44.1935 -44.1889 -44.1888 -44.1884 -44.1882
   -44.1878 -44.1878 -44.1873 -44.1872 -44.1645 -44.1643 -44.1610 -44.1609
   -44.1589 -44.1588 -44.1587 -44.1586 -44.1550 -44.1550 -44.1543 -44.1541
   -44.1521 -44.1518 -44.1462 -44.1461 -44.1458 -44.1455 -44.0946 -44.0946
   -44.0934 -44.0933 -44.0575 -44.0574 -44.0534 -44.0533 -44.0423 -44.0423
   -18.1642 -18.1582 -18.1492 -18.1476 -18.1459 -18.1426 -18.1400 -18.1394
   -18.1308 -18.1307 -18.1240 -18.1236 -18.1215 -18.1179 -18.1177 -18.1152
   -18.1151 -18.1109 -18.1106 -18.1084 -18.1078 -18.1068 -18.1065 -18.0956
   -18.0954 -18.0905 -18.0903 -18.0841 -18.0840 -18.0818 -18.0771 -18.0771
   -18.0644 -18.0644 -18.0596 -18.0596 -18.0575 -18.0574 -18.0519 -18.0518
   -10.4220 -10.3419 -10.2450 -10.1907  -9.4043  -9.2782  -9.1666  -9.1117
    -3.9713  -3.7789  -3.5044  -3.2546  -2.2082  -1.9739  -1.8329  -1.7908
    -1.3272  -1.0035  -0.5878  -0.1758  -0.0182   0.1714   0.2020   0.2747
     0.3330   0.3857   0.4063   0.5009   1.2617   1.2983   1.3169   1.4299
     1.4899   1.5835   1.6743   1.8997   2.4862   2.6798   2.8545   2.9021
     4.1819   4.7259   5.4553   5.6364   5.6548   5.7789   5.8153   6.0219
     6.0285   6.2382   6.5027   6.6219   6.7668   6.8119   7.0974   7.1246
     7.2407   7.4180   7.6323   7.8886   7.9751   8.0204   8.0974   8.3341
     8.3565   8.6745   8.7737   8.8667   9.0472   9.1355

     Writing all to output data dir ./bi/snse.save/

     init_run     :      3.18s CPU      3.92s WALL (       1 calls)
     electrons    :   6376.69s CPU   7306.55s WALL (       1 calls)

     Called by init_run:
     wfcinit      :      0.00s CPU      0.00s WALL (       1 calls)
     wfcinit:atom :      0.46s CPU      0.40s WALL (      61 calls)
     wfcinit:wfcr :    118.24s CPU    130.29s WALL (      61 calls)
     potinit      :      0.61s CPU      0.80s WALL (       1 calls)
     hinit0       :      1.66s CPU      1.60s WALL (       1 calls)

     Called by electrons:
     c_bands      :   6376.68s CPU   7306.53s WALL (       1 calls)
     v_of_rho     :      0.10s CPU      0.15s WALL (       1 calls)
     v_h          :      0.01s CPU      0.01s WALL (       1 calls)
     v_xc         :      0.10s CPU      0.14s WALL (       1 calls)
     newd         :      0.67s CPU      1.27s WALL (       1 calls)
     PAW_pot      :      0.20s CPU      0.19s WALL (       1 calls)

     Called by c_bands:
     init_us_2    :      0.58s CPU      0.52s WALL (      61 calls)
     init_us_2:cp :      0.55s CPU      0.52s WALL (      61 calls)
     cegterg      :   6233.04s CPU   7149.14s WALL (     199 calls)

     Called by sum_band:

     Called by *egterg:
     cdiaghg      :    834.90s CPU    660.25s WALL (    3307 calls)
     cegterg:over :   1501.82s CPU   1763.28s WALL (    3246 calls)
     cegterg:upda :    311.31s CPU    428.36s WALL (    3246 calls)
     cegterg:last :    268.80s CPU    291.89s WALL (    1159 calls)
     h_psi        :   2351.31s CPU   2940.70s WALL (    3506 calls)
     s_psi        :    182.60s CPU    253.37s WALL (    3506 calls)
     g_psi        :      3.19s CPU      1.81s WALL (    3246 calls)

     Called by h_psi:
     h_psi:calbec :   1848.43s CPU   2277.64s WALL (    3506 calls)
     vloc_psi     :    271.39s CPU    280.48s WALL (    3506 calls)
     add_vuspsi   :    225.75s CPU    374.72s WALL (    3506 calls)

     General routines
     calbec       :   1848.38s CPU   2277.25s WALL (    3506 calls)
     fft          :      0.41s CPU      0.41s WALL (      13 calls)
     ffts         :      0.27s CPU      0.25s WALL (       1 calls)
     fftw         :    252.94s CPU    260.37s WALL (  374688 calls)
     interpolate  :      0.28s CPU      0.26s WALL (       1 calls)
     davcio       :      0.53s CPU      1.38s WALL (     122 calls)

     Parallel routines

     PAW routines
     PAW_pot      :      0.20s CPU      0.19s WALL (       1 calls)

     PWSCF        :      1h46m CPU      2h 6m WALL


   This run was terminated on:   2: 2: 9  25Jun2025            

=------------------------------------------------------------------------------=
   JOB DONE.
=------------------------------------------------------------------------------=
