
     Program PWSCF v.7.0 starts on 24Jun2025 at 19:25: 4 

     This program is part of the open-source Quantum ESPRESSO suite
     for quantum simulation of materials; please cite
         "P. Giannozzi et al., J. Phys.:Condens. Matter 21 395502 (2009);
         "P. Giannozzi et al., J. Phys.:Condens. Matter 29 465901 (2017);
         "P. Giannozzi et al., J. Chem. Phys. 152 154105 (2020);
          URL http://www.quantum-espresso.org", 
     in publications or presentations arising from this work. More details at
     http://www.quantum-espresso.org/quote

     Parallel version (MPI), running on     8 processors

     MPI processes distributed on     1 nodes
     R & G space division:  proc/nbgrp/npool/nimage =       8
     6547 MiB available memory on the printing compute node when the environment starts

     Waiting for input...
     Reading input from standard input

     Current dimensions of program PWSCF are:
     Max number of different atomic species (ntypx) = 10
     Max number of k-points (npk) =  40000
     Max angular momentum in pseudopotentials (lmaxx) =  4
     file Sn.pbe-dn-kjpaw_psl.1.0.0.UPF: wavefunction(s)  5S 5P 4D renormalized
     file Se.pbe-dn-kjpaw_psl.1.0.0.UPF: wavefunction(s)  4S 4P 3D renormalized

     IMPORTANT: XC functional enforced from input :
     Exchange-correlation= PBE
                           (   1   4   3   4   0   0   0)
     Any further DFT definition will be discarded
     Please, verify this is what you really want

     Message from routine setup:
     using ibrav=0 with symmetry is DISCOURAGED, use correct ibrav instead

     Subspace diagonalization in iterative solution of the eigenvalue problem:
     a serial algorithm will be used


     Parallelization info
     --------------------
     sticks:   dense  smooth     PW     G-vecs:    dense   smooth      PW
     Min         276     137     40                25792     9109    1440
     Max         277     138     41                25799     9116    1447
     Sum        2209    1101    323               206349    72899   11543

     Using Slab Decomposition



     bravais-lattice index     =            0
     lattice parameter (alat)  =       7.7975  a.u.
     unit-cell volume          =    1526.8576 (a.u.)^3
     number of atoms/cell      =            8
     number of atomic types    =            2
     number of electrons       =       120.00
     number of Kohn-Sham states=          100
     kinetic-energy cutoff     =      50.0000  Ry
     charge density cutoff     =     400.0000  Ry
     scf convergence threshold =      1.0E-08
     mixing beta               =       0.3000
     number of iterations used =            8  plain     mixing
     Exchange-correlation= PBE
                           (   1   4   3   4   0   0   0)

     celldm(1)=   7.797484  celldm(2)=   0.000000  celldm(3)=   0.000000
     celldm(4)=   0.000000  celldm(5)=   0.000000  celldm(6)=   0.000000

     crystal axes: (cart. coord. in units of alat)
               a(1) = (   1.000000   0.000000   0.000000 )  
               a(2) = (   0.000000   1.139268   0.000000 )  
               a(3) = (   0.000000   0.000000   2.826890 )  

     reciprocal axes: (cart. coord. in units 2 pi/alat)
               b(1) = (  1.000000  0.000000  0.000000 )  
               b(2) = (  0.000000  0.877756  0.000000 )  
               b(3) = (  0.000000  0.000000  0.353746 )  


     PseudoPot. # 1 for Sn read from file:
     ./Sn.pbe-dn-kjpaw_psl.1.0.0.UPF
     MD5 check sum: d69e53522d199ccc4f306ae57c56b55d
     Pseudo is Projector augmented-wave + core cor, Zval = 14.0
     Generated using &quot;atomic&quot; code by A. Dal Corso  v.6.3
     Shape of augmentation charge: PSQ
     Using radial grid of 1243 points,  6 beta functions with: 
                l(1) =   0
                l(2) =   0
                l(3) =   1
                l(4) =   1
                l(5) =   2
                l(6) =   2
     Q(r) pseudized with 0 coefficients 


     PseudoPot. # 2 for Se read from file:
     ./Se.pbe-dn-kjpaw_psl.1.0.0.UPF
     MD5 check sum: 4f8dd506ed2a5e2391ebbdbef81d58a8
     Pseudo is Projector augmented-wave + core cor, Zval = 16.0
     Generated using &quot;atomic&quot; code by A. Dal Corso  v.6.3
     Shape of augmentation charge: PSQ
     Using radial grid of 1211 points,  6 beta functions with: 
                l(1) =   0
                l(2) =   0
                l(3) =   1
                l(4) =   1
                l(5) =   2
                l(6) =   2
     Q(r) pseudized with 0 coefficients 


     atomic species   valence    mass     pseudopotential
        Sn            14.00   118.71000     Sn( 1.00)
        Se            16.00    78.96000     Se( 1.00)

      8 Sym. Ops., with inversion, found ( 6 have fractional translation)


                                    s                        frac. trans.

      isym =  1     identity                                     

 cryst.   s( 1) = (     1          0          0      )
                  (     0          1          0      )
                  (     0          0          1      )

 cart.    s( 1) = (  1.0000000  0.0000000  0.0000000 )
                  (  0.0000000  1.0000000  0.0000000 )
                  (  0.0000000  0.0000000  1.0000000 )


      isym =  2     180 deg rotation - cart. axis [0,0,1]        

 cryst.   s( 2) = (    -1          0          0      )    f =(  0.5000000 )
                  (     0         -1          0      )       (  0.5000000 )
                  (     0          0          1      )       (  0.5000000 )

 cart.    s( 2) = ( -1.0000000  0.0000000  0.0000000 )    f =(  0.5000000 )
                  (  0.0000000 -1.0000000  0.0000000 )       (  0.5696342 )
                  (  0.0000000  0.0000000  1.0000000 )       (  1.4134451 )


      isym =  3     180 deg rotation - cart. axis [0,1,0]        

 cryst.   s( 3) = (    -1          0          0      )    f =(  0.0000000 )
                  (     0          1          0      )       ( -0.5000000 )
                  (     0          0         -1      )       (  0.5000000 )

 cart.    s( 3) = ( -1.0000000  0.0000000  0.0000000 )    f =(  0.0000000 )
                  (  0.0000000  1.0000000  0.0000000 )       ( -0.5696342 )
                  (  0.0000000  0.0000000 -1.0000000 )       (  1.4134451 )


      isym =  4     180 deg rotation - cart. axis [1,0,0]        

 cryst.   s( 4) = (     1          0          0      )    f =(  0.5000000 )
                  (     0         -1          0      )       (  0.0000000 )
                  (     0          0         -1      )       (  0.0000000 )

 cart.    s( 4) = (  1.0000000  0.0000000  0.0000000 )    f =(  0.5000000 )
                  (  0.0000000 -1.0000000  0.0000000 )       (  0.0000000 )
                  (  0.0000000  0.0000000 -1.0000000 )       (  0.0000000 )


      isym =  5     inversion                                    

 cryst.   s( 5) = (    -1          0          0      )
                  (     0         -1          0      )
                  (     0          0         -1      )

 cart.    s( 5) = ( -1.0000000  0.0000000  0.0000000 )
                  (  0.0000000 -1.0000000  0.0000000 )
                  (  0.0000000  0.0000000 -1.0000000 )


      isym =  6     inv. 180 deg rotation - cart. axis [0,0,1]   

 cryst.   s( 6) = (     1          0          0      )    f =(  0.5000000 )
                  (     0          1          0      )       ( -0.5000000 )
                  (     0          0         -1      )       (  0.5000000 )

 cart.    s( 6) = (  1.0000000  0.0000000  0.0000000 )    f =(  0.5000000 )
                  (  0.0000000  1.0000000  0.0000000 )       ( -0.5696342 )
                  (  0.0000000  0.0000000 -1.0000000 )       (  1.4134451 )


      isym =  7     inv. 180 deg rotation - cart. axis [0,1,0]   

 cryst.   s( 7) = (     1          0          0      )    f =(  0.0000000 )
                  (     0         -1          0      )       (  0.5000000 )
                  (     0          0          1      )       (  0.5000000 )

 cart.    s( 7) = (  1.0000000  0.0000000  0.0000000 )    f =(  0.0000000 )
                  (  0.0000000 -1.0000000  0.0000000 )       (  0.5696342 )
                  (  0.0000000  0.0000000  1.0000000 )       (  1.4134451 )


      isym =  8     inv. 180 deg rotation - cart. axis [1,0,0]   

 cryst.   s( 8) = (    -1          0          0      )    f =(  0.5000000 )
                  (     0          1          0      )       (  0.0000000 )
                  (     0          0          1      )       (  0.0000000 )

 cart.    s( 8) = ( -1.0000000  0.0000000  0.0000000 )    f =(  0.5000000 )
                  (  0.0000000  1.0000000  0.0000000 )       (  0.0000000 )
                  (  0.0000000  0.0000000  1.0000000 )       (  0.0000000 )


   Cartesian axes

     site n.     atom                  positions (alat units)
         1           Sn  tau(   1) = (   0.7500000   0.4289964   1.7492425  )
         2           Sn  tau(   2) = (   0.2500000   0.9986306   2.4910928  )
         3           Sn  tau(   3) = (   0.2500000   0.7102720   1.0776477  )
         4           Sn  tau(   4) = (   0.7500000   0.1406378   0.3357974  )
         5           Se  tau(   5) = (   0.2500000   0.5800948   0.4199431  )
         6           Se  tau(   6) = (   0.2500000   1.1288079   1.8333882  )
         7           Se  tau(   7) = (   0.7500000   0.0104605   0.9935020  )
         8           Se  tau(   8) = (   0.7500000   0.5591737   2.4069471  )

   Crystallographic axes

     site n.     atom                  positions (cryst. coord.)
         1           Sn  tau(   1) = (  0.7500000  0.3765543  0.6187868  )
         2           Sn  tau(   2) = (  0.2500000  0.8765543  0.8812132  )
         3           Sn  tau(   3) = (  0.2500000  0.6234457  0.3812132  )
         4           Sn  tau(   4) = (  0.7500000  0.1234457  0.1187868  )
         5           Se  tau(   5) = (  0.2500000  0.5091818  0.1485530  )
         6           Se  tau(   6) = (  0.2500000  0.9908182  0.6485530  )
         7           Se  tau(   7) = (  0.7500000  0.0091818  0.3514470  )
         8           Se  tau(   8) = (  0.7500000  0.4908182  0.8514470  )

     number of k points=    64
                       cart. coord. in units 2pi/alat
        k(    1) = (   0.0000000   0.0000000   0.0000000), wk =   0.0092593
        k(    2) = (   0.0000000   0.0000000   0.0589576), wk =   0.0185185
        k(    3) = (   0.0000000   0.0000000   0.1179152), wk =   0.0185185
        k(    4) = (   0.0000000   0.0000000  -0.1768728), wk =   0.0092593
        k(    5) = (   0.0000000   0.1462927   0.0000000), wk =   0.0185185
        k(    6) = (   0.0000000   0.1462927   0.0589576), wk =   0.0370370
        k(    7) = (   0.0000000   0.1462927   0.1179152), wk =   0.0370370
        k(    8) = (   0.0000000   0.1462927  -0.1768728), wk =   0.0185185
        k(    9) = (   0.0000000   0.2925854   0.0000000), wk =   0.0185185
        k(   10) = (   0.0000000   0.2925854   0.0589576), wk =   0.0370370
        k(   11) = (   0.0000000   0.2925854   0.1179152), wk =   0.0370370
        k(   12) = (   0.0000000   0.2925854  -0.1768728), wk =   0.0185185
        k(   13) = (   0.0000000  -0.4388781   0.0000000), wk =   0.0092593
        k(   14) = (   0.0000000  -0.4388781   0.0589576), wk =   0.0185185
        k(   15) = (   0.0000000  -0.4388781   0.1179152), wk =   0.0185185
        k(   16) = (   0.0000000  -0.4388781  -0.1768728), wk =   0.0092593
        k(   17) = (   0.1666667   0.0000000   0.0000000), wk =   0.0185185
        k(   18) = (   0.1666667   0.0000000   0.0589576), wk =   0.0370370
        k(   19) = (   0.1666667   0.0000000   0.1179152), wk =   0.0370370
        k(   20) = (   0.1666667   0.0000000  -0.1768728), wk =   0.0185185
        k(   21) = (   0.1666667   0.1462927   0.0000000), wk =   0.0370370
        k(   22) = (   0.1666667   0.1462927   0.0589576), wk =   0.0740741
        k(   23) = (   0.1666667   0.1462927   0.1179152), wk =   0.0740741
        k(   24) = (   0.1666667   0.1462927  -0.1768728), wk =   0.0370370
        k(   25) = (   0.1666667   0.2925854   0.0000000), wk =   0.0370370
        k(   26) = (   0.1666667   0.2925854   0.0589576), wk =   0.0740741
        k(   27) = (   0.1666667   0.2925854   0.1179152), wk =   0.0740741
        k(   28) = (   0.1666667   0.2925854  -0.1768728), wk =   0.0370370
        k(   29) = (   0.1666667  -0.4388781   0.0000000), wk =   0.0185185
        k(   30) = (   0.1666667  -0.4388781   0.0589576), wk =   0.0370370
        k(   31) = (   0.1666667  -0.4388781   0.1179152), wk =   0.0370370
        k(   32) = (   0.1666667  -0.4388781  -0.1768728), wk =   0.0185185
        k(   33) = (   0.3333333   0.0000000   0.0000000), wk =   0.0185185
        k(   34) = (   0.3333333   0.0000000   0.0589576), wk =   0.0370370
        k(   35) = (   0.3333333   0.0000000   0.1179152), wk =   0.0370370
        k(   36) = (   0.3333333   0.0000000  -0.1768728), wk =   0.0185185
        k(   37) = (   0.3333333   0.1462927   0.0000000), wk =   0.0370370
        k(   38) = (   0.3333333   0.1462927   0.0589576), wk =   0.0740741
        k(   39) = (   0.3333333   0.1462927   0.1179152), wk =   0.0740741
        k(   40) = (   0.3333333   0.1462927  -0.1768728), wk =   0.0370370
        k(   41) = (   0.3333333   0.2925854   0.0000000), wk =   0.0370370
        k(   42) = (   0.3333333   0.2925854   0.0589576), wk =   0.0740741
        k(   43) = (   0.3333333   0.2925854   0.1179152), wk =   0.0740741
        k(   44) = (   0.3333333   0.2925854  -0.1768728), wk =   0.0370370
        k(   45) = (   0.3333333  -0.4388781   0.0000000), wk =   0.0185185
        k(   46) = (   0.3333333  -0.4388781   0.0589576), wk =   0.0370370
        k(   47) = (   0.3333333  -0.4388781   0.1179152), wk =   0.0370370
        k(   48) = (   0.3333333  -0.4388781  -0.1768728), wk =   0.0185185
        k(   49) = (  -0.5000000   0.0000000   0.0000000), wk =   0.0092593
        k(   50) = (  -0.5000000   0.0000000   0.0589576), wk =   0.0185185
        k(   51) = (  -0.5000000   0.0000000   0.1179152), wk =   0.0185185
        k(   52) = (  -0.5000000   0.0000000  -0.1768728), wk =   0.0092593
        k(   53) = (  -0.5000000   0.1462927   0.0000000), wk =   0.0185185
        k(   54) = (  -0.5000000   0.1462927   0.0589576), wk =   0.0370370
        k(   55) = (  -0.5000000   0.1462927   0.1179152), wk =   0.0370370
        k(   56) = (  -0.5000000   0.1462927  -0.1768728), wk =   0.0185185
        k(   57) = (  -0.5000000   0.2925854   0.0000000), wk =   0.0185185
        k(   58) = (  -0.5000000   0.2925854   0.0589576), wk =   0.0370370
        k(   59) = (  -0.5000000   0.2925854   0.1179152), wk =   0.0370370
        k(   60) = (  -0.5000000   0.2925854  -0.1768728), wk =   0.0185185
        k(   61) = (  -0.5000000  -0.4388781   0.0000000), wk =   0.0092593
        k(   62) = (  -0.5000000  -0.4388781   0.0589576), wk =   0.0185185
        k(   63) = (  -0.5000000  -0.4388781   0.1179152), wk =   0.0185185
        k(   64) = (  -0.5000000  -0.4388781  -0.1768728), wk =   0.0092593

                       cryst. coord.
        k(    1) = (   0.0000000   0.0000000   0.0000000), wk =   0.0092593
        k(    2) = (   0.0000000   0.0000000   0.1666667), wk =   0.0185185
        k(    3) = (   0.0000000   0.0000000   0.3333333), wk =   0.0185185
        k(    4) = (   0.0000000   0.0000000  -0.5000000), wk =   0.0092593
        k(    5) = (   0.0000000   0.1666667   0.0000000), wk =   0.0185185
        k(    6) = (   0.0000000   0.1666667   0.1666667), wk =   0.0370370
        k(    7) = (   0.0000000   0.1666667   0.3333333), wk =   0.0370370
        k(    8) = (   0.0000000   0.1666667  -0.5000000), wk =   0.0185185
        k(    9) = (   0.0000000   0.3333333   0.0000000), wk =   0.0185185
        k(   10) = (   0.0000000   0.3333333   0.1666667), wk =   0.0370370
        k(   11) = (   0.0000000   0.3333333   0.3333333), wk =   0.0370370
        k(   12) = (   0.0000000   0.3333333  -0.5000000), wk =   0.0185185
        k(   13) = (   0.0000000  -0.5000000   0.0000000), wk =   0.0092593
        k(   14) = (   0.0000000  -0.5000000   0.1666667), wk =   0.0185185
        k(   15) = (   0.0000000  -0.5000000   0.3333333), wk =   0.0185185
        k(   16) = (   0.0000000  -0.5000000  -0.5000000), wk =   0.0092593
        k(   17) = (   0.1666667   0.0000000   0.0000000), wk =   0.0185185
        k(   18) = (   0.1666667   0.0000000   0.1666667), wk =   0.0370370
        k(   19) = (   0.1666667   0.0000000   0.3333333), wk =   0.0370370
        k(   20) = (   0.1666667   0.0000000  -0.5000000), wk =   0.0185185
        k(   21) = (   0.1666667   0.1666667   0.0000000), wk =   0.0370370
        k(   22) = (   0.1666667   0.1666667   0.1666667), wk =   0.0740741
        k(   23) = (   0.1666667   0.1666667   0.3333333), wk =   0.0740741
        k(   24) = (   0.1666667   0.1666667  -0.5000000), wk =   0.0370370
        k(   25) = (   0.1666667   0.3333333   0.0000000), wk =   0.0370370
        k(   26) = (   0.1666667   0.3333333   0.1666667), wk =   0.0740741
        k(   27) = (   0.1666667   0.3333333   0.3333333), wk =   0.0740741
        k(   28) = (   0.1666667   0.3333333  -0.5000000), wk =   0.0370370
        k(   29) = (   0.1666667  -0.5000000   0.0000000), wk =   0.0185185
        k(   30) = (   0.1666667  -0.5000000   0.1666667), wk =   0.0370370
        k(   31) = (   0.1666667  -0.5000000   0.3333333), wk =   0.0370370
        k(   32) = (   0.1666667  -0.5000000  -0.5000000), wk =   0.0185185
        k(   33) = (   0.3333333   0.0000000   0.0000000), wk =   0.0185185
        k(   34) = (   0.3333333   0.0000000   0.1666667), wk =   0.0370370
        k(   35) = (   0.3333333   0.0000000   0.3333333), wk =   0.0370370
        k(   36) = (   0.3333333   0.0000000  -0.5000000), wk =   0.0185185
        k(   37) = (   0.3333333   0.1666667   0.0000000), wk =   0.0370370
        k(   38) = (   0.3333333   0.1666667   0.1666667), wk =   0.0740741
        k(   39) = (   0.3333333   0.1666667   0.3333333), wk =   0.0740741
        k(   40) = (   0.3333333   0.1666667  -0.5000000), wk =   0.0370370
        k(   41) = (   0.3333333   0.3333333   0.0000000), wk =   0.0370370
        k(   42) = (   0.3333333   0.3333333   0.1666667), wk =   0.0740741
        k(   43) = (   0.3333333   0.3333333   0.3333333), wk =   0.0740741
        k(   44) = (   0.3333333   0.3333333  -0.5000000), wk =   0.0370370
        k(   45) = (   0.3333333  -0.5000000   0.0000000), wk =   0.0185185
        k(   46) = (   0.3333333  -0.5000000   0.1666667), wk =   0.0370370
        k(   47) = (   0.3333333  -0.5000000   0.3333333), wk =   0.0370370
        k(   48) = (   0.3333333  -0.5000000  -0.5000000), wk =   0.0185185
        k(   49) = (  -0.5000000   0.0000000   0.0000000), wk =   0.0092593
        k(   50) = (  -0.5000000   0.0000000   0.1666667), wk =   0.0185185
        k(   51) = (  -0.5000000   0.0000000   0.3333333), wk =   0.0185185
        k(   52) = (  -0.5000000   0.0000000  -0.5000000), wk =   0.0092593
        k(   53) = (  -0.5000000   0.1666667   0.0000000), wk =   0.0185185
        k(   54) = (  -0.5000000   0.1666667   0.1666667), wk =   0.0370370
        k(   55) = (  -0.5000000   0.1666667   0.3333333), wk =   0.0370370
        k(   56) = (  -0.5000000   0.1666667  -0.5000000), wk =   0.0185185
        k(   57) = (  -0.5000000   0.3333333   0.0000000), wk =   0.0185185
        k(   58) = (  -0.5000000   0.3333333   0.1666667), wk =   0.0370370
        k(   59) = (  -0.5000000   0.3333333   0.3333333), wk =   0.0370370
        k(   60) = (  -0.5000000   0.3333333  -0.5000000), wk =   0.0185185
        k(   61) = (  -0.5000000  -0.5000000   0.0000000), wk =   0.0092593
        k(   62) = (  -0.5000000  -0.5000000   0.1666667), wk =   0.0185185
        k(   63) = (  -0.5000000  -0.5000000   0.3333333), wk =   0.0185185
        k(   64) = (  -0.5000000  -0.5000000  -0.5000000), wk =   0.0092593

     Dense  grid:   206349 G-vectors     FFT dimensions: (  50,  60, 144)

     Smooth grid:    72899 G-vectors     FFT dimensions: (  36,  40, 100)

     Dynamical RAM for                 wfc:       1.74 MB

     Dynamical RAM for     wfc (w. buffer):     112.97 MB

     Dynamical RAM for           str. fact:       0.79 MB

     Dynamical RAM for           local pot:       0.00 MB

     Dynamical RAM for          nlocal pot:       2.50 MB

     Dynamical RAM for                qrad:       3.21 MB

     Dynamical RAM for          rho,v,vnew:       2.42 MB

     Dynamical RAM for               rhoin:       0.81 MB

     Dynamical RAM for            rho*nmix:       6.30 MB

     Dynamical RAM for           G-vectors:       1.55 MB

     Dynamical RAM for          h,s,v(r/c):       1.83 MB

     Dynamical RAM for          <psi|beta>:       0.22 MB

     Dynamical RAM for                 psi:       3.48 MB

     Dynamical RAM for                hpsi:       3.48 MB

     Dynamical RAM for                spsi:       3.48 MB

     Dynamical RAM for      wfcinit/wfcrot:       3.71 MB

     Dynamical RAM for           addusdens:      74.78 MB

     Dynamical RAM for          addusforce:      77.36 MB

     Dynamical RAM for         addusstress:      79.11 MB

     Estimated static dynamical RAM per process >     127.48 MB

     Estimated max dynamical RAM per process >     212.89 MB

     Estimated total dynamical RAM >       1.66 GB

     Initial potential from superposition of free atoms

     starting charge     119.9942, renormalised to     120.0000
     Starting wfcs are   72 randomized atomic wfcs +   28 random wfcs
     Checking if some PAW data can be deallocated... 
       PAW data deallocated on    4 nodes for type:  1
       PAW data deallocated on    4 nodes for type:  2

     total cpu time spent up to now is       85.0 secs

     Self-consistent Calculation

     iteration #  1     ecut=    50.00 Ry     beta= 0.30
     Davidson diagonalization with overlap

---- Real-time Memory Report at c_bands before calling an iterative solver
           178 MiB given to the printing process from OS
             0 MiB allocation reported by mallinfo(arena+hblkhd)
          5363 MiB available memory on the node where the printing process lives
------------------
     ethr =  1.00E-02,  avg # of iterations =  7.7

     Threshold (ethr) on eigenvalues was too large:
     Diagonalizing with lowered threshold

     Davidson diagonalization with overlap

---- Real-time Memory Report at c_bands before calling an iterative solver
           256 MiB given to the printing process from OS
             0 MiB allocation reported by mallinfo(arena+hblkhd)
          5306 MiB available memory on the node where the printing process lives
------------------
     ethr =  1.82E-04,  avg # of iterations =  5.8

     total cpu time spent up to now is     1211.6 secs

     total energy              =   -3375.65982863 Ry
     estimated scf accuracy    <       0.21566980 Ry

     iteration #  2     ecut=    50.00 Ry     beta= 0.30
     Davidson diagonalization with overlap

---- Real-time Memory Report at c_bands before calling an iterative solver
           258 MiB given to the printing process from OS
             0 MiB allocation reported by mallinfo(arena+hblkhd)
          5285 MiB available memory on the node where the printing process lives
------------------
     ethr =  1.80E-04,  avg # of iterations =  1.7

     total cpu time spent up to now is     1446.2 secs

     total energy              =   -3375.67923543 Ry
     estimated scf accuracy    <       0.02715809 Ry

     iteration #  3     ecut=    50.00 Ry     beta= 0.30
     Davidson diagonalization with overlap

---- Real-time Memory Report at c_bands before calling an iterative solver
           258 MiB given to the printing process from OS
             0 MiB allocation reported by mallinfo(arena+hblkhd)
          5278 MiB available memory on the node where the printing process lives
------------------
     ethr =  2.26E-05,  avg # of iterations =  6.0

     total cpu time spent up to now is     1917.4 secs

     total energy              =   -3375.68037993 Ry
     estimated scf accuracy    <       0.00714428 Ry

     iteration #  4     ecut=    50.00 Ry     beta= 0.30
     Davidson diagonalization with overlap

---- Real-time Memory Report at c_bands before calling an iterative solver
           258 MiB given to the printing process from OS
             0 MiB allocation reported by mallinfo(arena+hblkhd)
          5277 MiB available memory on the node where the printing process lives
------------------
     c_bands:  1 eigenvalues not converged
     ethr =  5.95E-06,  avg # of iterations =  4.5

     total cpu time spent up to now is     2325.4 secs

     total energy              =   -3375.68086971 Ry
     estimated scf accuracy    <       0.00069454 Ry

     iteration #  5     ecut=    50.00 Ry     beta= 0.30
     Davidson diagonalization with overlap

---- Real-time Memory Report at c_bands before calling an iterative solver
           259 MiB given to the printing process from OS
             0 MiB allocation reported by mallinfo(arena+hblkhd)
          5274 MiB available memory on the node where the printing process lives
------------------
     ethr =  5.79E-07,  avg # of iterations =  4.4

     total cpu time spent up to now is     2689.0 secs

     total energy              =   -3375.68090330 Ry
     estimated scf accuracy    <       0.00007181 Ry

     iteration #  6     ecut=    50.00 Ry     beta= 0.30
     Davidson diagonalization with overlap

---- Real-time Memory Report at c_bands before calling an iterative solver
           259 MiB given to the printing process from OS
             0 MiB allocation reported by mallinfo(arena+hblkhd)
          5275 MiB available memory on the node where the printing process lives
------------------
     ethr =  5.98E-08,  avg # of iterations =  2.0

     total cpu time spent up to now is     2926.2 secs

     total energy              =   -3375.68091341 Ry
     estimated scf accuracy    <       0.00000418 Ry

     iteration #  7     ecut=    50.00 Ry     beta= 0.30
     Davidson diagonalization with overlap

---- Real-time Memory Report at c_bands before calling an iterative solver
           259 MiB given to the printing process from OS
             0 MiB allocation reported by mallinfo(arena+hblkhd)
          5274 MiB available memory on the node where the printing process lives
------------------
     ethr =  3.48E-09,  avg # of iterations =  2.0

     total cpu time spent up to now is     3178.1 secs

     total energy              =   -3375.68091424 Ry
     estimated scf accuracy    <       0.00000084 Ry

     iteration #  8     ecut=    50.00 Ry     beta= 0.30
     Davidson diagonalization with overlap

---- Real-time Memory Report at c_bands before calling an iterative solver
           260 MiB given to the printing process from OS
             0 MiB allocation reported by mallinfo(arena+hblkhd)
          5270 MiB available memory on the node where the printing process lives
------------------
     ethr =  7.01E-10,  avg # of iterations =  2.0

     total cpu time spent up to now is     3442.3 secs

     total energy              =   -3375.68091441 Ry
     estimated scf accuracy    <       0.00000009 Ry

     iteration #  9     ecut=    50.00 Ry     beta= 0.30
     Davidson diagonalization with overlap

---- Real-time Memory Report at c_bands before calling an iterative solver
           260 MiB given to the printing process from OS
             0 MiB allocation reported by mallinfo(arena+hblkhd)
          5265 MiB available memory on the node where the printing process lives
------------------
     ethr =  7.25E-11,  avg # of iterations =  2.0

     total cpu time spent up to now is     3693.2 secs

     End of self-consistent calculation

          k = 0.0000 0.0000 0.0000 (  9087 PWs)   bands (ev):

   -39.3305 -39.3305 -39.3304 -39.3303 -39.3296 -39.3292 -39.3290 -39.3289
   -39.3003 -39.3000 -39.2999 -39.2998 -39.2966 -39.2965 -39.2965 -39.2961
   -39.2878 -39.2874 -39.2873 -39.2870 -13.3008 -13.2908 -13.2865 -13.2812
   -13.2806 -13.2774 -13.2766 -13.2736 -13.2603 -13.2588 -13.2577 -13.2517
   -13.2482 -13.2467 -13.2272 -13.2270 -13.2205 -13.2198 -13.2190 -13.2126
    -5.5892  -5.3236  -4.6036  -4.2384   0.8246   1.6902   2.4946   3.0667
     3.4245   4.6813   4.9647   4.9730   4.9964   5.3863   6.0404   6.2125
     6.5641   7.0917   7.2634   7.7390   8.9429  10.5581  10.6733  10.7534
    10.9912  11.4188  11.5547  12.3864  12.5901  12.9006  13.3381  13.7905
    14.0040  14.3674  14.7454  15.1656  15.3198  16.2025  16.2223  16.5183
    16.5484  16.6119  16.8043  17.1200  17.4424  17.5430  18.1069  18.1873
    18.5672  18.7905  19.1037  19.3054  20.1068  20.2910  20.5445  20.7195
    21.8015  22.1174  23.1584  23.2099

     occupation numbers 
     1.0000   1.0000   1.0000   1.0000   1.0000   1.0000   1.0000   1.0000
     1.0000   1.0000   1.0000   1.0000   1.0000   1.0000   1.0000   1.0000
     1.0000   1.0000   1.0000   1.0000   1.0000   1.0000   1.0000   1.0000
     1.0000   1.0000   1.0000   1.0000   1.0000   1.0000   1.0000   1.0000
     1.0000   1.0000   1.0000   1.0000   1.0000   1.0000   1.0000   1.0000
     1.0000   1.0000   1.0000   1.0000   1.0000   1.0000   1.0000   1.0000
     1.0000   1.0000   1.0000   1.0000   1.0000   1.0000   1.0000   1.0000
     1.0000   1.0000   1.0000   1.0000   0.0000   0.0000   0.0000   0.0000
     0.0000   0.0000   0.0000   0.0000   0.0000   0.0000   0.0000   0.0000
     0.0000   0.0000   0.0000   0.0000   0.0000   0.0000   0.0000   0.0000
     0.0000   0.0000   0.0000   0.0000   0.0000   0.0000   0.0000   0.0000
     0.0000   0.0000   0.0000   0.0000   0.0000   0.0000   0.0000   0.0000
     0.0000   0.0000   0.0000   0.0000

          k = 0.0000 0.0000 0.0590 (  9091 PWs)   bands (ev):

   -39.3306 -39.3305 -39.3305 -39.3303 -39.3295 -39.3294 -39.3291 -39.3291
   -39.3001 -39.2999 -39.2999 -39.2997 -39.2967 -39.2966 -39.2964 -39.2962
   -39.2877 -39.2875 -39.2872 -39.2872 -13.3004 -13.2920 -13.2857 -13.2814
   -13.2805 -13.2780 -13.2760 -13.2737 -13.2601 -13.2588 -13.2574 -13.2522
   -13.2482 -13.2469 -13.2271 -13.2269 -13.2205 -13.2199 -13.2185 -13.2130
    -5.5759  -5.3490  -4.5715  -4.2584   0.8586   1.5689   2.6029   3.0484
     3.4891   4.5363   5.0144   5.0170   5.0871   5.3434   6.0920   6.1700
     6.5369   6.8294   7.3100   7.7191   9.2618  10.4832  10.6600  10.7287
    11.1043  11.4509  11.6048  12.1727  12.8181  12.9027  13.1621  13.7404
    13.9023  14.3108  14.7830  15.1661  15.3854  15.9541  16.1405  16.4049
    16.5399  16.6949  16.8444  17.1724  17.4259  17.7181  18.0353  18.4844
    18.6485  18.6997  18.9873  19.7744  19.8114  20.6563  20.8517  20.9687
    21.8853  21.9283  22.5075  22.6406

     occupation numbers 
     1.0000   1.0000   1.0000   1.0000   1.0000   1.0000   1.0000   1.0000
     1.0000   1.0000   1.0000   1.0000   1.0000   1.0000   1.0000   1.0000
     1.0000   1.0000   1.0000   1.0000   1.0000   1.0000   1.0000   1.0000
     1.0000   1.0000   1.0000   1.0000   1.0000   1.0000   1.0000   1.0000
     1.0000   1.0000   1.0000   1.0000   1.0000   1.0000   1.0000   1.0000
     1.0000   1.0000   1.0000   1.0000   1.0000   1.0000   1.0000   1.0000
     1.0000   1.0000   1.0000   1.0000   1.0000   1.0000   1.0000   1.0000
     1.0000   1.0000   1.0000   1.0000   0.0000   0.0000   0.0000   0.0000
     0.0000   0.0000   0.0000   0.0000   0.0000   0.0000   0.0000   0.0000
     0.0000   0.0000   0.0000   0.0000   0.0000   0.0000   0.0000   0.0000
     0.0000   0.0000   0.0000   0.0000   0.0000   0.0000   0.0000   0.0000
     0.0000   0.0000   0.0000   0.0000   0.0000   0.0000   0.0000   0.0000
     0.0000   0.0000   0.0000   0.0000

          k = 0.0000 0.0000 0.1179 (  9098 PWs)   bands (ev):

   -39.3306 -39.3305 -39.3304 -39.3304 -39.3295 -39.3295 -39.3291 -39.3290
   -39.3002 -39.3000 -39.2999 -39.2998 -39.2966 -39.2966 -39.2965 -39.2964
   -39.2877 -39.2876 -39.2873 -39.2872 -13.2989 -13.2943 -13.2843 -13.2821
   -13.2801 -13.2789 -13.2752 -13.2740 -13.2596 -13.2590 -13.2564 -13.2534
   -13.2480 -13.2473 -13.2268 -13.2267 -13.2205 -13.2202 -13.2171 -13.2140
    -5.5375  -5.4097  -4.4927  -4.3151   0.9598   1.3399   2.7792   2.9958
     3.6843   4.2723   5.0668   5.1572   5.2421   5.2489   6.0818   6.2106
     6.3797   6.4595   7.4171   7.6545   9.8798  10.4229  10.5317  10.6878
    11.3227  11.5464  11.7197  11.9161  12.7586  12.8166  13.1141  13.5983
    13.8005  14.1423  14.8893  15.1947  15.5716  15.7161  16.1337  16.1468
    16.3859  16.4527  16.9594  17.2158  17.6555  17.7755  18.3141  18.4843
    18.4910  18.8303  19.3554  20.2721  20.3934  20.9534  21.2434  21.5529
    21.6412  21.7055  21.7123  22.4110

     occupation numbers 
     1.0000   1.0000   1.0000   1.0000   1.0000   1.0000   1.0000   1.0000
     1.0000   1.0000   1.0000   1.0000   1.0000   1.0000   1.0000   1.0000
     1.0000   1.0000   1.0000   1.0000   1.0000   1.0000   1.0000   1.0000
     1.0000   1.0000   1.0000   1.0000   1.0000   1.0000   1.0000   1.0000
     1.0000   1.0000   1.0000   1.0000   1.0000   1.0000   1.0000   1.0000
     1.0000   1.0000   1.0000   1.0000   1.0000   1.0000   1.0000   1.0000
     1.0000   1.0000   1.0000   1.0000   1.0000   1.0000   1.0000   1.0000
     1.0000   1.0000   1.0000   1.0000   0.0000   0.0000   0.0000   0.0000
     0.0000   0.0000   0.0000   0.0000   0.0000   0.0000   0.0000   0.0000
     0.0000   0.0000   0.0000   0.0000   0.0000   0.0000   0.0000   0.0000
     0.0000   0.0000   0.0000   0.0000   0.0000   0.0000   0.0000   0.0000
     0.0000   0.0000   0.0000   0.0000   0.0000   0.0000   0.0000   0.0000
     0.0000   0.0000   0.0000   0.0000

          k = 0.0000 0.0000-0.1769 (  9114 PWs)   bands (ev):

   -39.3305 -39.3305 -39.3304 -39.3304 -39.3295 -39.3295 -39.3291 -39.3291
   -39.3004 -39.3004 -39.2999 -39.2999 -39.2966 -39.2966 -39.2965 -39.2965
   -39.2877 -39.2877 -39.2874 -39.2874 -13.2968 -13.2968 -13.2831 -13.2831
   -13.2796 -13.2796 -13.2745 -13.2745 -13.2592 -13.2592 -13.2550 -13.2550
   -13.2477 -13.2477 -13.2267 -13.2267 -13.2204 -13.2204 -13.2155 -13.2155
    -5.4787  -5.4787  -4.3988  -4.3988   1.1242   1.1242   2.9096   2.9096
     3.9706   3.9706   5.1487   5.1487   5.2863   5.2863   6.0909   6.0909
     6.3440   6.3440   7.5459   7.5459  10.3866  10.3866  10.4715  10.4715
    11.6131  11.6131  11.7032  11.7032  12.6254  12.6254  13.3824  13.3824
    13.9209  13.9209  15.0546  15.0546  15.8445  15.8445  15.9665  15.9665
    16.2338  16.2338  17.1183  17.1183  17.8918  17.8918  18.3010  18.3010
    18.6365  18.6365  20.3211  20.3211  21.0228  21.0228  21.1476  21.1476
    21.5240  21.5240  21.9842  21.9843

     occupation numbers 
     1.0000   1.0000   1.0000   1.0000   1.0000   1.0000   1.0000   1.0000
     1.0000   1.0000   1.0000   1.0000   1.0000   1.0000   1.0000   1.0000
     1.0000   1.0000   1.0000   1.0000   1.0000   1.0000   1.0000   1.0000
     1.0000   1.0000   1.0000   1.0000   1.0000   1.0000   1.0000   1.0000
     1.0000   1.0000   1.0000   1.0000   1.0000   1.0000   1.0000   1.0000
     1.0000   1.0000   1.0000   1.0000   1.0000   1.0000   1.0000   1.0000
     1.0000   1.0000   1.0000   1.0000   1.0000   1.0000   1.0000   1.0000
     1.0000   1.0000   1.0000   1.0000   0.0000   0.0000   0.0000   0.0000
     0.0000   0.0000   0.0000   0.0000   0.0000   0.0000   0.0000   0.0000
     0.0000   0.0000   0.0000   0.0000   0.0000   0.0000   0.0000   0.0000
     0.0000   0.0000   0.0000   0.0000   0.0000   0.0000   0.0000   0.0000
     0.0000   0.0000   0.0000   0.0000   0.0000   0.0000   0.0000   0.0000
     0.0000   0.0000   0.0000   0.0000

          k = 0.0000 0.1463 0.0000 (  9106 PWs)   bands (ev):

   -39.3306 -39.3305 -39.3303 -39.3302 -39.3295 -39.3293 -39.3293 -39.3292
   -39.3004 -39.3004 -39.3003 -39.2999 -39.2965 -39.2964 -39.2963 -39.2962
   -39.2876 -39.2875 -39.2873 -39.2873 -13.2995 -13.2901 -13.2870 -13.2817
   -13.2812 -13.2785 -13.2767 -13.2739 -13.2586 -13.2573 -13.2568 -13.2521
   -13.2481 -13.2467 -13.2276 -13.2260 -13.2209 -13.2207 -13.2185 -13.2130
    -5.4955  -5.2365  -4.6170  -4.2820   0.5522   1.5645   1.9396   2.6692
     3.5010   4.8921   5.1348   5.4197   5.5080   5.5731   6.0963   6.5284
     6.5681   6.9194   7.4638   7.7006   9.0716   9.8292  10.6755  10.7294
    10.9152  10.9330  11.8790  12.0145  12.0375  12.7403  13.1405  13.2615
    13.9216  14.4443  14.5823  15.2800  15.3161  15.8392  16.3293  16.8830
    16.8959  17.2560  17.6749  17.8570  18.0013  18.2203  18.3568  18.4278
    18.9922  19.3998  19.4244  20.0782  20.1633  20.1642  20.8406  21.5855
    21.8504  22.0024  22.2406  22.3958

     occupation numbers 
     1.0000   1.0000   1.0000   1.0000   1.0000   1.0000   1.0000   1.0000
     1.0000   1.0000   1.0000   1.0000   1.0000   1.0000   1.0000   1.0000
     1.0000   1.0000   1.0000   1.0000   1.0000   1.0000   1.0000   1.0000
     1.0000   1.0000   1.0000   1.0000   1.0000   1.0000   1.0000   1.0000
     1.0000   1.0000   1.0000   1.0000   1.0000   1.0000   1.0000   1.0000
     1.0000   1.0000   1.0000   1.0000   1.0000   1.0000   1.0000   1.0000
     1.0000   1.0000   1.0000   1.0000   1.0000   1.0000   1.0000   1.0000
     1.0000   1.0000   1.0000   1.0000   0.0000   0.0000   0.0000   0.0000
     0.0000   0.0000   0.0000   0.0000   0.0000   0.0000   0.0000   0.0000
     0.0000   0.0000   0.0000   0.0000   0.0000   0.0000   0.0000   0.0000
     0.0000   0.0000   0.0000   0.0000   0.0000   0.0000   0.0000   0.0000
     0.0000   0.0000   0.0000   0.0000   0.0000   0.0000   0.0000   0.0000
     0.0000   0.0000   0.0000   0.0000

          k = 0.0000 0.1463 0.0590 (  9120 PWs)   bands (ev):

   -39.3307 -39.3306 -39.3304 -39.3303 -39.3296 -39.3294 -39.3293 -39.3291
   -39.3005 -39.3003 -39.3002 -39.3001 -39.2968 -39.2966 -39.2964 -39.2962
   -39.2877 -39.2876 -39.2874 -39.2872 -13.2991 -13.2914 -13.2861 -13.2819
   -13.2811 -13.2788 -13.2763 -13.2740 -13.2584 -13.2570 -13.2569 -13.2525
   -13.2481 -13.2468 -13.2274 -13.2260 -13.2210 -13.2208 -13.2181 -13.2134
    -5.4827  -5.2619  -4.5866  -4.2999   0.5903   1.3939   2.0779   2.6423
     3.5988   4.8292   5.1520   5.3815   5.4667   5.6317   6.1441   6.4720
     6.5442   6.9929   7.2583   7.6645   9.3307   9.9308  10.6738  10.7249
    10.8969  10.9506  11.7266  11.8383  12.3306  12.7686  13.0269  13.2149
    13.9285  14.2569  14.6139  15.2654  15.3954  16.0290  16.0997  16.7310
    16.7902  17.2723  17.6698  18.0579  18.1221  18.2932  18.4136  18.7139
    19.0973  19.1897  19.2219  19.9186  20.3804  20.6724  20.7165  21.3387
    21.5298  21.5637  22.2412  22.6294

     occupation numbers 
     1.0000   1.0000   1.0000   1.0000   1.0000   1.0000   1.0000   1.0000
     1.0000   1.0000   1.0000   1.0000   1.0000   1.0000   1.0000   1.0000
     1.0000   1.0000   1.0000   1.0000   1.0000   1.0000   1.0000   1.0000
     1.0000   1.0000   1.0000   1.0000   1.0000   1.0000   1.0000   1.0000
     1.0000   1.0000   1.0000   1.0000   1.0000   1.0000   1.0000   1.0000
     1.0000   1.0000   1.0000   1.0000   1.0000   1.0000   1.0000   1.0000
     1.0000   1.0000   1.0000   1.0000   1.0000   1.0000   1.0000   1.0000
     1.0000   1.0000   1.0000   1.0000   0.0000   0.0000   0.0000   0.0000
     0.0000   0.0000   0.0000   0.0000   0.0000   0.0000   0.0000   0.0000
     0.0000   0.0000   0.0000   0.0000   0.0000   0.0000   0.0000   0.0000
     0.0000   0.0000   0.0000   0.0000   0.0000   0.0000   0.0000   0.0000
     0.0000   0.0000   0.0000   0.0000   0.0000   0.0000   0.0000   0.0000
     0.0000   0.0000   0.0000   0.0000

          k = 0.0000 0.1463 0.1179 (  9120 PWs)   bands (ev):

   -39.3307 -39.3306 -39.3305 -39.3304 -39.3296 -39.3294 -39.3293 -39.3291
   -39.3005 -39.3003 -39.3001 -39.3000 -39.2967 -39.2966 -39.2965 -39.2964
   -39.2877 -39.2875 -39.2874 -39.2872 -13.2978 -13.2936 -13.2847 -13.2825
   -13.2808 -13.2795 -13.2756 -13.2744 -13.2580 -13.2571 -13.2562 -13.2535
   -13.2479 -13.2472 -13.2269 -13.2261 -13.2210 -13.2209 -13.2170 -13.2143
    -5.4457  -5.3216  -4.5129  -4.3509   0.7032   1.1262   2.2689   2.5595
     3.8710   4.5973   5.2022   5.3762   5.4243   5.6496   6.2526   6.4418
     6.4758   6.8639   7.1955   7.5432   9.7816  10.1596  10.5943  10.7341
    10.9323  11.0556  11.4541  11.6993  12.6197  12.7097  12.8382  13.0809
    13.9202  14.0041  14.7345  15.2238  15.6247  15.8102  16.1673  16.3751
    16.7900  17.2712  17.7335  18.0258  18.3062  18.4403  18.7161  18.8387
    19.1340  19.3544  19.4374  19.7998  20.2072  20.6434  20.7913  21.0645
    21.5181  21.6399  22.2792  22.6854

     occupation numbers 
     1.0000   1.0000   1.0000   1.0000   1.0000   1.0000   1.0000   1.0000
     1.0000   1.0000   1.0000   1.0000   1.0000   1.0000   1.0000   1.0000
     1.0000   1.0000   1.0000   1.0000   1.0000   1.0000   1.0000   1.0000
     1.0000   1.0000   1.0000   1.0000   1.0000   1.0000   1.0000   1.0000
     1.0000   1.0000   1.0000   1.0000   1.0000   1.0000   1.0000   1.0000
     1.0000   1.0000   1.0000   1.0000   1.0000   1.0000   1.0000   1.0000
     1.0000   1.0000   1.0000   1.0000   1.0000   1.0000   1.0000   1.0000
     1.0000   1.0000   1.0000   1.0000   0.0000   0.0000   0.0000   0.0000
     0.0000   0.0000   0.0000   0.0000   0.0000   0.0000   0.0000   0.0000
     0.0000   0.0000   0.0000   0.0000   0.0000   0.0000   0.0000   0.0000
     0.0000   0.0000   0.0000   0.0000   0.0000   0.0000   0.0000   0.0000
     0.0000   0.0000   0.0000   0.0000   0.0000   0.0000   0.0000   0.0000
     0.0000   0.0000   0.0000   0.0000

          k = 0.0000 0.1463-0.1769 (  9116 PWs)   bands (ev):

   -39.3306 -39.3306 -39.3304 -39.3304 -39.3295 -39.3295 -39.3291 -39.3291
   -39.3005 -39.3005 -39.3000 -39.3000 -39.2967 -39.2967 -39.2965 -39.2965
   -39.2876 -39.2876 -39.2872 -39.2872 -13.2959 -13.2959 -13.2834 -13.2834
   -13.2802 -13.2802 -13.2749 -13.2749 -13.2575 -13.2575 -13.2549 -13.2549
   -13.2476 -13.2476 -13.2264 -13.2264 -13.2211 -13.2211 -13.2156 -13.2156
    -5.3888  -5.3888  -4.4267  -4.4267   0.8859   0.8859   2.4306   2.4306
     4.2404   4.2404   5.2804   5.2804   5.5499   5.5499   6.3729   6.3729
     6.5819   6.5819   7.3739   7.3739  10.1165  10.1165  10.6252  10.6252
    11.2260  11.2260  11.3221  11.3221  12.6982  12.6982  12.8759  12.8759
    13.9190  13.9190  14.9825  14.9825  15.9159  15.9159  15.9720  15.9720
    17.1101  17.1101  17.8726  17.8726  18.4069  18.4069  18.8262  18.8262
    19.2858  19.2858  19.8936  19.8936  20.1469  20.1469  20.8773  20.8773
    21.8931  21.8931  22.4813  22.4817

     occupation numbers 
     1.0000   1.0000   1.0000   1.0000   1.0000   1.0000   1.0000   1.0000
     1.0000   1.0000   1.0000   1.0000   1.0000   1.0000   1.0000   1.0000
     1.0000   1.0000   1.0000   1.0000   1.0000   1.0000   1.0000   1.0000
     1.0000   1.0000   1.0000   1.0000   1.0000   1.0000   1.0000   1.0000
     1.0000   1.0000   1.0000   1.0000   1.0000   1.0000   1.0000   1.0000
     1.0000   1.0000   1.0000   1.0000   1.0000   1.0000   1.0000   1.0000
     1.0000   1.0000   1.0000   1.0000   1.0000   1.0000   1.0000   1.0000
     1.0000   1.0000   1.0000   1.0000   0.0000   0.0000   0.0000   0.0000
     0.0000   0.0000   0.0000   0.0000   0.0000   0.0000   0.0000   0.0000
     0.0000   0.0000   0.0000   0.0000   0.0000   0.0000   0.0000   0.0000
     0.0000   0.0000   0.0000   0.0000   0.0000   0.0000   0.0000   0.0000
     0.0000   0.0000   0.0000   0.0000   0.0000   0.0000   0.0000   0.0000
     0.0000   0.0000   0.0000   0.0000

          k = 0.0000 0.2926 0.0000 (  9116 PWs)   bands (ev):

   -39.3306 -39.3306 -39.3304 -39.3303 -39.3295 -39.3294 -39.3293 -39.3292
   -39.3006 -39.3004 -39.3002 -39.3001 -39.2967 -39.2966 -39.2965 -39.2963
   -39.2876 -39.2875 -39.2873 -39.2872 -13.2961 -13.2888 -13.2883 -13.2832
   -13.2822 -13.2807 -13.2765 -13.2749 -13.2563 -13.2546 -13.2531 -13.2525
   -13.2486 -13.2469 -13.2271 -13.2247 -13.2229 -13.2220 -13.2173 -13.2142
    -5.2453  -5.0015  -4.7061  -4.4330   0.2306   0.9921   1.3807   2.0137
     3.8829   5.1675   5.5068   5.8297   6.0972   6.1518   6.2360   6.4895
     6.6823   7.4414   7.5258   7.9115   9.0315   9.6400   9.6560  10.2392
    10.2555  10.8375  10.9695  11.5324  11.8412  12.2972  12.6900  13.5198
    14.2222  14.8401  15.5605  15.5953  15.6269  15.6526  16.5071  16.8132
    17.2968  17.6318  18.4546  18.5705  18.6043  18.8159  19.2285  19.3048
    19.9332  20.0398  20.3078  20.3448  20.7049  20.8037  20.8336  21.0337
    21.2790  21.3711  21.3955  21.8829

     occupation numbers 
     1.0000   1.0000   1.0000   1.0000   1.0000   1.0000   1.0000   1.0000
     1.0000   1.0000   1.0000   1.0000   1.0000   1.0000   1.0000   1.0000
     1.0000   1.0000   1.0000   1.0000   1.0000   1.0000   1.0000   1.0000
     1.0000   1.0000   1.0000   1.0000   1.0000   1.0000   1.0000   1.0000
     1.0000   1.0000   1.0000   1.0000   1.0000   1.0000   1.0000   1.0000
     1.0000   1.0000   1.0000   1.0000   1.0000   1.0000   1.0000   1.0000
     1.0000   1.0000   1.0000   1.0000   1.0000   1.0000   1.0000   1.0000
     1.0000   1.0000   1.0000   1.0000   0.0000   0.0000   0.0000   0.0000
     0.0000   0.0000   0.0000   0.0000   0.0000   0.0000   0.0000   0.0000
     0.0000   0.0000   0.0000   0.0000   0.0000   0.0000   0.0000   0.0000
     0.0000   0.0000   0.0000   0.0000   0.0000   0.0000   0.0000   0.0000
     0.0000   0.0000   0.0000   0.0000   0.0000   0.0000   0.0000   0.0000
     0.0000   0.0000   0.0000   0.0000

          k = 0.0000 0.2926 0.0590 (  9128 PWs)   bands (ev):

   -39.3307 -39.3306 -39.3304 -39.3304 -39.3297 -39.3295 -39.3294 -39.3293
   -39.3006 -39.3004 -39.3002 -39.3001 -39.2968 -39.2966 -39.2964 -39.2963
   -39.2878 -39.2876 -39.2875 -39.2873 -13.2958 -13.2902 -13.2870 -13.2834
   -13.2821 -13.2807 -13.2765 -13.2751 -13.2560 -13.2544 -13.2534 -13.2526
   -13.2485 -13.2470 -13.2270 -13.2248 -13.2229 -13.2221 -13.2171 -13.2144
    -5.2342  -5.0299  -4.6758  -4.4461   0.2674   0.9095   1.4333   1.9676
     4.0005   5.2192   5.5212   5.7903   5.8645   6.1919   6.3196   6.4739
     6.6845   7.3807   7.4761   7.8872   9.0684   9.6423   9.9787  10.2032
    10.2895  10.7712  10.8874  11.6099  11.8326  12.2519  12.6482  13.4161
    14.2495  14.6845  15.3255  15.7267  15.7356  15.9483  16.4407  16.9894
    17.2526  17.4863  18.1061  18.4709  18.8300  18.9434  19.1788  19.5258
    19.8224  20.0238  20.0779  20.3022  20.3416  20.8665  20.9867  21.0791
    21.3682  21.6013  21.8468  22.0368

     occupation numbers 
     1.0000   1.0000   1.0000   1.0000   1.0000   1.0000   1.0000   1.0000
     1.0000   1.0000   1.0000   1.0000   1.0000   1.0000   1.0000   1.0000
     1.0000   1.0000   1.0000   1.0000   1.0000   1.0000   1.0000   1.0000
     1.0000   1.0000   1.0000   1.0000   1.0000   1.0000   1.0000   1.0000
     1.0000   1.0000   1.0000   1.0000   1.0000   1.0000   1.0000   1.0000
     1.0000   1.0000   1.0000   1.0000   1.0000   1.0000   1.0000   1.0000
     1.0000   1.0000   1.0000   1.0000   1.0000   1.0000   1.0000   1.0000
     1.0000   1.0000   1.0000   1.0000   0.0000   0.0000   0.0000   0.0000
     0.0000   0.0000   0.0000   0.0000   0.0000   0.0000   0.0000   0.0000
     0.0000   0.0000   0.0000   0.0000   0.0000   0.0000   0.0000   0.0000
     0.0000   0.0000   0.0000   0.0000   0.0000   0.0000   0.0000   0.0000
     0.0000   0.0000   0.0000   0.0000   0.0000   0.0000   0.0000   0.0000
     0.0000   0.0000   0.0000   0.0000

          k = 0.0000 0.2926 0.1179 (  9121 PWs)   bands (ev):

   -39.3307 -39.3306 -39.3304 -39.3304 -39.3296 -39.3294 -39.3294 -39.3293
   -39.3007 -39.3004 -39.3001 -39.3001 -39.2968 -39.2966 -39.2963 -39.2963
   -39.2877 -39.2875 -39.2874 -39.2873 -13.2949 -13.2920 -13.2858 -13.2839
   -13.2818 -13.2810 -13.2763 -13.2754 -13.2555 -13.2540 -13.2539 -13.2530
   -13.2482 -13.2473 -13.2264 -13.2252 -13.2227 -13.2223 -13.2165 -13.2149
    -5.2020  -5.0898  -4.6107  -4.4839   0.3738   0.7307   1.5499   1.8482
     4.3162   5.1506   5.5632   5.7101   5.7215   6.2148   6.2746   6.4289
     6.7540   7.1254   7.5573   7.7872   9.2683   9.6527  10.1761  10.3875
    10.4632  10.7147  10.7168  11.6871  11.7741  12.1289  12.6380  13.1211
    14.2855  14.4462  15.3466  15.8306  16.0112  16.1905  16.3858  16.9227
    17.2515  17.4949  18.0676  18.1449  18.5191  18.9801  19.2170  19.5628
    19.7485  20.0180  20.0977  20.1284  20.5310  20.9194  21.2079  21.3049
    21.4109  21.7644  22.0182  22.3607

     occupation numbers 
     1.0000   1.0000   1.0000   1.0000   1.0000   1.0000   1.0000   1.0000
     1.0000   1.0000   1.0000   1.0000   1.0000   1.0000   1.0000   1.0000
     1.0000   1.0000   1.0000   1.0000   1.0000   1.0000   1.0000   1.0000
     1.0000   1.0000   1.0000   1.0000   1.0000   1.0000   1.0000   1.0000
     1.0000   1.0000   1.0000   1.0000   1.0000   1.0000   1.0000   1.0000
     1.0000   1.0000   1.0000   1.0000   1.0000   1.0000   1.0000   1.0000
     1.0000   1.0000   1.0000   1.0000   1.0000   1.0000   1.0000   1.0000
     1.0000   1.0000   1.0000   1.0000   0.0000   0.0000   0.0000   0.0000
     0.0000   0.0000   0.0000   0.0000   0.0000   0.0000   0.0000   0.0000
     0.0000   0.0000   0.0000   0.0000   0.0000   0.0000   0.0000   0.0000
     0.0000   0.0000   0.0000   0.0000   0.0000   0.0000   0.0000   0.0000
     0.0000   0.0000   0.0000   0.0000   0.0000   0.0000   0.0000   0.0000
     0.0000   0.0000   0.0000   0.0000

          k = 0.0000 0.2926-0.1769 (  9118 PWs)   bands (ev):

   -39.3307 -39.3307 -39.3303 -39.3303 -39.3295 -39.3295 -39.3293 -39.3293
   -39.3005 -39.3005 -39.3001 -39.3001 -39.2968 -39.2968 -39.2963 -39.2963
   -39.2876 -39.2876 -39.2873 -39.2873 -13.2936 -13.2936 -13.2847 -13.2847
   -13.2814 -13.2814 -13.2759 -13.2759 -13.2547 -13.2547 -13.2535 -13.2535
   -13.2478 -13.2478 -13.2257 -13.2257 -13.2225 -13.2225 -13.2157 -13.2157
    -5.1517  -5.1517  -4.5415  -4.5415   0.5368   0.5368   1.6965   1.6965
     4.7453   4.7453   5.6288   5.6288   5.9498   5.9498   6.3594   6.3594
     6.9052   6.9052   7.6678   7.6678   9.5104   9.5104  10.3152  10.3152
    10.5373  10.5373  11.2582  11.2582  11.9586  11.9586  12.8043  12.8043
    14.3246  14.3246  15.6020  15.6020  16.3372  16.3372  16.4371  16.4371
    17.5778  17.5778  17.9624  17.9624  18.5365  18.5365  19.3529  19.3529
    19.8837  19.8837  20.3043  20.3043  20.7545  20.7545  21.4498  21.4498
    21.5234  21.5234  22.1258  22.1259

     occupation numbers 
     1.0000   1.0000   1.0000   1.0000   1.0000   1.0000   1.0000   1.0000
     1.0000   1.0000   1.0000   1.0000   1.0000   1.0000   1.0000   1.0000
     1.0000   1.0000   1.0000   1.0000   1.0000   1.0000   1.0000   1.0000
     1.0000   1.0000   1.0000   1.0000   1.0000   1.0000   1.0000   1.0000
     1.0000   1.0000   1.0000   1.0000   1.0000   1.0000   1.0000   1.0000
     1.0000   1.0000   1.0000   1.0000   1.0000   1.0000   1.0000   1.0000
     1.0000   1.0000   1.0000   1.0000   1.0000   1.0000   1.0000   1.0000
     1.0000   1.0000   1.0000   1.0000   0.0000   0.0000   0.0000   0.0000
     0.0000   0.0000   0.0000   0.0000   0.0000   0.0000   0.0000   0.0000
     0.0000   0.0000   0.0000   0.0000   0.0000   0.0000   0.0000   0.0000
     0.0000   0.0000   0.0000   0.0000   0.0000   0.0000   0.0000   0.0000
     0.0000   0.0000   0.0000   0.0000   0.0000   0.0000   0.0000   0.0000
     0.0000   0.0000   0.0000   0.0000

          k = 0.0000-0.4389 0.0000 (  9156 PWs)   bands (ev):

   -39.3309 -39.3309 -39.3306 -39.3306 -39.3295 -39.3295 -39.3295 -39.3295
   -39.3006 -39.3006 -39.3005 -39.3005 -39.2970 -39.2970 -39.2966 -39.2966
   -39.2875 -39.2875 -39.2875 -39.2875 -13.2921 -13.2921 -13.2857 -13.2857
   -13.2822 -13.2822 -13.2760 -13.2760 -13.2547 -13.2547 -13.2506 -13.2506
   -13.2487 -13.2487 -13.2255 -13.2255 -13.2232 -13.2232 -13.2158 -13.2158
    -4.9357  -4.9357  -4.6973  -4.6973   0.3533   0.3533   1.5073   1.5073
     4.5550   4.5550   5.9466   5.9466   6.2146   6.2146   6.6395   6.6395
     7.0733   7.0733   7.7988   7.7988   9.3129   9.3129   9.8195   9.8195
    10.2485  10.2485  10.7445  10.7445  11.5956  11.5956  13.5271  13.5271
    15.4487  15.4487  15.6748  15.6748  16.3585  16.3585  16.6029  16.6029
    17.3785  17.3785  17.6708  17.6708  18.2051  18.2051  19.2880  19.2880
    19.8928  19.8928  19.9129  19.9129  21.2770  21.2770  21.4447  21.4447
    22.3590  22.3591  23.0447  23.0448

     occupation numbers 
     1.0000   1.0000   1.0000   1.0000   1.0000   1.0000   1.0000   1.0000
     1.0000   1.0000   1.0000   1.0000   1.0000   1.0000   1.0000   1.0000
     1.0000   1.0000   1.0000   1.0000   1.0000   1.0000   1.0000   1.0000
     1.0000   1.0000   1.0000   1.0000   1.0000   1.0000   1.0000   1.0000
     1.0000   1.0000   1.0000   1.0000   1.0000   1.0000   1.0000   1.0000
     1.0000   1.0000   1.0000   1.0000   1.0000   1.0000   1.0000   1.0000
     1.0000   1.0000   1.0000   1.0000   1.0000   1.0000   1.0000   1.0000
     1.0000   1.0000   1.0000   1.0000   0.0000   0.0000   0.0000   0.0000
     0.0000   0.0000   0.0000   0.0000   0.0000   0.0000   0.0000   0.0000
     0.0000   0.0000   0.0000   0.0000   0.0000   0.0000   0.0000   0.0000
     0.0000   0.0000   0.0000   0.0000   0.0000   0.0000   0.0000   0.0000
     0.0000   0.0000   0.0000   0.0000   0.0000   0.0000   0.0000   0.0000
     0.0000   0.0000   0.0000   0.0000

          k = 0.0000-0.4389 0.0590 (  9136 PWs)   bands (ev):

   -39.3308 -39.3308 -39.3305 -39.3305 -39.3295 -39.3295 -39.3294 -39.3294
   -39.3006 -39.3006 -39.3002 -39.3002 -39.2969 -39.2969 -39.2964 -39.2964
   -39.2876 -39.2876 -39.2873 -39.2873 -13.2920 -13.2920 -13.2857 -13.2857
   -13.2822 -13.2822 -13.2761 -13.2761 -13.2547 -13.2547 -13.2506 -13.2506
   -13.2487 -13.2487 -13.2253 -13.2253 -13.2233 -13.2233 -13.2158 -13.2158
    -4.9351  -4.9351  -4.6980  -4.6980   0.3688   0.3688   1.4711   1.4711
     4.6659   4.6659   5.9483   5.9483   6.2123   6.2123   6.3852   6.3852
     7.2059   7.2059   7.7939   7.7939   9.3082   9.3082   9.8449   9.8449
    10.2588  10.2588  10.8467  10.8467  11.5765  11.5765  13.3711  13.3711
    15.4662  15.4662  15.7752  15.7752  16.4591  16.4591  16.5458  16.5458
    17.2518  17.2518  17.7596  17.7596  18.2326  18.2326  18.7632  18.7632
    19.9936  19.9936  20.4551  20.4551  20.9816  20.9816  21.6788  21.6788
    22.5040  22.5041  22.8632  22.8634

     occupation numbers 
     1.0000   1.0000   1.0000   1.0000   1.0000   1.0000   1.0000   1.0000
     1.0000   1.0000   1.0000   1.0000   1.0000   1.0000   1.0000   1.0000
     1.0000   1.0000   1.0000   1.0000   1.0000   1.0000   1.0000   1.0000
     1.0000   1.0000   1.0000   1.0000   1.0000   1.0000   1.0000   1.0000
     1.0000   1.0000   1.0000   1.0000   1.0000   1.0000   1.0000   1.0000
     1.0000   1.0000   1.0000   1.0000   1.0000   1.0000   1.0000   1.0000
     1.0000   1.0000   1.0000   1.0000   1.0000   1.0000   1.0000   1.0000
     1.0000   1.0000   1.0000   1.0000   0.0000   0.0000   0.0000   0.0000
     0.0000   0.0000   0.0000   0.0000   0.0000   0.0000   0.0000   0.0000
     0.0000   0.0000   0.0000   0.0000   0.0000   0.0000   0.0000   0.0000
     0.0000   0.0000   0.0000   0.0000   0.0000   0.0000   0.0000   0.0000
     0.0000   0.0000   0.0000   0.0000   0.0000   0.0000   0.0000   0.0000
     0.0000   0.0000   0.0000   0.0000

          k = 0.0000-0.4389 0.1179 (  9124 PWs)   bands (ev):

   -39.3307 -39.3307 -39.3305 -39.3305 -39.3296 -39.3296 -39.3294 -39.3294
   -39.3006 -39.3006 -39.3001 -39.3001 -39.2968 -39.2968 -39.2964 -39.2964
   -39.2877 -39.2877 -39.2874 -39.2874 -13.2920 -13.2920 -13.2858 -13.2858
   -13.2820 -13.2820 -13.2763 -13.2763 -13.2546 -13.2546 -13.2505 -13.2505
   -13.2488 -13.2488 -13.2251 -13.2251 -13.2235 -13.2235 -13.2158 -13.2158
    -4.9340  -4.9340  -4.6994  -4.6994   0.4024   0.4024   1.3980   1.3980
     4.9629   4.9629   5.9341   5.9341   5.9518   5.9518   6.2077   6.2077
     7.3439   7.3439   7.7765   7.7765   9.3258   9.3258   9.8506   9.8506
    10.2802  10.2802  11.1123  11.1123  11.5377  11.5377  13.0282  13.0282
    15.5076  15.5076  16.0189  16.0189  16.3933  16.3933  16.7251  16.7251
    17.2305  17.2305  17.4296  17.4296  18.1207  18.1207  18.7189  18.7189
    19.7622  19.7622  20.9180  20.9180  21.2160  21.2160  21.9644  21.9644
    22.4647  22.4648  22.7633  22.7634

     occupation numbers 
     1.0000   1.0000   1.0000   1.0000   1.0000   1.0000   1.0000   1.0000
     1.0000   1.0000   1.0000   1.0000   1.0000   1.0000   1.0000   1.0000
     1.0000   1.0000   1.0000   1.0000   1.0000   1.0000   1.0000   1.0000
     1.0000   1.0000   1.0000   1.0000   1.0000   1.0000   1.0000   1.0000
     1.0000   1.0000   1.0000   1.0000   1.0000   1.0000   1.0000   1.0000
     1.0000   1.0000   1.0000   1.0000   1.0000   1.0000   1.0000   1.0000
     1.0000   1.0000   1.0000   1.0000   1.0000   1.0000   1.0000   1.0000
     1.0000   1.0000   1.0000   1.0000   0.0000   0.0000   0.0000   0.0000
     0.0000   0.0000   0.0000   0.0000   0.0000   0.0000   0.0000   0.0000
     0.0000   0.0000   0.0000   0.0000   0.0000   0.0000   0.0000   0.0000
     0.0000   0.0000   0.0000   0.0000   0.0000   0.0000   0.0000   0.0000
     0.0000   0.0000   0.0000   0.0000   0.0000   0.0000   0.0000   0.0000
     0.0000   0.0000   0.0000   0.0000

          k = 0.0000-0.4389-0.1769 (  9096 PWs)   bands (ev):

   -39.3306 -39.3306 -39.3303 -39.3303 -39.3294 -39.3294 -39.3293 -39.3293
   -39.3005 -39.3005 -39.3001 -39.3001 -39.2965 -39.2965 -39.2963 -39.2963
   -39.2876 -39.2876 -39.2873 -39.2873 -13.2920 -13.2920 -13.2858 -13.2858
   -13.2819 -13.2819 -13.2763 -13.2763 -13.2545 -13.2545 -13.2504 -13.2504
   -13.2488 -13.2488 -13.2250 -13.2250 -13.2237 -13.2237 -13.2157 -13.2157
    -4.9335  -4.9335  -4.7001  -4.7001   0.4207   0.4207   1.3609   1.3609
     5.2712   5.2712   5.5714   5.5714   5.9536   5.9536   6.2054   6.2054
     7.3939   7.3939   7.7634   7.7634   9.3458   9.3458   9.8367   9.8367
    10.2913  10.2913  11.2884  11.2884  11.5181  11.5181  12.8237  12.8237
    15.5322  15.5322  16.2384  16.2384  16.2610  16.2610  16.9423  16.9423
    17.1046  17.1046  17.3614  17.3614  17.7758  17.7758  19.1994  19.1994
    19.3499  19.3499  20.8745  20.8745  21.8373  21.8373  21.9830  21.9830
    22.4701  22.4702  22.6760  22.6762

     occupation numbers 
     1.0000   1.0000   1.0000   1.0000   1.0000   1.0000   1.0000   1.0000
     1.0000   1.0000   1.0000   1.0000   1.0000   1.0000   1.0000   1.0000
     1.0000   1.0000   1.0000   1.0000   1.0000   1.0000   1.0000   1.0000
     1.0000   1.0000   1.0000   1.0000   1.0000   1.0000   1.0000   1.0000
     1.0000   1.0000   1.0000   1.0000   1.0000   1.0000   1.0000   1.0000
     1.0000   1.0000   1.0000   1.0000   1.0000   1.0000   1.0000   1.0000
     1.0000   1.0000   1.0000   1.0000   1.0000   1.0000   1.0000   1.0000
     1.0000   1.0000   1.0000   1.0000   0.0000   0.0000   0.0000   0.0000
     0.0000   0.0000   0.0000   0.0000   0.0000   0.0000   0.0000   0.0000
     0.0000   0.0000   0.0000   0.0000   0.0000   0.0000   0.0000   0.0000
     0.0000   0.0000   0.0000   0.0000   0.0000   0.0000   0.0000   0.0000
     0.0000   0.0000   0.0000   0.0000   0.0000   0.0000   0.0000   0.0000
     0.0000   0.0000   0.0000   0.0000

          k = 0.1667 0.0000 0.0000 (  9089 PWs)   bands (ev):

   -39.3306 -39.3306 -39.3305 -39.3305 -39.3292 -39.3291 -39.3291 -39.3291
   -39.3001 -39.3001 -39.3000 -39.2998 -39.2966 -39.2966 -39.2965 -39.2965
   -39.2875 -39.2874 -39.2872 -39.2871 -13.2957 -13.2893 -13.2835 -13.2816
   -13.2800 -13.2782 -13.2775 -13.2760 -13.2600 -13.2595 -13.2554 -13.2553
   -13.2475 -13.2457 -13.2296 -13.2250 -13.2246 -13.2185 -13.2174 -13.2120
    -5.4417  -5.1939  -4.5363  -4.2214   0.6956   1.4488   2.3149   2.4637
     3.5165   4.7318   4.8765   5.1180   5.1631   5.2736   6.1435   6.2649
     6.3456   7.2880   7.4061   7.5918   9.1213   9.8619  10.6478  10.9389
    11.0678  11.2411  11.6355  11.6765  11.9466  12.9863  13.1204  13.1671
    13.7768  14.0067  14.4832  14.6807  14.7236  16.0833  16.5972  16.6712
    17.1209  17.3816  17.4691  17.7575  18.0222  18.4301  18.8830  18.9968
    19.1786  19.2820  19.4532  20.1847  20.2340  20.7613  20.9204  21.5885
    22.1312  22.3813  22.5432  23.0150

     occupation numbers 
     1.0000   1.0000   1.0000   1.0000   1.0000   1.0000   1.0000   1.0000
     1.0000   1.0000   1.0000   1.0000   1.0000   1.0000   1.0000   1.0000
     1.0000   1.0000   1.0000   1.0000   1.0000   1.0000   1.0000   1.0000
     1.0000   1.0000   1.0000   1.0000   1.0000   1.0000   1.0000   1.0000
     1.0000   1.0000   1.0000   1.0000   1.0000   1.0000   1.0000   1.0000
     1.0000   1.0000   1.0000   1.0000   1.0000   1.0000   1.0000   1.0000
     1.0000   1.0000   1.0000   1.0000   1.0000   1.0000   1.0000   1.0000
     1.0000   1.0000   1.0000   1.0000   0.0000   0.0000   0.0000   0.0000
     0.0000   0.0000   0.0000   0.0000   0.0000   0.0000   0.0000   0.0000
     0.0000   0.0000   0.0000   0.0000   0.0000   0.0000   0.0000   0.0000
     0.0000   0.0000   0.0000   0.0000   0.0000   0.0000   0.0000   0.0000
     0.0000   0.0000   0.0000   0.0000   0.0000   0.0000   0.0000   0.0000
     0.0000   0.0000   0.0000   0.0000

          k = 0.1667 0.0000 0.0590 (  9095 PWs)   bands (ev):

   -39.3307 -39.3306 -39.3305 -39.3304 -39.3292 -39.3292 -39.3291 -39.3291
   -39.3002 -39.3001 -39.2999 -39.2998 -39.2967 -39.2966 -39.2966 -39.2963
   -39.2875 -39.2875 -39.2874 -39.2872 -13.2953 -13.2898 -13.2834 -13.2817
   -13.2800 -13.2779 -13.2777 -13.2761 -13.2597 -13.2592 -13.2557 -13.2555
   -13.2474 -13.2458 -13.2294 -13.2260 -13.2236 -13.2190 -13.2168 -13.2124
    -5.4292  -5.2174  -4.5081  -4.2383   0.7279   1.3588   2.3595   2.4648
     3.5983   4.7169   4.7563   5.1309   5.2558   5.3244   6.1167   6.2330
     6.3164   7.0711   7.4333   7.6088   9.4022   9.9494  10.6232  10.8671
    11.0813  11.2277  11.4024  11.9199  11.9982  12.9675  13.0826  13.0886
    13.7670  13.9573  14.3760  14.6633  14.6860  16.0696  16.4764  16.5679
    17.1542  17.4601  17.6927  17.9907  18.0519  18.4235  18.9344  18.9416
    19.2663  19.5425  19.6542  19.9672  20.1231  20.6570  21.0874  21.2154
    21.7355  22.4387  22.8193  22.8772

     occupation numbers 
     1.0000   1.0000   1.0000   1.0000   1.0000   1.0000   1.0000   1.0000
     1.0000   1.0000   1.0000   1.0000   1.0000   1.0000   1.0000   1.0000
     1.0000   1.0000   1.0000   1.0000   1.0000   1.0000   1.0000   1.0000
     1.0000   1.0000   1.0000   1.0000   1.0000   1.0000   1.0000   1.0000
     1.0000   1.0000   1.0000   1.0000   1.0000   1.0000   1.0000   1.0000
     1.0000   1.0000   1.0000   1.0000   1.0000   1.0000   1.0000   1.0000
     1.0000   1.0000   1.0000   1.0000   1.0000   1.0000   1.0000   1.0000
     1.0000   1.0000   1.0000   1.0000   0.0000   0.0000   0.0000   0.0000
     0.0000   0.0000   0.0000   0.0000   0.0000   0.0000   0.0000   0.0000
     0.0000   0.0000   0.0000   0.0000   0.0000   0.0000   0.0000   0.0000
     0.0000   0.0000   0.0000   0.0000   0.0000   0.0000   0.0000   0.0000
     0.0000   0.0000   0.0000   0.0000   0.0000   0.0000   0.0000   0.0000
     0.0000   0.0000   0.0000   0.0000

          k = 0.1667 0.0000 0.1179 (  9093 PWs)   bands (ev):

   -39.3306 -39.3306 -39.3305 -39.3304 -39.3292 -39.3292 -39.3291 -39.3291
   -39.3001 -39.3000 -39.2998 -39.2998 -39.2967 -39.2966 -39.2965 -39.2963
   -39.2875 -39.2875 -39.2873 -39.2873 -13.2943 -13.2911 -13.2831 -13.2821
   -13.2797 -13.2783 -13.2773 -13.2763 -13.2590 -13.2585 -13.2564 -13.2562
   -13.2471 -13.2462 -13.2288 -13.2270 -13.2223 -13.2199 -13.2156 -13.2132
    -5.3931  -5.2738  -4.4394  -4.2865   0.8234   1.1688   2.4251   2.4657
     3.8249   4.4451   4.8276   5.0511   5.4271   5.4471   6.0861   6.1535
     6.2750   6.6451   7.5351   7.6318   9.8388  10.2921  10.4466  10.8073
    11.0774  11.2028  11.2747  11.8645  12.2883  12.8259  12.8954  13.0332
    13.7176  13.8443  14.3146  14.5858  14.7682  15.6125  16.5272  16.5766
    17.4490  17.5228  17.8520  18.1629  18.1853  18.5498  18.8972  18.9339
    19.5066  19.8581  19.9544  20.0728  20.2429  20.5151  20.5460  21.1507
    21.6706  21.6910  22.2987  22.4329

     occupation numbers 
     1.0000   1.0000   1.0000   1.0000   1.0000   1.0000   1.0000   1.0000
     1.0000   1.0000   1.0000   1.0000   1.0000   1.0000   1.0000   1.0000
     1.0000   1.0000   1.0000   1.0000   1.0000   1.0000   1.0000   1.0000
     1.0000   1.0000   1.0000   1.0000   1.0000   1.0000   1.0000   1.0000
     1.0000   1.0000   1.0000   1.0000   1.0000   1.0000   1.0000   1.0000
     1.0000   1.0000   1.0000   1.0000   1.0000   1.0000   1.0000   1.0000
     1.0000   1.0000   1.0000   1.0000   1.0000   1.0000   1.0000   1.0000
     1.0000   1.0000   1.0000   1.0000   0.0000   0.0000   0.0000   0.0000
     0.0000   0.0000   0.0000   0.0000   0.0000   0.0000   0.0000   0.0000
     0.0000   0.0000   0.0000   0.0000   0.0000   0.0000   0.0000   0.0000
     0.0000   0.0000   0.0000   0.0000   0.0000   0.0000   0.0000   0.0000
     0.0000   0.0000   0.0000   0.0000   0.0000   0.0000   0.0000   0.0000
     0.0000   0.0000   0.0000   0.0000

          k = 0.1667 0.0000-0.1769 (  9106 PWs)   bands (ev):

   -39.3306 -39.3306 -39.3304 -39.3304 -39.3293 -39.3293 -39.3292 -39.3292
   -39.3002 -39.3002 -39.2998 -39.2998 -39.2967 -39.2967 -39.2964 -39.2964
   -39.2876 -39.2876 -39.2875 -39.2875 -13.2928 -13.2928 -13.2827 -13.2827
   -13.2790 -13.2790 -13.2767 -13.2767 -13.2582 -13.2582 -13.2569 -13.2569
   -13.2467 -13.2467 -13.2280 -13.2280 -13.2211 -13.2211 -13.2144 -13.2144
    -5.3381  -5.3381  -4.3582  -4.3582   0.9759   0.9759   2.4578   2.4578
     4.1327   4.1327   4.9354   4.9354   5.5175   5.5175   6.0982   6.0982
     6.3387   6.3387   7.6133   7.6133  10.1551  10.1551  10.7099  10.7099
    11.0669  11.0669  11.5325  11.5325  12.5794  12.5794  12.9097  12.9097
    13.7353  13.7353  14.4307  14.4307  15.1127  15.1127  16.5807  16.5807
    17.6101  17.6101  17.9978  17.9978  18.4674  18.4674  18.8412  18.8412
    19.8313  19.8313  20.0318  20.0318  20.6153  20.6153  20.8282  20.8282
    21.5078  21.5078  21.8012  21.8012

     occupation numbers 
     1.0000   1.0000   1.0000   1.0000   1.0000   1.0000   1.0000   1.0000
     1.0000   1.0000   1.0000   1.0000   1.0000   1.0000   1.0000   1.0000
     1.0000   1.0000   1.0000   1.0000   1.0000   1.0000   1.0000   1.0000
     1.0000   1.0000   1.0000   1.0000   1.0000   1.0000   1.0000   1.0000
     1.0000   1.0000   1.0000   1.0000   1.0000   1.0000   1.0000   1.0000
     1.0000   1.0000   1.0000   1.0000   1.0000   1.0000   1.0000   1.0000
     1.0000   1.0000   1.0000   1.0000   1.0000   1.0000   1.0000   1.0000
     1.0000   1.0000   1.0000   1.0000   0.0000   0.0000   0.0000   0.0000
     0.0000   0.0000   0.0000   0.0000   0.0000   0.0000   0.0000   0.0000
     0.0000   0.0000   0.0000   0.0000   0.0000   0.0000   0.0000   0.0000
     0.0000   0.0000   0.0000   0.0000   0.0000   0.0000   0.0000   0.0000
     0.0000   0.0000   0.0000   0.0000   0.0000   0.0000   0.0000   0.0000
     0.0000   0.0000   0.0000   0.0000

          k = 0.1667 0.1463 0.0000 (  9103 PWs)   bands (ev):

   -39.3306 -39.3305 -39.3304 -39.3303 -39.3293 -39.3293 -39.3291 -39.3291
   -39.3004 -39.3003 -39.3001 -39.3001 -39.2967 -39.2966 -39.2964 -39.2962
   -39.2876 -39.2874 -39.2873 -39.2873 -13.2950 -13.2890 -13.2846 -13.2822
   -13.2805 -13.2785 -13.2774 -13.2769 -13.2602 -13.2570 -13.2556 -13.2538
   -13.2480 -13.2450 -13.2293 -13.2252 -13.2245 -13.2193 -13.2170 -13.2123
    -5.3525  -5.1117  -4.5470  -4.2566   0.5436   1.4399   1.8691   2.3433
     3.6306   4.2793   4.5661   5.2747   5.6484   5.7997   5.9784   6.2266
     6.8361   7.0083   7.5801   7.6468   9.2298   9.7580  10.2316  10.2831
    10.9830  11.0529  11.8768  11.8781  12.2158  12.5982  12.6163  13.6219
    13.9876  14.7578  14.9152  15.0203  15.2633  16.2525  16.3116  16.5387
    16.6854  16.9773  17.5581  17.7274  18.0413  18.8454  19.1488  19.2947
    19.4690  19.9341  20.2369  20.4459  20.6070  20.6327  21.1864  21.5739
    22.2053  22.3340  22.4919  22.9292

     occupation numbers 
     1.0000   1.0000   1.0000   1.0000   1.0000   1.0000   1.0000   1.0000
     1.0000   1.0000   1.0000   1.0000   1.0000   1.0000   1.0000   1.0000
     1.0000   1.0000   1.0000   1.0000   1.0000   1.0000   1.0000   1.0000
     1.0000   1.0000   1.0000   1.0000   1.0000   1.0000   1.0000   1.0000
     1.0000   1.0000   1.0000   1.0000   1.0000   1.0000   1.0000   1.0000
     1.0000   1.0000   1.0000   1.0000   1.0000   1.0000   1.0000   1.0000
     1.0000   1.0000   1.0000   1.0000   1.0000   1.0000   1.0000   1.0000
     1.0000   1.0000   1.0000   1.0000   0.0000   0.0000   0.0000   0.0000
     0.0000   0.0000   0.0000   0.0000   0.0000   0.0000   0.0000   0.0000
     0.0000   0.0000   0.0000   0.0000   0.0000   0.0000   0.0000   0.0000
     0.0000   0.0000   0.0000   0.0000   0.0000   0.0000   0.0000   0.0000
     0.0000   0.0000   0.0000   0.0000   0.0000   0.0000   0.0000   0.0000
     0.0000   0.0000   0.0000   0.0000

          k = 0.1667 0.1463 0.0590 (  9111 PWs)   bands (ev):

   -39.3307 -39.3305 -39.3305 -39.3304 -39.3293 -39.3292 -39.3292 -39.3291
   -39.3004 -39.3003 -39.3002 -39.3000 -39.2967 -39.2966 -39.2965 -39.2963
   -39.2875 -39.2875 -39.2874 -39.2873 -13.2947 -13.2895 -13.2845 -13.2824
   -13.2804 -13.2784 -13.2776 -13.2768 -13.2598 -13.2569 -13.2559 -13.2541
   -13.2478 -13.2452 -13.2291 -13.2260 -13.2237 -13.2197 -13.2165 -13.2126
    -5.3405  -5.1351  -4.5203  -4.2718   0.5801   1.3109   1.9568   2.3255
     3.7219   4.2935   4.5880   5.1847   5.5638   5.8345   6.0270   6.1891
     6.8167   7.0360   7.4463   7.6646   9.4387   9.7851  10.1703  10.4143
    10.9501  11.0653  11.8015  11.8979  12.1382  12.5697  12.6513  13.4808
    14.0223  14.6909  14.8899  15.0631  15.2901  16.1808  16.3597  16.3749
    16.9302  17.1218  17.3451  18.0646  18.1272  18.7055  18.9378  19.0645
    19.4577  20.1233  20.3253  20.3869  20.7351  20.9941  21.1242  21.5468
    22.0604  22.2501  22.6976  22.8257

     occupation numbers 
     1.0000   1.0000   1.0000   1.0000   1.0000   1.0000   1.0000   1.0000
     1.0000   1.0000   1.0000   1.0000   1.0000   1.0000   1.0000   1.0000
     1.0000   1.0000   1.0000   1.0000   1.0000   1.0000   1.0000   1.0000
     1.0000   1.0000   1.0000   1.0000   1.0000   1.0000   1.0000   1.0000
     1.0000   1.0000   1.0000   1.0000   1.0000   1.0000   1.0000   1.0000
     1.0000   1.0000   1.0000   1.0000   1.0000   1.0000   1.0000   1.0000
     1.0000   1.0000   1.0000   1.0000   1.0000   1.0000   1.0000   1.0000
     1.0000   1.0000   1.0000   1.0000   0.0000   0.0000   0.0000   0.0000
     0.0000   0.0000   0.0000   0.0000   0.0000   0.0000   0.0000   0.0000
     0.0000   0.0000   0.0000   0.0000   0.0000   0.0000   0.0000   0.0000
     0.0000   0.0000   0.0000   0.0000   0.0000   0.0000   0.0000   0.0000
     0.0000   0.0000   0.0000   0.0000   0.0000   0.0000   0.0000   0.0000
     0.0000   0.0000   0.0000   0.0000

          k = 0.1667 0.1463 0.1179 (  9111 PWs)   bands (ev):

   -39.3307 -39.3306 -39.3304 -39.3304 -39.3293 -39.3292 -39.3292 -39.3291
   -39.3005 -39.3003 -39.3001 -39.3001 -39.2967 -39.2966 -39.2964 -39.2964
   -39.2875 -39.2875 -39.2873 -39.2873 -13.2937 -13.2907 -13.2842 -13.2830
   -13.2798 -13.2785 -13.2775 -13.2769 -13.2590 -13.2568 -13.2562 -13.2548
   -13.2472 -13.2458 -13.2286 -13.2270 -13.2226 -13.2205 -13.2155 -13.2133
    -5.3058  -5.1903  -4.4558  -4.3155   0.6876   1.0794   2.0873   2.2740
     3.9534   4.3032   4.6421   4.9726   5.5038   5.7675   6.1012   6.1428
     6.8113   6.9857   7.4105   7.6202   9.6782   9.8235  10.3488  10.6289
    10.8383  11.1278  11.6314  11.7446  12.1659  12.4675  12.7102  13.1289
    14.1594  14.5360  14.9011  15.0664  15.4313  15.9305  16.4018  16.5320
    17.0713  17.2209  17.5030  17.9644  18.1097  18.5140  18.9692  19.2506
    19.3457  19.8623  20.3947  20.6121  20.9559  21.1428  21.4234  21.5667
    21.9451  22.2912  22.4445  22.8038

     occupation numbers 
     1.0000   1.0000   1.0000   1.0000   1.0000   1.0000   1.0000   1.0000
     1.0000   1.0000   1.0000   1.0000   1.0000   1.0000   1.0000   1.0000
     1.0000   1.0000   1.0000   1.0000   1.0000   1.0000   1.0000   1.0000
     1.0000   1.0000   1.0000   1.0000   1.0000   1.0000   1.0000   1.0000
     1.0000   1.0000   1.0000   1.0000   1.0000   1.0000   1.0000   1.0000
     1.0000   1.0000   1.0000   1.0000   1.0000   1.0000   1.0000   1.0000
     1.0000   1.0000   1.0000   1.0000   1.0000   1.0000   1.0000   1.0000
     1.0000   1.0000   1.0000   1.0000   0.0000   0.0000   0.0000   0.0000
     0.0000   0.0000   0.0000   0.0000   0.0000   0.0000   0.0000   0.0000
     0.0000   0.0000   0.0000   0.0000   0.0000   0.0000   0.0000   0.0000
     0.0000   0.0000   0.0000   0.0000   0.0000   0.0000   0.0000   0.0000
     0.0000   0.0000   0.0000   0.0000   0.0000   0.0000   0.0000   0.0000
     0.0000   0.0000   0.0000   0.0000

          k = 0.1667 0.1463-0.1769 (  9106 PWs)   bands (ev):

   -39.3306 -39.3306 -39.3304 -39.3304 -39.3293 -39.3293 -39.3291 -39.3291
   -39.3004 -39.3004 -39.3001 -39.3001 -39.2966 -39.2966 -39.2965 -39.2965
   -39.2875 -39.2875 -39.2872 -39.2872 -13.2923 -13.2923 -13.2837 -13.2837
   -13.2792 -13.2792 -13.2771 -13.2771 -13.2578 -13.2578 -13.2556 -13.2556
   -13.2465 -13.2465 -13.2279 -13.2279 -13.2215 -13.2215 -13.2143 -13.2143
    -5.2528  -5.2528  -4.3809  -4.3809   0.8593   0.8593   2.1937   2.1937
     4.1984   4.1984   4.7577   4.7577   5.5947   5.5947   6.1353   6.1353
     6.8720   6.8720   7.5208   7.5208   9.7709   9.7709  10.6239  10.6239
    11.0454  11.0454  11.5185  11.5185  12.3237  12.3237  12.8342  12.8342
    14.3533  14.3533  14.9756  14.9756  15.6670  15.6670  16.5431  16.5431
    17.2565  17.2565  17.5522  17.5522  18.3090  18.3090  19.2589  19.2589
    19.5574  19.5574  20.4060  20.4060  21.3441  21.3441  21.5375  21.5375
    21.9751  21.9751  22.5557  22.5557

     occupation numbers 
     1.0000   1.0000   1.0000   1.0000   1.0000   1.0000   1.0000   1.0000
     1.0000   1.0000   1.0000   1.0000   1.0000   1.0000   1.0000   1.0000
     1.0000   1.0000   1.0000   1.0000   1.0000   1.0000   1.0000   1.0000
     1.0000   1.0000   1.0000   1.0000   1.0000   1.0000   1.0000   1.0000
     1.0000   1.0000   1.0000   1.0000   1.0000   1.0000   1.0000   1.0000
     1.0000   1.0000   1.0000   1.0000   1.0000   1.0000   1.0000   1.0000
     1.0000   1.0000   1.0000   1.0000   1.0000   1.0000   1.0000   1.0000
     1.0000   1.0000   1.0000   1.0000   0.0000   0.0000   0.0000   0.0000
     0.0000   0.0000   0.0000   0.0000   0.0000   0.0000   0.0000   0.0000
     0.0000   0.0000   0.0000   0.0000   0.0000   0.0000   0.0000   0.0000
     0.0000   0.0000   0.0000   0.0000   0.0000   0.0000   0.0000   0.0000
     0.0000   0.0000   0.0000   0.0000   0.0000   0.0000   0.0000   0.0000
     0.0000   0.0000   0.0000   0.0000

          k = 0.1667 0.2926 0.0000 (  9129 PWs)   bands (ev):

   -39.3307 -39.3307 -39.3305 -39.3304 -39.3292 -39.3292 -39.3292 -39.3292
   -39.3005 -39.3004 -39.3003 -39.3001 -39.2968 -39.2967 -39.2966 -39.2964
   -39.2876 -39.2875 -39.2873 -39.2872 -13.2931 -13.2879 -13.2874 -13.2838
   -13.2811 -13.2795 -13.2783 -13.2776 -13.2590 -13.2565 -13.2532 -13.2501
   -13.2485 -13.2449 -13.2284 -13.2259 -13.2240 -13.2211 -13.2159 -13.2132
    -5.1164  -4.8925  -4.6242  -4.3833   0.3543   1.0843   1.4213   1.9511
     4.0293   4.2791   4.5485   5.3128   5.3859   5.7694   6.1958   6.5651
     7.0201   7.0479   7.4933   7.6264   9.3137   9.7777   9.9399  10.2855
    10.8354  11.0753  11.3416  12.0130  12.3539  12.6163  12.7239  13.5281
    14.0856  15.0762  15.1582  15.5351  15.8088  16.3599  16.3855  17.2056
    17.6546  17.7404  17.9768  18.1719  18.7297  18.8073  19.1064  19.2609
    19.7079  19.9110  20.2277  20.3490  20.5160  20.8330  21.2769  21.4601
    22.0438  22.3238  22.4833  22.6191

     occupation numbers 
     1.0000   1.0000   1.0000   1.0000   1.0000   1.0000   1.0000   1.0000
     1.0000   1.0000   1.0000   1.0000   1.0000   1.0000   1.0000   1.0000
     1.0000   1.0000   1.0000   1.0000   1.0000   1.0000   1.0000   1.0000
     1.0000   1.0000   1.0000   1.0000   1.0000   1.0000   1.0000   1.0000
     1.0000   1.0000   1.0000   1.0000   1.0000   1.0000   1.0000   1.0000
     1.0000   1.0000   1.0000   1.0000   1.0000   1.0000   1.0000   1.0000
     1.0000   1.0000   1.0000   1.0000   1.0000   1.0000   1.0000   1.0000
     1.0000   1.0000   1.0000   1.0000   0.0000   0.0000   0.0000   0.0000
     0.0000   0.0000   0.0000   0.0000   0.0000   0.0000   0.0000   0.0000
     0.0000   0.0000   0.0000   0.0000   0.0000   0.0000   0.0000   0.0000
     0.0000   0.0000   0.0000   0.0000   0.0000   0.0000   0.0000   0.0000
     0.0000   0.0000   0.0000   0.0000   0.0000   0.0000   0.0000   0.0000
     0.0000   0.0000   0.0000   0.0000

          k = 0.1667 0.2926 0.0590 (  9122 PWs)   bands (ev):

   -39.3307 -39.3307 -39.3305 -39.3303 -39.3293 -39.3292 -39.3292 -39.3291
   -39.3005 -39.3004 -39.3002 -39.3001 -39.2968 -39.2966 -39.2964 -39.2963
   -39.2876 -39.2875 -39.2873 -39.2873 -13.2928 -13.2884 -13.2872 -13.2842
   -13.2808 -13.2791 -13.2785 -13.2776 -13.2588 -13.2565 -13.2531 -13.2508
   -13.2479 -13.2451 -13.2283 -13.2263 -13.2237 -13.2213 -13.2156 -13.2133
    -5.1061  -4.9183  -4.5973  -4.3947   0.3896   1.0030   1.4729   1.9155
     4.1021   4.3017   4.5994   5.2601   5.3232   5.8974   6.0508   6.5716
     6.9737   7.0774   7.3962   7.6144   9.4713   9.8450  10.0590  10.2537
    10.8004  11.0731  11.3509  11.8336  12.3699  12.5689  12.7468  13.3886
    14.2119  15.1064  15.2708  15.4851  15.9235  16.3230  16.4382  17.0172
    17.5267  17.6988  18.0645  18.2134  18.3630  18.9951  19.0627  19.5109
    19.8104  19.9334  20.1760  20.4501  20.4882  20.8896  21.2518  21.5176
    21.6473  22.4753  22.6024  22.7472

     occupation numbers 
     1.0000   1.0000   1.0000   1.0000   1.0000   1.0000   1.0000   1.0000
     1.0000   1.0000   1.0000   1.0000   1.0000   1.0000   1.0000   1.0000
     1.0000   1.0000   1.0000   1.0000   1.0000   1.0000   1.0000   1.0000
     1.0000   1.0000   1.0000   1.0000   1.0000   1.0000   1.0000   1.0000
     1.0000   1.0000   1.0000   1.0000   1.0000   1.0000   1.0000   1.0000
     1.0000   1.0000   1.0000   1.0000   1.0000   1.0000   1.0000   1.0000
     1.0000   1.0000   1.0000   1.0000   1.0000   1.0000   1.0000   1.0000
     1.0000   1.0000   1.0000   1.0000   0.0000   0.0000   0.0000   0.0000
     0.0000   0.0000   0.0000   0.0000   0.0000   0.0000   0.0000   0.0000
     0.0000   0.0000   0.0000   0.0000   0.0000   0.0000   0.0000   0.0000
     0.0000   0.0000   0.0000   0.0000   0.0000   0.0000   0.0000   0.0000
     0.0000   0.0000   0.0000   0.0000   0.0000   0.0000   0.0000   0.0000
     0.0000   0.0000   0.0000   0.0000

          k = 0.1667 0.2926 0.1179 (  9119 PWs)   bands (ev):

   -39.3306 -39.3306 -39.3304 -39.3304 -39.3293 -39.3292 -39.3292 -39.3291
   -39.3006 -39.3004 -39.3002 -39.3001 -39.2967 -39.2966 -39.2964 -39.2963
   -39.2875 -39.2875 -39.2874 -39.2873 -13.2920 -13.2895 -13.2868 -13.2851
   -13.2801 -13.2789 -13.2785 -13.2776 -13.2582 -13.2569 -13.2529 -13.2517
   -13.2470 -13.2455 -13.2281 -13.2270 -13.2230 -13.2218 -13.2150 -13.2137
    -5.0763  -4.9731  -4.5395  -4.4277   0.4915   0.8317   1.5778   1.8222
     4.2437   4.3488   4.7593   5.1876   5.2321   5.7109   6.1276   6.5105
     6.9623   7.0557   7.3348   7.5185   9.7295  10.0444  10.1547  10.3701
    10.7370  11.0543  11.3407  11.5710  12.2685  12.4726  12.8055  13.0900
    14.5360  15.0712  15.5321  15.6595  15.9620  16.3965  16.4125  16.7364
    17.1080  17.2807  18.1824  18.3162  18.4918  19.0824  19.2542  19.6636
    19.7977  19.9504  20.2197  20.3211  20.7380  20.8442  21.1688  21.4499
    21.6604  22.0053  22.5901  22.8887

     occupation numbers 
     1.0000   1.0000   1.0000   1.0000   1.0000   1.0000   1.0000   1.0000
     1.0000   1.0000   1.0000   1.0000   1.0000   1.0000   1.0000   1.0000
     1.0000   1.0000   1.0000   1.0000   1.0000   1.0000   1.0000   1.0000
     1.0000   1.0000   1.0000   1.0000   1.0000   1.0000   1.0000   1.0000
     1.0000   1.0000   1.0000   1.0000   1.0000   1.0000   1.0000   1.0000
     1.0000   1.0000   1.0000   1.0000   1.0000   1.0000   1.0000   1.0000
     1.0000   1.0000   1.0000   1.0000   1.0000   1.0000   1.0000   1.0000
     1.0000   1.0000   1.0000   1.0000   0.0000   0.0000   0.0000   0.0000
     0.0000   0.0000   0.0000   0.0000   0.0000   0.0000   0.0000   0.0000
     0.0000   0.0000   0.0000   0.0000   0.0000   0.0000   0.0000   0.0000
     0.0000   0.0000   0.0000   0.0000   0.0000   0.0000   0.0000   0.0000
     0.0000   0.0000   0.0000   0.0000   0.0000   0.0000   0.0000   0.0000
     0.0000   0.0000   0.0000   0.0000

          k = 0.1667 0.2926-0.1769 (  9104 PWs)   bands (ev):

   -39.3305 -39.3305 -39.3304 -39.3304 -39.3292 -39.3292 -39.3291 -39.3291
   -39.3005 -39.3005 -39.3001 -39.3001 -39.2966 -39.2966 -39.2964 -39.2964
   -39.2874 -39.2874 -39.2872 -39.2872 -13.2908 -13.2908 -13.2861 -13.2861
   -13.2794 -13.2794 -13.2779 -13.2779 -13.2575 -13.2575 -13.2525 -13.2525
   -13.2461 -13.2461 -13.2276 -13.2276 -13.2224 -13.2224 -13.2142 -13.2142
    -5.0300  -5.0300  -4.4784  -4.4784   0.6471   0.6471   1.7005   1.7005
     4.3382   4.3382   5.0033   5.0033   5.3689   5.3689   6.3477   6.3477
     7.0019   7.0019   7.3980   7.3980   9.9326   9.9326  10.3751  10.3751
    10.9036  10.9036  11.3770  11.3770  12.3035  12.3035  12.8925  12.8925
    14.8812  14.8812  15.7195  15.7195  16.2647  16.2647  16.4453  16.4453
    16.9522  16.9522  18.3136  18.3136  18.8277  18.8277  19.4652  19.4652
    20.0666  20.0666  20.3676  20.3676  20.5930  20.5930  21.0947  21.0947
    22.0061  22.0061  22.8069  22.8070

     occupation numbers 
     1.0000   1.0000   1.0000   1.0000   1.0000   1.0000   1.0000   1.0000
     1.0000   1.0000   1.0000   1.0000   1.0000   1.0000   1.0000   1.0000
     1.0000   1.0000   1.0000   1.0000   1.0000   1.0000   1.0000   1.0000
     1.0000   1.0000   1.0000   1.0000   1.0000   1.0000   1.0000   1.0000
     1.0000   1.0000   1.0000   1.0000   1.0000   1.0000   1.0000   1.0000
     1.0000   1.0000   1.0000   1.0000   1.0000   1.0000   1.0000   1.0000
     1.0000   1.0000   1.0000   1.0000   1.0000   1.0000   1.0000   1.0000
     1.0000   1.0000   1.0000   1.0000   0.0000   0.0000   0.0000   0.0000
     0.0000   0.0000   0.0000   0.0000   0.0000   0.0000   0.0000   0.0000
     0.0000   0.0000   0.0000   0.0000   0.0000   0.0000   0.0000   0.0000
     0.0000   0.0000   0.0000   0.0000   0.0000   0.0000   0.0000   0.0000
     0.0000   0.0000   0.0000   0.0000   0.0000   0.0000   0.0000   0.0000
     0.0000   0.0000   0.0000   0.0000

          k = 0.1667-0.4389 0.0000 (  9126 PWs)   bands (ev):

   -39.3306 -39.3306 -39.3304 -39.3304 -39.3293 -39.3293 -39.3292 -39.3292
   -39.3005 -39.3005 -39.3002 -39.3002 -39.2967 -39.2967 -39.2965 -39.2965
   -39.2875 -39.2875 -39.2874 -39.2874 -13.2904 -13.2904 -13.2860 -13.2860
   -13.2808 -13.2808 -13.2782 -13.2782 -13.2576 -13.2576 -13.2500 -13.2500
   -13.2466 -13.2466 -13.2270 -13.2270 -13.2228 -13.2228 -13.2145 -13.2145
    -4.8303  -4.8303  -4.6153  -4.6153   0.5054   0.5054   1.5690   1.5690
     4.4846   4.4846   4.8782   4.8782   5.2616   5.2616   6.4080   6.4080
     7.1864   7.1864   7.5184   7.5184   9.3526   9.3526  10.2817  10.2817
    11.2179  11.2179  11.6663  11.6663  12.1249  12.1249  13.2796  13.2796
    14.3540  14.3540  15.7381  15.7381  16.8036  16.8036  16.9938  16.9938
    17.6615  17.6615  18.6099  18.6099  18.7234  18.7234  19.1059  19.1059
    19.5217  19.5217  20.2783  20.2783  20.8448  20.8448  20.9407  20.9407
    21.8566  21.8566  23.0050  23.0054

     occupation numbers 
     1.0000   1.0000   1.0000   1.0000   1.0000   1.0000   1.0000   1.0000
     1.0000   1.0000   1.0000   1.0000   1.0000   1.0000   1.0000   1.0000
     1.0000   1.0000   1.0000   1.0000   1.0000   1.0000   1.0000   1.0000
     1.0000   1.0000   1.0000   1.0000   1.0000   1.0000   1.0000   1.0000
     1.0000   1.0000   1.0000   1.0000   1.0000   1.0000   1.0000   1.0000
     1.0000   1.0000   1.0000   1.0000   1.0000   1.0000   1.0000   1.0000
     1.0000   1.0000   1.0000   1.0000   1.0000   1.0000   1.0000   1.0000
     1.0000   1.0000   1.0000   1.0000   0.0000   0.0000   0.0000   0.0000
     0.0000   0.0000   0.0000   0.0000   0.0000   0.0000   0.0000   0.0000
     0.0000   0.0000   0.0000   0.0000   0.0000   0.0000   0.0000   0.0000
     0.0000   0.0000   0.0000   0.0000   0.0000   0.0000   0.0000   0.0000
     0.0000   0.0000   0.0000   0.0000   0.0000   0.0000   0.0000   0.0000
     0.0000   0.0000   0.0000   0.0000

          k = 0.1667-0.4389 0.0590 (  9106 PWs)   bands (ev):

   -39.3306 -39.3306 -39.3304 -39.3304 -39.3292 -39.3292 -39.3291 -39.3291
   -39.3005 -39.3005 -39.3001 -39.3001 -39.2966 -39.2966 -39.2964 -39.2964
   -39.2874 -39.2874 -39.2873 -39.2873 -13.2902 -13.2902 -13.2864 -13.2864
   -13.2805 -13.2805 -13.2782 -13.2782 -13.2576 -13.2576 -13.2502 -13.2502
   -13.2465 -13.2465 -13.2271 -13.2271 -13.2228 -13.2228 -13.2144 -13.2144
    -4.8298  -4.8298  -4.6159  -4.6159   0.5190   0.5190   1.5396   1.5396
     4.5299   4.5299   4.8805   4.8805   5.2999   5.2999   6.3514   6.3514
     7.1447   7.1447   7.4427   7.4427   9.5436   9.5436  10.3237  10.3237
    11.0806  11.0806  11.6930  11.6930  12.1239  12.1239  13.1460  13.1460
    14.5122  14.5122  15.8106  15.8106  16.7269  16.7269  17.0746  17.0746
    17.4921  17.4921  18.2833  18.2833  18.7327  18.7327  19.2389  19.2389
    19.7436  19.7436  20.3464  20.3464  20.8367  20.8367  21.1879  21.1879
    21.8581  21.8582  22.5470  22.5472

     occupation numbers 
     1.0000   1.0000   1.0000   1.0000   1.0000   1.0000   1.0000   1.0000
     1.0000   1.0000   1.0000   1.0000   1.0000   1.0000   1.0000   1.0000
     1.0000   1.0000   1.0000   1.0000   1.0000   1.0000   1.0000   1.0000
     1.0000   1.0000   1.0000   1.0000   1.0000   1.0000   1.0000   1.0000
     1.0000   1.0000   1.0000   1.0000   1.0000   1.0000   1.0000   1.0000
     1.0000   1.0000   1.0000   1.0000   1.0000   1.0000   1.0000   1.0000
     1.0000   1.0000   1.0000   1.0000   1.0000   1.0000   1.0000   1.0000
     1.0000   1.0000   1.0000   1.0000   0.0000   0.0000   0.0000   0.0000
     0.0000   0.0000   0.0000   0.0000   0.0000   0.0000   0.0000   0.0000
     0.0000   0.0000   0.0000   0.0000   0.0000   0.0000   0.0000   0.0000
     0.0000   0.0000   0.0000   0.0000   0.0000   0.0000   0.0000   0.0000
     0.0000   0.0000   0.0000   0.0000   0.0000   0.0000   0.0000   0.0000
     0.0000   0.0000   0.0000   0.0000

          k = 0.1667-0.4389 0.1179 (  9108 PWs)   bands (ev):

   -39.3305 -39.3305 -39.3304 -39.3304 -39.3292 -39.3292 -39.3291 -39.3291
   -39.3005 -39.3005 -39.3001 -39.3001 -39.2966 -39.2966 -39.2964 -39.2964
   -39.2875 -39.2875 -39.2872 -39.2872 -13.2896 -13.2896 -13.2875 -13.2875
   -13.2798 -13.2798 -13.2784 -13.2784 -13.2574 -13.2574 -13.2506 -13.2506
   -13.2462 -13.2462 -13.2274 -13.2274 -13.2229 -13.2229 -13.2143 -13.2143
    -4.8289  -4.8289  -4.6172  -4.6172   0.5480   0.5480   1.4802   1.4802
     4.6230   4.6230   4.8650   4.8650   5.4539   5.4539   6.1394   6.1394
     7.0988   7.0988   7.3304   7.3304   9.9338   9.9338  10.4035  10.4035
    10.8906  10.8906  11.5697  11.5697  12.1713  12.1713  12.9037  12.9037
    14.9432  14.9432  15.8833  15.8833  16.3588  16.3588  17.2253  17.2253
    17.3583  17.3583  18.0963  18.0963  18.4529  18.4529  19.5120  19.5120
    19.9697  19.9697  20.4766  20.4766  20.9788  20.9788  21.3269  21.3269
    22.0207  22.0208  22.2879  22.2881

     occupation numbers 
     1.0000   1.0000   1.0000   1.0000   1.0000   1.0000   1.0000   1.0000
     1.0000   1.0000   1.0000   1.0000   1.0000   1.0000   1.0000   1.0000
     1.0000   1.0000   1.0000   1.0000   1.0000   1.0000   1.0000   1.0000
     1.0000   1.0000   1.0000   1.0000   1.0000   1.0000   1.0000   1.0000
     1.0000   1.0000   1.0000   1.0000   1.0000   1.0000   1.0000   1.0000
     1.0000   1.0000   1.0000   1.0000   1.0000   1.0000   1.0000   1.0000
     1.0000   1.0000   1.0000   1.0000   1.0000   1.0000   1.0000   1.0000
     1.0000   1.0000   1.0000   1.0000   0.0000   0.0000   0.0000   0.0000
     0.0000   0.0000   0.0000   0.0000   0.0000   0.0000   0.0000   0.0000
     0.0000   0.0000   0.0000   0.0000   0.0000   0.0000   0.0000   0.0000
     0.0000   0.0000   0.0000   0.0000   0.0000   0.0000   0.0000   0.0000
     0.0000   0.0000   0.0000   0.0000   0.0000   0.0000   0.0000   0.0000
     0.0000   0.0000   0.0000   0.0000

          k = 0.1667-0.4389-0.1769 (  9124 PWs)   bands (ev):

   -39.3305 -39.3305 -39.3304 -39.3304 -39.3293 -39.3293 -39.3292 -39.3292
   -39.3005 -39.3005 -39.3002 -39.3002 -39.2967 -39.2967 -39.2963 -39.2963
   -39.2876 -39.2876 -39.2873 -39.2873 -13.2890 -13.2890 -13.2883 -13.2883
   -13.2794 -13.2794 -13.2786 -13.2786 -13.2573 -13.2573 -13.2508 -13.2508
   -13.2461 -13.2461 -13.2275 -13.2275 -13.2229 -13.2229 -13.2142 -13.2142
    -4.8284  -4.8284  -4.6178  -4.6178   0.5637   0.5637   1.4498   1.4498
     4.6762   4.6762   4.8417   4.8417   5.6535   5.6535   5.9026   5.9026
     7.1052   7.1052   7.2744   7.2744  10.2439  10.2439  10.3023  10.3023
    10.9006  10.9006  11.3995  11.3995  12.2138  12.2138  12.7904  12.7904
    15.4834  15.4834  15.5851  15.5851  16.1144  16.1144  17.3295  17.3295
    17.3469  17.3469  18.1340  18.1340  18.2350  18.2350  19.5762  19.5762
    20.1985  20.1985  20.4316  20.4316  21.1291  21.1291  21.1338  21.1338
    22.2699  22.2699  22.3027  22.3028

     occupation numbers 
     1.0000   1.0000   1.0000   1.0000   1.0000   1.0000   1.0000   1.0000
     1.0000   1.0000   1.0000   1.0000   1.0000   1.0000   1.0000   1.0000
     1.0000   1.0000   1.0000   1.0000   1.0000   1.0000   1.0000   1.0000
     1.0000   1.0000   1.0000   1.0000   1.0000   1.0000   1.0000   1.0000
     1.0000   1.0000   1.0000   1.0000   1.0000   1.0000   1.0000   1.0000
     1.0000   1.0000   1.0000   1.0000   1.0000   1.0000   1.0000   1.0000
     1.0000   1.0000   1.0000   1.0000   1.0000   1.0000   1.0000   1.0000
     1.0000   1.0000   1.0000   1.0000   0.0000   0.0000   0.0000   0.0000
     0.0000   0.0000   0.0000   0.0000   0.0000   0.0000   0.0000   0.0000
     0.0000   0.0000   0.0000   0.0000   0.0000   0.0000   0.0000   0.0000
     0.0000   0.0000   0.0000   0.0000   0.0000   0.0000   0.0000   0.0000
     0.0000   0.0000   0.0000   0.0000   0.0000   0.0000   0.0000   0.0000
     0.0000   0.0000   0.0000   0.0000

          k = 0.3333 0.0000 0.0000 (  9082 PWs)   bands (ev):

   -39.3307 -39.3306 -39.3304 -39.3303 -39.3289 -39.3289 -39.3289 -39.3288
   -39.3002 -39.3001 -39.3000 -39.2999 -39.2967 -39.2967 -39.2963 -39.2963
   -39.2874 -39.2874 -39.2873 -39.2872 -13.2920 -13.2894 -13.2887 -13.2881
   -13.2773 -13.2727 -13.2718 -13.2717 -13.2599 -13.2597 -13.2596 -13.2504
   -13.2494 -13.2424 -13.2347 -13.2346 -13.2194 -13.2155 -13.2141 -13.2119
    -5.0481  -4.8650  -4.4353  -4.2744   0.4519   1.0369   1.3601   1.6850
     3.9768   4.8323   5.1437   5.4303   5.4466   5.4967   6.0878   6.3780
     6.5272   7.1195   7.2137   7.5788   8.6638   9.4794   9.7045   9.8720
    10.2462  10.5839  10.8926  11.4171  11.8425  12.2169  12.3067  12.9431
    14.4416  15.1340  15.2278  15.3131  15.8559  16.1825  16.2866  16.5630
    17.2375  17.2554  17.6465  18.3810  19.5297  19.7428  19.7487  19.9062
    20.3422  20.5886  21.0937  21.1231  21.5281  21.7177  22.1782  22.2771
    22.4139  22.6753  22.6974  23.2542

     occupation numbers 
     1.0000   1.0000   1.0000   1.0000   1.0000   1.0000   1.0000   1.0000
     1.0000   1.0000   1.0000   1.0000   1.0000   1.0000   1.0000   1.0000
     1.0000   1.0000   1.0000   1.0000   1.0000   1.0000   1.0000   1.0000
     1.0000   1.0000   1.0000   1.0000   1.0000   1.0000   1.0000   1.0000
     1.0000   1.0000   1.0000   1.0000   1.0000   1.0000   1.0000   1.0000
     1.0000   1.0000   1.0000   1.0000   1.0000   1.0000   1.0000   1.0000
     1.0000   1.0000   1.0000   1.0000   1.0000   1.0000   1.0000   1.0000
     1.0000   1.0000   1.0000   1.0000   0.0000   0.0000   0.0000   0.0000
     0.0000   0.0000   0.0000   0.0000   0.0000   0.0000   0.0000   0.0000
     0.0000   0.0000   0.0000   0.0000   0.0000   0.0000   0.0000   0.0000
     0.0000   0.0000   0.0000   0.0000   0.0000   0.0000   0.0000   0.0000
     0.0000   0.0000   0.0000   0.0000   0.0000   0.0000   0.0000   0.0000
     0.0000   0.0000   0.0000   0.0000

          k = 0.3333 0.0000 0.0590 (  9087 PWs)   bands (ev):

   -39.3307 -39.3307 -39.3304 -39.3304 -39.3290 -39.3289 -39.3289 -39.3288
   -39.3002 -39.3000 -39.3000 -39.2998 -39.2968 -39.2967 -39.2964 -39.2963
   -39.2874 -39.2873 -39.2873 -39.2872 -13.2919 -13.2900 -13.2882 -13.2880
   -13.2771 -13.2732 -13.2718 -13.2717 -13.2598 -13.2598 -13.2590 -13.2521
   -13.2478 -13.2426 -13.2348 -13.2346 -13.2192 -13.2159 -13.2139 -13.2120
    -5.0385  -4.8818  -4.4199  -4.2824   0.4815   0.9823   1.3815   1.6652
     4.0660   4.8611   5.1307   5.2126   5.5561   5.6325   6.0836   6.3073
     6.4760   7.0743   7.1681   7.5195   8.7397   9.5979   9.7111   9.9743
    10.3054  10.6283  10.8645  11.4034  11.7815  12.1427  12.2486  12.7868
    14.4788  15.1065  15.2050  15.4037  15.9243  16.1467  16.3402  16.6482
    16.9643  17.3531  18.1473  18.5099  19.0592  19.1425  19.5695  20.1117
    20.4881  20.7767  21.0146  21.3118  21.4142  21.7988  22.2507  22.3711
    22.5478  22.6781  22.8262  23.5043

     occupation numbers 
     1.0000   1.0000   1.0000   1.0000   1.0000   1.0000   1.0000   1.0000
     1.0000   1.0000   1.0000   1.0000   1.0000   1.0000   1.0000   1.0000
     1.0000   1.0000   1.0000   1.0000   1.0000   1.0000   1.0000   1.0000
     1.0000   1.0000   1.0000   1.0000   1.0000   1.0000   1.0000   1.0000
     1.0000   1.0000   1.0000   1.0000   1.0000   1.0000   1.0000   1.0000
     1.0000   1.0000   1.0000   1.0000   1.0000   1.0000   1.0000   1.0000
     1.0000   1.0000   1.0000   1.0000   1.0000   1.0000   1.0000   1.0000
     1.0000   1.0000   1.0000   1.0000   0.0000   0.0000   0.0000   0.0000
     0.0000   0.0000   0.0000   0.0000   0.0000   0.0000   0.0000   0.0000
     0.0000   0.0000   0.0000   0.0000   0.0000   0.0000   0.0000   0.0000
     0.0000   0.0000   0.0000   0.0000   0.0000   0.0000   0.0000   0.0000
     0.0000   0.0000   0.0000   0.0000   0.0000   0.0000   0.0000   0.0000
     0.0000   0.0000   0.0000   0.0000

          k = 0.3333 0.0000 0.1179 (  9098 PWs)   bands (ev):

   -39.3307 -39.3306 -39.3304 -39.3304 -39.3290 -39.3290 -39.3289 -39.3289
   -39.3002 -39.3001 -39.3000 -39.2999 -39.2967 -39.2966 -39.2965 -39.2963
   -39.2874 -39.2874 -39.2873 -39.2873 -13.2917 -13.2908 -13.2878 -13.2878
   -13.2765 -13.2743 -13.2718 -13.2718 -13.2597 -13.2597 -13.2578 -13.2542
   -13.2461 -13.2434 -13.2348 -13.2347 -13.2185 -13.2167 -13.2133 -13.2124
    -5.0112  -4.9226  -4.3829  -4.3054   0.5670   0.8502   1.4407   1.6067
     4.3045   4.9321   4.9404   5.0880   5.7153   5.7937   6.0717   6.1629
     6.3976   6.7472   7.2629   7.4289   8.9708   9.4351   9.9877  10.0724
    10.6424  10.7387  10.8325  11.3573  11.6391  11.8963  12.1599  12.4396
    14.6418  15.0814  15.0877  15.5934  15.7837  16.0514  16.6645  16.9222
    17.1109  17.3730  18.3130  18.3706  18.7210  18.9819  19.4987  19.6440
    20.4198  20.6309  21.2614  21.5912  21.7829  21.8058  22.2331  22.4844
    22.7622  22.9367  22.9671  23.0463

     occupation numbers 
     1.0000   1.0000   1.0000   1.0000   1.0000   1.0000   1.0000   1.0000
     1.0000   1.0000   1.0000   1.0000   1.0000   1.0000   1.0000   1.0000
     1.0000   1.0000   1.0000   1.0000   1.0000   1.0000   1.0000   1.0000
     1.0000   1.0000   1.0000   1.0000   1.0000   1.0000   1.0000   1.0000
     1.0000   1.0000   1.0000   1.0000   1.0000   1.0000   1.0000   1.0000
     1.0000   1.0000   1.0000   1.0000   1.0000   1.0000   1.0000   1.0000
     1.0000   1.0000   1.0000   1.0000   1.0000   1.0000   1.0000   1.0000
     1.0000   1.0000   1.0000   1.0000   0.0000   0.0000   0.0000   0.0000
     0.0000   0.0000   0.0000   0.0000   0.0000   0.0000   0.0000   0.0000
     0.0000   0.0000   0.0000   0.0000   0.0000   0.0000   0.0000   0.0000
     0.0000   0.0000   0.0000   0.0000   0.0000   0.0000   0.0000   0.0000
     0.0000   0.0000   0.0000   0.0000   0.0000   0.0000   0.0000   0.0000
     0.0000   0.0000   0.0000   0.0000

          k = 0.3333 0.0000-0.1769 (  9080 PWs)   bands (ev):

   -39.3306 -39.3306 -39.3304 -39.3304 -39.3289 -39.3289 -39.3288 -39.3288
   -39.3001 -39.3001 -39.2999 -39.2999 -39.2965 -39.2965 -39.2964 -39.2964
   -39.2873 -39.2873 -39.2871 -39.2871 -13.2913 -13.2913 -13.2877 -13.2877
   -13.2755 -13.2755 -13.2718 -13.2718 -13.2596 -13.2596 -13.2562 -13.2562
   -13.2446 -13.2446 -13.2347 -13.2347 -13.2176 -13.2176 -13.2128 -13.2128
    -4.9700  -4.9700  -4.3410  -4.3410   0.6977   0.6977   1.5234   1.5234
     4.6219   4.6219   5.0163   5.0163   5.8591   5.8591   6.0630   6.0630
     6.4603   6.4603   7.3507   7.3507   9.2296   9.2296  10.0738  10.0738
    10.8062  10.8062  11.1941  11.1941  11.5763  11.5763  12.1934  12.1934
    14.9200  14.9200  15.2041  15.2041  16.0004  16.0004  17.0719  17.0719
    17.2430  17.2430  18.0599  18.0599  18.8654  18.8654  19.6121  19.6121
    20.4364  20.4364  21.4106  21.4106  21.7981  21.7981  22.5802  22.5802
    22.9522  22.9522  23.0885  23.0886

     occupation numbers 
     1.0000   1.0000   1.0000   1.0000   1.0000   1.0000   1.0000   1.0000
     1.0000   1.0000   1.0000   1.0000   1.0000   1.0000   1.0000   1.0000
     1.0000   1.0000   1.0000   1.0000   1.0000   1.0000   1.0000   1.0000
     1.0000   1.0000   1.0000   1.0000   1.0000   1.0000   1.0000   1.0000
     1.0000   1.0000   1.0000   1.0000   1.0000   1.0000   1.0000   1.0000
     1.0000   1.0000   1.0000   1.0000   1.0000   1.0000   1.0000   1.0000
     1.0000   1.0000   1.0000   1.0000   1.0000   1.0000   1.0000   1.0000
     1.0000   1.0000   1.0000   1.0000   0.0000   0.0000   0.0000   0.0000
     0.0000   0.0000   0.0000   0.0000   0.0000   0.0000   0.0000   0.0000
     0.0000   0.0000   0.0000   0.0000   0.0000   0.0000   0.0000   0.0000
     0.0000   0.0000   0.0000   0.0000   0.0000   0.0000   0.0000   0.0000
     0.0000   0.0000   0.0000   0.0000   0.0000   0.0000   0.0000   0.0000
     0.0000   0.0000   0.0000   0.0000

          k = 0.3333 0.1463 0.0000 (  9118 PWs)   bands (ev):

   -39.3308 -39.3306 -39.3306 -39.3304 -39.3291 -39.3291 -39.3289 -39.3289
   -39.3004 -39.3003 -39.3002 -39.3001 -39.2968 -39.2966 -39.2965 -39.2963
   -39.2874 -39.2874 -39.2873 -39.2872 -13.2939 -13.2904 -13.2892 -13.2889
   -13.2777 -13.2725 -13.2725 -13.2715 -13.2604 -13.2596 -13.2572 -13.2503
   -13.2484 -13.2424 -13.2342 -13.2338 -13.2195 -13.2163 -13.2138 -13.2117
    -4.9752  -4.8002  -4.4331  -4.2807   0.5045   1.1357   1.3765   1.6214
     4.0329   4.0889   4.4372   5.0135   5.5520   5.8347   5.9648   6.2339
     6.4209   7.0718   7.1806   7.2423   9.0862   9.4855   9.6379   9.9894
    10.8261  11.2319  11.5113  11.8596  12.1116  12.1325  13.0471  13.0687
    14.0426  14.8171  15.4998  15.6113  15.7292  15.8897  16.5333  16.8016
    17.3375  17.7629  18.3961  18.4394  19.1790  19.2269  19.2822  19.7091
    20.6624  20.6682  20.8216  21.2768  21.3510  22.1016  22.1950  22.3678
    22.7404  22.9333  23.4158  23.4485

     occupation numbers 
     1.0000   1.0000   1.0000   1.0000   1.0000   1.0000   1.0000   1.0000
     1.0000   1.0000   1.0000   1.0000   1.0000   1.0000   1.0000   1.0000
     1.0000   1.0000   1.0000   1.0000   1.0000   1.0000   1.0000   1.0000
     1.0000   1.0000   1.0000   1.0000   1.0000   1.0000   1.0000   1.0000
     1.0000   1.0000   1.0000   1.0000   1.0000   1.0000   1.0000   1.0000
     1.0000   1.0000   1.0000   1.0000   1.0000   1.0000   1.0000   1.0000
     1.0000   1.0000   1.0000   1.0000   1.0000   1.0000   1.0000   1.0000
     1.0000   1.0000   1.0000   1.0000   0.0000   0.0000   0.0000   0.0000
     0.0000   0.0000   0.0000   0.0000   0.0000   0.0000   0.0000   0.0000
     0.0000   0.0000   0.0000   0.0000   0.0000   0.0000   0.0000   0.0000
     0.0000   0.0000   0.0000   0.0000   0.0000   0.0000   0.0000   0.0000
     0.0000   0.0000   0.0000   0.0000   0.0000   0.0000   0.0000   0.0000
     0.0000   0.0000   0.0000   0.0000

          k = 0.3333 0.1463 0.0590 (  9121 PWs)   bands (ev):

   -39.3308 -39.3306 -39.3306 -39.3304 -39.3291 -39.3290 -39.3289 -39.3289
   -39.3004 -39.3004 -39.3002 -39.3001 -39.2968 -39.2966 -39.2965 -39.2964
   -39.2875 -39.2874 -39.2874 -39.2872 -13.2937 -13.2907 -13.2894 -13.2885
   -13.2774 -13.2733 -13.2720 -13.2715 -13.2601 -13.2595 -13.2571 -13.2517
   -13.2471 -13.2426 -13.2343 -13.2339 -13.2193 -13.2165 -13.2137 -13.2119
    -4.9662  -4.8166  -4.4182  -4.2881   0.5357   1.0698   1.4025   1.6101
     4.0373   4.1438   4.4930   4.9951   5.5036   5.8487   5.9167   6.2609
     6.4218   6.9380   7.1053   7.3071   9.2395   9.5659   9.6923  10.0063
    10.7956  11.2437  11.4813  11.6459  11.9950  12.3156  12.8852  13.0544
    14.1414  14.9805  15.4504  15.5910  15.8096  15.9732  16.3863  16.9618
    17.2710  17.6959  18.2403  18.4942  18.8577  19.3328  19.5100  20.1492
    20.3113  20.5975  20.7508  21.0629  21.4725  21.9656  22.0628  22.5063
    22.8140  23.1947  23.4439  23.5243

     occupation numbers 
     1.0000   1.0000   1.0000   1.0000   1.0000   1.0000   1.0000   1.0000
     1.0000   1.0000   1.0000   1.0000   1.0000   1.0000   1.0000   1.0000
     1.0000   1.0000   1.0000   1.0000   1.0000   1.0000   1.0000   1.0000
     1.0000   1.0000   1.0000   1.0000   1.0000   1.0000   1.0000   1.0000
     1.0000   1.0000   1.0000   1.0000   1.0000   1.0000   1.0000   1.0000
     1.0000   1.0000   1.0000   1.0000   1.0000   1.0000   1.0000   1.0000
     1.0000   1.0000   1.0000   1.0000   1.0000   1.0000   1.0000   1.0000
     1.0000   1.0000   1.0000   1.0000   0.0000   0.0000   0.0000   0.0000
     0.0000   0.0000   0.0000   0.0000   0.0000   0.0000   0.0000   0.0000
     0.0000   0.0000   0.0000   0.0000   0.0000   0.0000   0.0000   0.0000
     0.0000   0.0000   0.0000   0.0000   0.0000   0.0000   0.0000   0.0000
     0.0000   0.0000   0.0000   0.0000   0.0000   0.0000   0.0000   0.0000
     0.0000   0.0000   0.0000   0.0000

          k = 0.3333 0.1463 0.1179 (  9115 PWs)   bands (ev):

   -39.3307 -39.3306 -39.3305 -39.3304 -39.3290 -39.3290 -39.3289 -39.3289
   -39.3004 -39.3003 -39.3002 -39.3001 -39.2968 -39.2966 -39.2965 -39.2964
   -39.2874 -39.2874 -39.2873 -39.2872 -13.2933 -13.2916 -13.2892 -13.2885
   -13.2767 -13.2744 -13.2718 -13.2716 -13.2597 -13.2593 -13.2565 -13.2536
   -13.2454 -13.2431 -13.2345 -13.2342 -13.2186 -13.2170 -13.2133 -13.2123
    -4.9404  -4.8560  -4.3828  -4.3098   0.6257   0.9241   1.4556   1.5735
     4.0856   4.1914   4.6635   4.9659   5.4321   5.6376   6.0514   6.2684
     6.4256   6.6153   7.1699   7.3031   9.4972   9.7023   9.8264  10.0635
    10.7902  11.2386  11.3083  11.5126  11.8403  12.3142  12.6979  12.9487
    14.4477  15.2145  15.4447  15.6229  15.8477  16.1530  16.2906  16.8011
    17.2287  17.4072  18.4326  18.6028  18.9145  19.2090  19.5332  20.0109
    20.2721  20.6044  20.7079  21.0271  21.3531  21.7073  21.9458  22.8504
    23.0805  23.3216  23.3637  23.6464

     occupation numbers 
     1.0000   1.0000   1.0000   1.0000   1.0000   1.0000   1.0000   1.0000
     1.0000   1.0000   1.0000   1.0000   1.0000   1.0000   1.0000   1.0000
     1.0000   1.0000   1.0000   1.0000   1.0000   1.0000   1.0000   1.0000
     1.0000   1.0000   1.0000   1.0000   1.0000   1.0000   1.0000   1.0000
     1.0000   1.0000   1.0000   1.0000   1.0000   1.0000   1.0000   1.0000
     1.0000   1.0000   1.0000   1.0000   1.0000   1.0000   1.0000   1.0000
     1.0000   1.0000   1.0000   1.0000   1.0000   1.0000   1.0000   1.0000
     1.0000   1.0000   1.0000   1.0000   0.0000   0.0000   0.0000   0.0000
     0.0000   0.0000   0.0000   0.0000   0.0000   0.0000   0.0000   0.0000
     0.0000   0.0000   0.0000   0.0000   0.0000   0.0000   0.0000   0.0000
     0.0000   0.0000   0.0000   0.0000   0.0000   0.0000   0.0000   0.0000
     0.0000   0.0000   0.0000   0.0000   0.0000   0.0000   0.0000   0.0000
     0.0000   0.0000   0.0000   0.0000

          k = 0.3333 0.1463-0.1769 (  9102 PWs)   bands (ev):

   -39.3306 -39.3306 -39.3304 -39.3304 -39.3290 -39.3290 -39.3289 -39.3289
   -39.3004 -39.3004 -39.3000 -39.3000 -39.2966 -39.2966 -39.2964 -39.2964
   -39.2873 -39.2873 -39.2872 -39.2872 -13.2925 -13.2925 -13.2888 -13.2888
   -13.2756 -13.2756 -13.2717 -13.2717 -13.2594 -13.2594 -13.2553 -13.2553
   -13.2440 -13.2440 -13.2344 -13.2344 -13.2177 -13.2177 -13.2128 -13.2128
    -4.9013  -4.9013  -4.3431  -4.3431   0.7628   0.7628   1.5170   1.5170
     4.1564   4.1564   4.8706   4.8706   5.4590   5.4590   6.1856   6.1856
     6.4530   6.4530   7.2469   7.2469   9.6769   9.6769   9.9971   9.9971
    10.9862  10.9862  11.3812  11.3812  11.9715  11.9715  12.8068  12.8068
    14.8705  14.8705  15.6675  15.6675  16.0832  16.0832  16.3528  16.3528
    17.3077  17.3077  18.6920  18.6920  18.9259  18.9259  19.7674  19.7674
    20.3545  20.3545  20.8472  20.8472  21.4052  21.4052  22.6320  22.6320
    23.2216  23.2216  23.4484  23.4490

     occupation numbers 
     1.0000   1.0000   1.0000   1.0000   1.0000   1.0000   1.0000   1.0000
     1.0000   1.0000   1.0000   1.0000   1.0000   1.0000   1.0000   1.0000
     1.0000   1.0000   1.0000   1.0000   1.0000   1.0000   1.0000   1.0000
     1.0000   1.0000   1.0000   1.0000   1.0000   1.0000   1.0000   1.0000
     1.0000   1.0000   1.0000   1.0000   1.0000   1.0000   1.0000   1.0000
     1.0000   1.0000   1.0000   1.0000   1.0000   1.0000   1.0000   1.0000
     1.0000   1.0000   1.0000   1.0000   1.0000   1.0000   1.0000   1.0000
     1.0000   1.0000   1.0000   1.0000   0.0000   0.0000   0.0000   0.0000
     0.0000   0.0000   0.0000   0.0000   0.0000   0.0000   0.0000   0.0000
     0.0000   0.0000   0.0000   0.0000   0.0000   0.0000   0.0000   0.0000
     0.0000   0.0000   0.0000   0.0000   0.0000   0.0000   0.0000   0.0000
     0.0000   0.0000   0.0000   0.0000   0.0000   0.0000   0.0000   0.0000
     0.0000   0.0000   0.0000   0.0000

          k = 0.3333 0.2926 0.0000 (  9115 PWs)   bands (ev):

   -39.3306 -39.3305 -39.3304 -39.3303 -39.3291 -39.3291 -39.3289 -39.3289
   -39.3004 -39.3004 -39.3003 -39.3000 -39.2966 -39.2965 -39.2964 -39.2962
   -39.2874 -39.2873 -39.2872 -39.2871 -13.2964 -13.2940 -13.2904 -13.2902
   -13.2775 -13.2740 -13.2721 -13.2715 -13.2597 -13.2594 -13.2540 -13.2503
   -13.2459 -13.2428 -13.2329 -13.2325 -13.2196 -13.2177 -13.2131 -13.2118
    -4.7907  -4.6358  -4.4632  -4.3261   0.6403   1.1979   1.3647   1.5896
     3.5038   3.9700   4.2190   4.4394   4.9189   5.3412   5.5157   6.0046
     6.2407   6.5429   7.0468   7.2291   9.0060  10.6142  10.7887  10.9327
    11.3750  11.5113  12.2138  12.4871  12.6226  12.7033  13.3073  13.8566
    13.9398  13.9530  15.2998  15.6745  16.5154  16.9044  17.0028  17.1737
    17.8972  18.1069  18.4592  18.6346  18.9035  18.9299  19.6299  19.8570
    20.3134  20.3522  20.8983  21.1416  21.3412  21.4143  21.4657  22.0410
    22.2785  22.7443  22.8391  22.8876

     occupation numbers 
     1.0000   1.0000   1.0000   1.0000   1.0000   1.0000   1.0000   1.0000
     1.0000   1.0000   1.0000   1.0000   1.0000   1.0000   1.0000   1.0000
     1.0000   1.0000   1.0000   1.0000   1.0000   1.0000   1.0000   1.0000
     1.0000   1.0000   1.0000   1.0000   1.0000   1.0000   1.0000   1.0000
     1.0000   1.0000   1.0000   1.0000   1.0000   1.0000   1.0000   1.0000
     1.0000   1.0000   1.0000   1.0000   1.0000   1.0000   1.0000   1.0000
     1.0000   1.0000   1.0000   1.0000   1.0000   1.0000   1.0000   1.0000
     1.0000   1.0000   1.0000   1.0000   0.0000   0.0000   0.0000   0.0000
     0.0000   0.0000   0.0000   0.0000   0.0000   0.0000   0.0000   0.0000
     0.0000   0.0000   0.0000   0.0000   0.0000   0.0000   0.0000   0.0000
     0.0000   0.0000   0.0000   0.0000   0.0000   0.0000   0.0000   0.0000
     0.0000   0.0000   0.0000   0.0000   0.0000   0.0000   0.0000   0.0000
     0.0000   0.0000   0.0000   0.0000

          k = 0.3333 0.2926 0.0590 (  9125 PWs)   bands (ev):

   -39.3306 -39.3306 -39.3305 -39.3304 -39.3291 -39.3290 -39.3290 -39.3289
   -39.3004 -39.3004 -39.3003 -39.3001 -39.2966 -39.2966 -39.2964 -39.2964
   -39.2874 -39.2874 -39.2873 -39.2872 -13.2962 -13.2939 -13.2909 -13.2901
   -13.2772 -13.2742 -13.2721 -13.2715 -13.2595 -13.2593 -13.2541 -13.2511
   -13.2451 -13.2426 -13.2331 -13.2327 -13.2193 -13.2177 -13.2131 -13.2119
    -4.7833  -4.6530  -4.4472  -4.3322   0.6687   1.1358   1.3975   1.5771
     3.5311   3.9200   4.2596   4.5333   4.8329   5.3083   5.5596   6.0034
     6.2099   6.6153   6.9004   7.2301   9.2324  10.6038  10.7556  10.9179
    11.2273  11.4875  12.1911  12.4265  12.4747  12.7787  13.3790  13.8662
    13.9855  14.1527  15.3893  15.7734  16.5242  16.8048  16.9946  17.1613
    17.7507  18.0838  18.1242  18.6439  19.0522  19.1166  19.6160  19.7158
    20.1177  20.4587  20.8372  21.0574  21.4348  21.5012  21.6348  22.0719
    22.2525  22.5754  22.8599  22.9095

     occupation numbers 
     1.0000   1.0000   1.0000   1.0000   1.0000   1.0000   1.0000   1.0000
     1.0000   1.0000   1.0000   1.0000   1.0000   1.0000   1.0000   1.0000
     1.0000   1.0000   1.0000   1.0000   1.0000   1.0000   1.0000   1.0000
     1.0000   1.0000   1.0000   1.0000   1.0000   1.0000   1.0000   1.0000
     1.0000   1.0000   1.0000   1.0000   1.0000   1.0000   1.0000   1.0000
     1.0000   1.0000   1.0000   1.0000   1.0000   1.0000   1.0000   1.0000
     1.0000   1.0000   1.0000   1.0000   1.0000   1.0000   1.0000   1.0000
     1.0000   1.0000   1.0000   1.0000   0.0000   0.0000   0.0000   0.0000
     0.0000   0.0000   0.0000   0.0000   0.0000   0.0000   0.0000   0.0000
     0.0000   0.0000   0.0000   0.0000   0.0000   0.0000   0.0000   0.0000
     0.0000   0.0000   0.0000   0.0000   0.0000   0.0000   0.0000   0.0000
     0.0000   0.0000   0.0000   0.0000   0.0000   0.0000   0.0000   0.0000
     0.0000   0.0000   0.0000   0.0000

          k = 0.3333 0.2926 0.1179 (  9129 PWs)   bands (ev):

   -39.3306 -39.3306 -39.3305 -39.3304 -39.3291 -39.3290 -39.3290 -39.3289
   -39.3005 -39.3004 -39.3003 -39.3001 -39.2967 -39.2966 -39.2965 -39.2963
   -39.2875 -39.2873 -39.2873 -39.2873 -13.2955 -13.2940 -13.2914 -13.2905
   -13.2765 -13.2747 -13.2720 -13.2716 -13.2592 -13.2590 -13.2542 -13.2526
   -13.2437 -13.2424 -13.2337 -13.2334 -13.2186 -13.2177 -13.2129 -13.2123
    -4.7622  -4.6902  -4.4133  -4.3502   0.7498   1.0095   1.4495   1.5441
     3.6084   3.8291   4.3330   4.6020   4.8314   5.2371   5.5860   6.0165
     6.1348   6.5574   6.8833   7.1982   9.7197  10.4960  10.7515  10.8861
    11.0204  11.2870  12.1878  12.3472  12.4184  12.5390  13.6096  13.8327
    14.2903  14.6496  15.3115  15.8443  16.4489  16.7928  16.9478  17.1056
    17.7043  17.8608  18.0036  18.4507  19.1782  19.3187  19.4342  19.6415
    19.8577  20.3281  20.8633  21.1793  21.4737  21.8199  21.8381  21.9249
    22.2130  22.3867  22.7640  22.8769

     occupation numbers 
     1.0000   1.0000   1.0000   1.0000   1.0000   1.0000   1.0000   1.0000
     1.0000   1.0000   1.0000   1.0000   1.0000   1.0000   1.0000   1.0000
     1.0000   1.0000   1.0000   1.0000   1.0000   1.0000   1.0000   1.0000
     1.0000   1.0000   1.0000   1.0000   1.0000   1.0000   1.0000   1.0000
     1.0000   1.0000   1.0000   1.0000   1.0000   1.0000   1.0000   1.0000
     1.0000   1.0000   1.0000   1.0000   1.0000   1.0000   1.0000   1.0000
     1.0000   1.0000   1.0000   1.0000   1.0000   1.0000   1.0000   1.0000
     1.0000   1.0000   1.0000   1.0000   0.0000   0.0000   0.0000   0.0000
     0.0000   0.0000   0.0000   0.0000   0.0000   0.0000   0.0000   0.0000
     0.0000   0.0000   0.0000   0.0000   0.0000   0.0000   0.0000   0.0000
     0.0000   0.0000   0.0000   0.0000   0.0000   0.0000   0.0000   0.0000
     0.0000   0.0000   0.0000   0.0000   0.0000   0.0000   0.0000   0.0000
     0.0000   0.0000   0.0000   0.0000

          k = 0.3333 0.2926-0.1769 (  9146 PWs)   bands (ev):

   -39.3307 -39.3307 -39.3306 -39.3306 -39.3291 -39.3291 -39.3290 -39.3290
   -39.3005 -39.3005 -39.3003 -39.3003 -39.2968 -39.2968 -39.2966 -39.2966
   -39.2874 -39.2874 -39.2873 -39.2873 -13.2947 -13.2947 -13.2911 -13.2911
   -13.2756 -13.2756 -13.2718 -13.2718 -13.2589 -13.2589 -13.2538 -13.2538
   -13.2427 -13.2427 -13.2338 -13.2338 -13.2180 -13.2180 -13.2127 -13.2127
    -4.7296  -4.7296  -4.3784  -4.3784   0.8706   0.8706   1.4993   1.4993
     3.7182   3.7182   4.4516   4.4516   5.0704   5.0704   5.7428   5.7428
     6.3350   6.3350   7.0769   7.0769  10.2025  10.2025  10.8044  10.8044
    11.0502  11.0502  12.2767  12.2767  12.3855  12.3855  13.7507  13.7507
    14.8106  14.8106  15.3354  15.3354  16.7206  16.7206  16.9836  16.9836
    17.7380  17.7380  18.1637  18.1637  19.2759  19.2759  19.4453  19.4453
    20.0391  20.0391  21.0274  21.0274  21.6243  21.6244  22.0887  22.0887
    22.3744  22.3744  22.5476  22.5478

     occupation numbers 
     1.0000   1.0000   1.0000   1.0000   1.0000   1.0000   1.0000   1.0000
     1.0000   1.0000   1.0000   1.0000   1.0000   1.0000   1.0000   1.0000
     1.0000   1.0000   1.0000   1.0000   1.0000   1.0000   1.0000   1.0000
     1.0000   1.0000   1.0000   1.0000   1.0000   1.0000   1.0000   1.0000
     1.0000   1.0000   1.0000   1.0000   1.0000   1.0000   1.0000   1.0000
     1.0000   1.0000   1.0000   1.0000   1.0000   1.0000   1.0000   1.0000
     1.0000   1.0000   1.0000   1.0000   1.0000   1.0000   1.0000   1.0000
     1.0000   1.0000   1.0000   1.0000   0.0000   0.0000   0.0000   0.0000
     0.0000   0.0000   0.0000   0.0000   0.0000   0.0000   0.0000   0.0000
     0.0000   0.0000   0.0000   0.0000   0.0000   0.0000   0.0000   0.0000
     0.0000   0.0000   0.0000   0.0000   0.0000   0.0000   0.0000   0.0000
     0.0000   0.0000   0.0000   0.0000   0.0000   0.0000   0.0000   0.0000
     0.0000   0.0000   0.0000   0.0000

          k = 0.3333-0.4389 0.0000 (  9120 PWs)   bands (ev):

   -39.3304 -39.3304 -39.3303 -39.3303 -39.3290 -39.3290 -39.3290 -39.3290
   -39.3004 -39.3004 -39.3002 -39.3002 -39.2965 -39.2965 -39.2964 -39.2964
   -39.2873 -39.2873 -39.2873 -39.2873 -13.2966 -13.2966 -13.2910 -13.2910
   -13.2760 -13.2760 -13.2718 -13.2718 -13.2592 -13.2592 -13.2515 -13.2515
   -13.2437 -13.2437 -13.2320 -13.2320 -13.2189 -13.2189 -13.2123 -13.2123
    -4.5871  -4.5871  -4.4507  -4.4507   0.8700   0.8700   1.5476   1.5476
     3.6361   3.6361   4.1859   4.1859   4.8651   4.8651   5.6135   5.6135
     6.1304   6.1304   7.0569   7.0569   9.8672   9.8672  11.4596  11.4596
    12.3172  12.3172  12.5293  12.5293  12.6970  12.6970  13.6422  13.6422
    13.9209  13.9209  15.1867  15.1867  17.3636  17.3636  17.9145  17.9145
    18.1934  18.1934  18.4477  18.4477  18.9503  18.9503  19.5311  19.5311
    20.2166  20.2166  20.5966  20.5966  21.1841  21.1841  21.4311  21.4311
    22.0762  22.0762  22.2972  22.2972

     occupation numbers 
     1.0000   1.0000   1.0000   1.0000   1.0000   1.0000   1.0000   1.0000
     1.0000   1.0000   1.0000   1.0000   1.0000   1.0000   1.0000   1.0000
     1.0000   1.0000   1.0000   1.0000   1.0000   1.0000   1.0000   1.0000
     1.0000   1.0000   1.0000   1.0000   1.0000   1.0000   1.0000   1.0000
     1.0000   1.0000   1.0000   1.0000   1.0000   1.0000   1.0000   1.0000
     1.0000   1.0000   1.0000   1.0000   1.0000   1.0000   1.0000   1.0000
     1.0000   1.0000   1.0000   1.0000   1.0000   1.0000   1.0000   1.0000
     1.0000   1.0000   1.0000   1.0000   0.0000   0.0000   0.0000   0.0000
     0.0000   0.0000   0.0000   0.0000   0.0000   0.0000   0.0000   0.0000
     0.0000   0.0000   0.0000   0.0000   0.0000   0.0000   0.0000   0.0000
     0.0000   0.0000   0.0000   0.0000   0.0000   0.0000   0.0000   0.0000
     0.0000   0.0000   0.0000   0.0000   0.0000   0.0000   0.0000   0.0000
     0.0000   0.0000   0.0000   0.0000

          k = 0.3333-0.4389 0.0590 (  9104 PWs)   bands (ev):

   -39.3304 -39.3304 -39.3303 -39.3303 -39.3289 -39.3289 -39.3289 -39.3289
   -39.3003 -39.3003 -39.3001 -39.3001 -39.2964 -39.2964 -39.2963 -39.2963
   -39.2873 -39.2873 -39.2871 -39.2871 -13.2964 -13.2964 -13.2913 -13.2913
   -13.2759 -13.2759 -13.2718 -13.2718 -13.2591 -13.2591 -13.2519 -13.2519
   -13.2432 -13.2432 -13.2323 -13.2323 -13.2187 -13.2187 -13.2123 -13.2123
    -4.5868  -4.5868  -4.4511  -4.4511   0.8769   0.8769   1.5363   1.5363
     3.6624   3.6624   4.1416   4.1416   4.8930   4.8930   5.6159   5.6159
     6.1429   6.1429   7.0224   7.0224   9.9539   9.9539  11.4189  11.4189
    12.1088  12.1088  12.3207  12.3207  13.0038  13.0038  13.6438  13.6438
    14.0468  14.0468  15.3163  15.3163  17.1690  17.1690  17.8777  17.8777
    18.1347  18.1347  18.5096  18.5096  18.9570  18.9570  19.4121  19.4121
    20.3267  20.3267  20.5185  20.5186  21.0555  21.0555  21.4808  21.4808
    21.9434  21.9435  22.3373  22.3373

     occupation numbers 
     1.0000   1.0000   1.0000   1.0000   1.0000   1.0000   1.0000   1.0000
     1.0000   1.0000   1.0000   1.0000   1.0000   1.0000   1.0000   1.0000
     1.0000   1.0000   1.0000   1.0000   1.0000   1.0000   1.0000   1.0000
     1.0000   1.0000   1.0000   1.0000   1.0000   1.0000   1.0000   1.0000
     1.0000   1.0000   1.0000   1.0000   1.0000   1.0000   1.0000   1.0000
     1.0000   1.0000   1.0000   1.0000   1.0000   1.0000   1.0000   1.0000
     1.0000   1.0000   1.0000   1.0000   1.0000   1.0000   1.0000   1.0000
     1.0000   1.0000   1.0000   1.0000   0.0000   0.0000   0.0000   0.0000
     0.0000   0.0000   0.0000   0.0000   0.0000   0.0000   0.0000   0.0000
     0.0000   0.0000   0.0000   0.0000   0.0000   0.0000   0.0000   0.0000
     0.0000   0.0000   0.0000   0.0000   0.0000   0.0000   0.0000   0.0000
     0.0000   0.0000   0.0000   0.0000   0.0000   0.0000   0.0000   0.0000
     0.0000   0.0000   0.0000   0.0000

          k = 0.3333-0.4389 0.1179 (  9130 PWs)   bands (ev):

   -39.3305 -39.3305 -39.3303 -39.3303 -39.3291 -39.3291 -39.3290 -39.3290
   -39.3005 -39.3005 -39.3002 -39.3002 -39.2966 -39.2966 -39.2964 -39.2964
   -39.2874 -39.2874 -39.2872 -39.2872 -13.2959 -13.2959 -13.2919 -13.2919
   -13.2756 -13.2756 -13.2719 -13.2719 -13.2588 -13.2588 -13.2527 -13.2527
   -13.2423 -13.2423 -13.2331 -13.2331 -13.2183 -13.2183 -13.2125 -13.2125
    -4.5862  -4.5862  -4.4518  -4.4518   0.8912   0.8912   1.5131   1.5131
     3.7411   3.7411   4.0190   4.0190   5.0182   5.0182   5.4836   5.4836
     6.2968   6.2968   6.8965   6.8965  10.1897  10.1897  11.2291  11.2291
    11.9106  11.9106  12.0815  12.0815  13.2592  13.2592  13.6445  13.6445
    14.4497  14.4497  15.4093  15.4093  16.8920  16.8920  17.8114  17.8114
    17.9628  17.9628  18.6307  18.6307  19.0016  19.0016  19.2651  19.2651
    20.1255  20.1255  20.4653  20.4653  20.9950  20.9950  21.3867  21.3867
    22.0050  22.0051  22.7778  22.7778

     occupation numbers 
     1.0000   1.0000   1.0000   1.0000   1.0000   1.0000   1.0000   1.0000
     1.0000   1.0000   1.0000   1.0000   1.0000   1.0000   1.0000   1.0000
     1.0000   1.0000   1.0000   1.0000   1.0000   1.0000   1.0000   1.0000
     1.0000   1.0000   1.0000   1.0000   1.0000   1.0000   1.0000   1.0000
     1.0000   1.0000   1.0000   1.0000   1.0000   1.0000   1.0000   1.0000
     1.0000   1.0000   1.0000   1.0000   1.0000   1.0000   1.0000   1.0000
     1.0000   1.0000   1.0000   1.0000   1.0000   1.0000   1.0000   1.0000
     1.0000   1.0000   1.0000   1.0000   0.0000   0.0000   0.0000   0.0000
     0.0000   0.0000   0.0000   0.0000   0.0000   0.0000   0.0000   0.0000
     0.0000   0.0000   0.0000   0.0000   0.0000   0.0000   0.0000   0.0000
     0.0000   0.0000   0.0000   0.0000   0.0000   0.0000   0.0000   0.0000
     0.0000   0.0000   0.0000   0.0000   0.0000   0.0000   0.0000   0.0000
     0.0000   0.0000   0.0000   0.0000

          k = 0.3333-0.4389-0.1769 (  9144 PWs)   bands (ev):

   -39.3306 -39.3306 -39.3303 -39.3303 -39.3290 -39.3290 -39.3290 -39.3290
   -39.3006 -39.3006 -39.3003 -39.3003 -39.2967 -39.2967 -39.2964 -39.2964
   -39.2874 -39.2874 -39.2872 -39.2872 -13.2956 -13.2956 -13.2923 -13.2923
   -13.2755 -13.2755 -13.2720 -13.2720 -13.2587 -13.2587 -13.2531 -13.2531
   -13.2419 -13.2419 -13.2335 -13.2335 -13.2181 -13.2181 -13.2126 -13.2126
    -4.5858  -4.5858  -4.4522  -4.4522   0.8987   0.8987   1.5012   1.5012
     3.8501   3.8501   3.8863   3.8863   5.2081   5.2081   5.2737   5.2737
     6.4641   6.4641   6.7598   6.7598  10.3849  10.3849  11.0265  11.0265
    11.9131  11.9131  11.9396  11.9396  13.3324  13.3324  13.6436  13.6436
    15.0057  15.0057  15.0404  15.0404  16.8919  16.8919  17.7098  17.7098
    17.8861  17.8861  18.7194  18.7194  19.0591  19.0591  19.1416  19.1416
    20.0209  20.0209  20.3607  20.3607  21.0723  21.0723  21.2705  21.2705
    22.1462  22.1462  23.1595  23.1595

     occupation numbers 
     1.0000   1.0000   1.0000   1.0000   1.0000   1.0000   1.0000   1.0000
     1.0000   1.0000   1.0000   1.0000   1.0000   1.0000   1.0000   1.0000
     1.0000   1.0000   1.0000   1.0000   1.0000   1.0000   1.0000   1.0000
     1.0000   1.0000   1.0000   1.0000   1.0000   1.0000   1.0000   1.0000
     1.0000   1.0000   1.0000   1.0000   1.0000   1.0000   1.0000   1.0000
     1.0000   1.0000   1.0000   1.0000   1.0000   1.0000   1.0000   1.0000
     1.0000   1.0000   1.0000   1.0000   1.0000   1.0000   1.0000   1.0000
     1.0000   1.0000   1.0000   1.0000   0.0000   0.0000   0.0000   0.0000
     0.0000   0.0000   0.0000   0.0000   0.0000   0.0000   0.0000   0.0000
     0.0000   0.0000   0.0000   0.0000   0.0000   0.0000   0.0000   0.0000
     0.0000   0.0000   0.0000   0.0000   0.0000   0.0000   0.0000   0.0000
     0.0000   0.0000   0.0000   0.0000   0.0000   0.0000   0.0000   0.0000
     0.0000   0.0000   0.0000   0.0000

          k =-0.5000 0.0000 0.0000 (  9110 PWs)   bands (ev):

   -39.3307 -39.3307 -39.3306 -39.3306 -39.3290 -39.3290 -39.3289 -39.3289
   -39.3001 -39.3001 -39.3001 -39.3001 -39.2966 -39.2966 -39.2965 -39.2965
   -39.2875 -39.2875 -39.2874 -39.2874 -13.2932 -13.2932 -13.2909 -13.2909
   -13.2717 -13.2717 -13.2680 -13.2680 -13.2609 -13.2609 -13.2557 -13.2557
   -13.2428 -13.2428 -13.2390 -13.2390 -13.2142 -13.2142 -13.2131 -13.2131
    -4.5746  -4.5746  -4.5326  -4.5326   0.5812   0.5812   1.0842   1.0842
     4.6732   4.6732   5.4879   5.4879   5.7054   5.7054   6.2019   6.2019
     6.8619   6.8619   7.0021   7.0021   9.1919   9.1919   9.2286   9.2286
    10.0325  10.0325  10.7083  10.7083  11.4322  11.4322  12.6144  12.6144
    15.2275  15.2275  15.2765  15.2765  16.9245  16.9245  17.4371  17.4371
    18.2464  18.2464  18.6504  18.6504  19.1587  19.1587  19.8448  19.8448
    19.8799  19.8799  20.3877  20.3877  21.6975  21.6975  22.3681  22.3681
    23.5558  23.5559  24.0800  24.0801

     occupation numbers 
     1.0000   1.0000   1.0000   1.0000   1.0000   1.0000   1.0000   1.0000
     1.0000   1.0000   1.0000   1.0000   1.0000   1.0000   1.0000   1.0000
     1.0000   1.0000   1.0000   1.0000   1.0000   1.0000   1.0000   1.0000
     1.0000   1.0000   1.0000   1.0000   1.0000   1.0000   1.0000   1.0000
     1.0000   1.0000   1.0000   1.0000   1.0000   1.0000   1.0000   1.0000
     1.0000   1.0000   1.0000   1.0000   1.0000   1.0000   1.0000   1.0000
     1.0000   1.0000   1.0000   1.0000   1.0000   1.0000   1.0000   1.0000
     1.0000   1.0000   1.0000   1.0000   0.0000   0.0000   0.0000   0.0000
     0.0000   0.0000   0.0000   0.0000   0.0000   0.0000   0.0000   0.0000
     0.0000   0.0000   0.0000   0.0000   0.0000   0.0000   0.0000   0.0000
     0.0000   0.0000   0.0000   0.0000   0.0000   0.0000   0.0000   0.0000
     0.0000   0.0000   0.0000   0.0000   0.0000   0.0000   0.0000   0.0000
     0.0000   0.0000   0.0000   0.0000

          k =-0.5000 0.0000 0.0590 (  9118 PWs)   bands (ev):

   -39.3307 -39.3307 -39.3306 -39.3306 -39.3290 -39.3290 -39.3289 -39.3289
   -39.3001 -39.3001 -39.3001 -39.3001 -39.2967 -39.2967 -39.2966 -39.2966
   -39.2874 -39.2874 -39.2874 -39.2874 -13.2931 -13.2931 -13.2911 -13.2911
   -13.2715 -13.2715 -13.2683 -13.2683 -13.2605 -13.2605 -13.2560 -13.2560
   -13.2426 -13.2426 -13.2393 -13.2393 -13.2141 -13.2141 -13.2132 -13.2132
    -4.5719  -4.5719  -4.5355  -4.5355   0.6100   0.6100   1.0439   1.0439
     4.7501   4.7501   5.4608   5.4608   5.7232   5.7232   6.1708   6.1708
     6.8412   6.8412   6.9167   6.9167   9.2745   9.2745   9.2822   9.2822
    10.0943  10.0943  10.6582  10.6582  11.4119  11.4119  12.4783  12.4783
    15.2856  15.2856  15.4393  15.4393  17.0744  17.0744  17.1910  17.1910
    18.1157  18.1157  18.4155  18.4155  19.5033  19.5033  19.5498  19.5498
    20.0219  20.0219  20.6285  20.6285  22.0023  22.0023  22.0669  22.0669
    23.2848  23.2849  24.2886  24.2886

     occupation numbers 
     1.0000   1.0000   1.0000   1.0000   1.0000   1.0000   1.0000   1.0000
     1.0000   1.0000   1.0000   1.0000   1.0000   1.0000   1.0000   1.0000
     1.0000   1.0000   1.0000   1.0000   1.0000   1.0000   1.0000   1.0000
     1.0000   1.0000   1.0000   1.0000   1.0000   1.0000   1.0000   1.0000
     1.0000   1.0000   1.0000   1.0000   1.0000   1.0000   1.0000   1.0000
     1.0000   1.0000   1.0000   1.0000   1.0000   1.0000   1.0000   1.0000
     1.0000   1.0000   1.0000   1.0000   1.0000   1.0000   1.0000   1.0000
     1.0000   1.0000   1.0000   1.0000   0.0000   0.0000   0.0000   0.0000
     0.0000   0.0000   0.0000   0.0000   0.0000   0.0000   0.0000   0.0000
     0.0000   0.0000   0.0000   0.0000   0.0000   0.0000   0.0000   0.0000
     0.0000   0.0000   0.0000   0.0000   0.0000   0.0000   0.0000   0.0000
     0.0000   0.0000   0.0000   0.0000   0.0000   0.0000   0.0000   0.0000
     0.0000   0.0000   0.0000   0.0000

          k =-0.5000 0.0000 0.1179 (  9084 PWs)   bands (ev):

   -39.3305 -39.3305 -39.3305 -39.3305 -39.3289 -39.3289 -39.3288 -39.3288
   -39.2999 -39.2999 -39.2999 -39.2999 -39.2965 -39.2965 -39.2965 -39.2965
   -39.2873 -39.2873 -39.2871 -39.2871 -13.2927 -13.2927 -13.2915 -13.2915
   -13.2709 -13.2709 -13.2691 -13.2691 -13.2594 -13.2594 -13.2569 -13.2569
   -13.2418 -13.2418 -13.2399 -13.2399 -13.2139 -13.2139 -13.2134 -13.2134
    -4.5643  -4.5643  -4.5433  -4.5433   0.6914   0.6914   0.9400   0.9400
     4.9502   4.9502   5.3687   5.3687   5.7822   5.7822   6.0576   6.0576
     6.7898   6.7898   6.7938   6.7938   9.3814   9.3814   9.4266   9.4266
    10.2449  10.2449  10.5363  10.5363  11.4522  11.4522  12.1237  12.1237
    15.5121  15.5121  15.8321  15.8321  16.7172  16.7172  17.2110  17.2110
    17.8108  17.8108  18.1801  18.1801  19.4332  19.4332  19.7660  19.7660
    20.6255  20.6255  20.7040  20.7040  21.4054  21.4055  22.5335  22.5335
    23.0339  23.0339  24.5005  24.5007

     occupation numbers 
     1.0000   1.0000   1.0000   1.0000   1.0000   1.0000   1.0000   1.0000
     1.0000   1.0000   1.0000   1.0000   1.0000   1.0000   1.0000   1.0000
     1.0000   1.0000   1.0000   1.0000   1.0000   1.0000   1.0000   1.0000
     1.0000   1.0000   1.0000   1.0000   1.0000   1.0000   1.0000   1.0000
     1.0000   1.0000   1.0000   1.0000   1.0000   1.0000   1.0000   1.0000
     1.0000   1.0000   1.0000   1.0000   1.0000   1.0000   1.0000   1.0000
     1.0000   1.0000   1.0000   1.0000   1.0000   1.0000   1.0000   1.0000
     1.0000   1.0000   1.0000   1.0000   0.0000   0.0000   0.0000   0.0000
     0.0000   0.0000   0.0000   0.0000   0.0000   0.0000   0.0000   0.0000
     0.0000   0.0000   0.0000   0.0000   0.0000   0.0000   0.0000   0.0000
     0.0000   0.0000   0.0000   0.0000   0.0000   0.0000   0.0000   0.0000
     0.0000   0.0000   0.0000   0.0000   0.0000   0.0000   0.0000   0.0000
     0.0000   0.0000   0.0000   0.0000

          k =-0.5000 0.0000-0.1769 (  9096 PWs)   bands (ev):

   -39.3305 -39.3305 -39.3305 -39.3305 -39.3289 -39.3289 -39.3289 -39.3289
   -39.3000 -39.3000 -39.3000 -39.3000 -39.2965 -39.2965 -39.2965 -39.2965
   -39.2873 -39.2873 -39.2873 -39.2873 -13.2921 -13.2921 -13.2921 -13.2921
   -13.2701 -13.2701 -13.2701 -13.2701 -13.2581 -13.2581 -13.2581 -13.2581
   -13.2409 -13.2409 -13.2409 -13.2409 -13.2137 -13.2137 -13.2137 -13.2137
    -4.5539  -4.5539  -4.5539  -4.5539   0.8102   0.8102   0.8102   0.8102
     5.1890   5.1890   5.1890   5.1890   5.8975   5.8975   5.8975   5.8975
     6.7579   6.7579   6.7579   6.7579   9.4633   9.4633   9.4633   9.4633
    10.3957  10.3957  10.3957  10.3957  11.7121  11.7121  11.7121  11.7121
    15.8720  15.8720  15.8720  15.8720  16.7563  16.7563  16.7563  16.7563
    17.9507  17.9507  17.9507  17.9507  19.6693  19.6693  19.6693  19.6693
    20.7700  20.7700  20.7700  20.7700  21.7105  21.7105  21.7105  21.7105
    24.0137  24.0138  24.0138  24.0138

     occupation numbers 
     1.0000   1.0000   1.0000   1.0000   1.0000   1.0000   1.0000   1.0000
     1.0000   1.0000   1.0000   1.0000   1.0000   1.0000   1.0000   1.0000
     1.0000   1.0000   1.0000   1.0000   1.0000   1.0000   1.0000   1.0000
     1.0000   1.0000   1.0000   1.0000   1.0000   1.0000   1.0000   1.0000
     1.0000   1.0000   1.0000   1.0000   1.0000   1.0000   1.0000   1.0000
     1.0000   1.0000   1.0000   1.0000   1.0000   1.0000   1.0000   1.0000
     1.0000   1.0000   1.0000   1.0000   1.0000   1.0000   1.0000   1.0000
     1.0000   1.0000   1.0000   1.0000   0.0000   0.0000   0.0000   0.0000
     0.0000   0.0000   0.0000   0.0000   0.0000   0.0000   0.0000   0.0000
     0.0000   0.0000   0.0000   0.0000   0.0000   0.0000   0.0000   0.0000
     0.0000   0.0000   0.0000   0.0000   0.0000   0.0000   0.0000   0.0000
     0.0000   0.0000   0.0000   0.0000   0.0000   0.0000   0.0000   0.0000
     0.0000   0.0000   0.0000   0.0000

          k =-0.5000 0.1463 0.0000 (  9118 PWs)   bands (ev):

   -39.3305 -39.3305 -39.3305 -39.3305 -39.3290 -39.3290 -39.3290 -39.3290
   -39.3004 -39.3004 -39.3002 -39.3002 -39.2966 -39.2966 -39.2965 -39.2965
   -39.2874 -39.2874 -39.2873 -39.2873 -13.2950 -13.2950 -13.2919 -13.2919
   -13.2721 -13.2721 -13.2679 -13.2679 -13.2604 -13.2604 -13.2549 -13.2549
   -13.2431 -13.2431 -13.2376 -13.2376 -13.2150 -13.2150 -13.2125 -13.2125
    -4.5366  -4.5366  -4.4997  -4.4997   0.6985   0.6985   1.1440   1.1440
     4.4373   4.4373   4.8470   4.8470   5.3035   5.3035   6.0398   6.0398
     6.4102   6.4102   7.2677   7.2677   8.9109   8.9109  10.0558  10.0558
    10.9304  10.9304  11.5620  11.5620  12.0360  12.0360  12.3803  12.3803
    14.1946  14.1946  15.8801  15.8801  16.9580  16.9580  17.5890  17.5890
    18.0505  18.0505  19.2286  19.2286  19.4287  19.4287  19.9406  19.9406
    20.1765  20.1765  20.9569  20.9569  21.6825  21.6825  21.9889  21.9889
    22.3435  22.3435  23.0404  23.0405

     occupation numbers 
     1.0000   1.0000   1.0000   1.0000   1.0000   1.0000   1.0000   1.0000
     1.0000   1.0000   1.0000   1.0000   1.0000   1.0000   1.0000   1.0000
     1.0000   1.0000   1.0000   1.0000   1.0000   1.0000   1.0000   1.0000
     1.0000   1.0000   1.0000   1.0000   1.0000   1.0000   1.0000   1.0000
     1.0000   1.0000   1.0000   1.0000   1.0000   1.0000   1.0000   1.0000
     1.0000   1.0000   1.0000   1.0000   1.0000   1.0000   1.0000   1.0000
     1.0000   1.0000   1.0000   1.0000   1.0000   1.0000   1.0000   1.0000
     1.0000   1.0000   1.0000   1.0000   0.0000   0.0000   0.0000   0.0000
     0.0000   0.0000   0.0000   0.0000   0.0000   0.0000   0.0000   0.0000
     0.0000   0.0000   0.0000   0.0000   0.0000   0.0000   0.0000   0.0000
     0.0000   0.0000   0.0000   0.0000   0.0000   0.0000   0.0000   0.0000
     0.0000   0.0000   0.0000   0.0000   0.0000   0.0000   0.0000   0.0000
     0.0000   0.0000   0.0000   0.0000

          k =-0.5000 0.1463 0.0590 (  9082 PWs)   bands (ev):

   -39.3304 -39.3304 -39.3303 -39.3303 -39.3289 -39.3289 -39.3288 -39.3288
   -39.3002 -39.3002 -39.3001 -39.3001 -39.2964 -39.2964 -39.2963 -39.2963
   -39.2872 -39.2872 -39.2871 -39.2871 -13.2948 -13.2948 -13.2922 -13.2922
   -13.2718 -13.2718 -13.2682 -13.2682 -13.2600 -13.2600 -13.2553 -13.2553
   -13.2427 -13.2427 -13.2379 -13.2379 -13.2148 -13.2148 -13.2126 -13.2126
    -4.5342  -4.5342  -4.5023  -4.5023   0.7244   0.7244   1.1090   1.1090
     4.4749   4.4749   4.8450   4.8450   5.3132   5.3132   6.0319   6.0319
     6.4116   6.4116   7.1440   7.1440   9.0866   9.0866  10.0342  10.0342
    10.9578  10.9578  11.4939  11.4939  12.0025  12.0025  12.2931  12.2931
    14.3144  14.3144  15.9935  15.9935  16.9201  16.9201  17.5603  17.5603
    17.9957  17.9957  19.0286  19.0286  19.5837  19.5837  19.8103  19.8103
    20.3461  20.3461  20.8517  20.8517  21.3934  21.3934  22.1860  22.1860
    22.5473  22.5474  23.1644  23.1644

     occupation numbers 
     1.0000   1.0000   1.0000   1.0000   1.0000   1.0000   1.0000   1.0000
     1.0000   1.0000   1.0000   1.0000   1.0000   1.0000   1.0000   1.0000
     1.0000   1.0000   1.0000   1.0000   1.0000   1.0000   1.0000   1.0000
     1.0000   1.0000   1.0000   1.0000   1.0000   1.0000   1.0000   1.0000
     1.0000   1.0000   1.0000   1.0000   1.0000   1.0000   1.0000   1.0000
     1.0000   1.0000   1.0000   1.0000   1.0000   1.0000   1.0000   1.0000
     1.0000   1.0000   1.0000   1.0000   1.0000   1.0000   1.0000   1.0000
     1.0000   1.0000   1.0000   1.0000   0.0000   0.0000   0.0000   0.0000
     0.0000   0.0000   0.0000   0.0000   0.0000   0.0000   0.0000   0.0000
     0.0000   0.0000   0.0000   0.0000   0.0000   0.0000   0.0000   0.0000
     0.0000   0.0000   0.0000   0.0000   0.0000   0.0000   0.0000   0.0000
     0.0000   0.0000   0.0000   0.0000   0.0000   0.0000   0.0000   0.0000
     0.0000   0.0000   0.0000   0.0000

          k =-0.5000 0.1463 0.1179 (  9118 PWs)   bands (ev):

   -39.3306 -39.3306 -39.3304 -39.3304 -39.3290 -39.3290 -39.3290 -39.3290
   -39.3002 -39.3002 -39.3002 -39.3002 -39.2965 -39.2965 -39.2964 -39.2964
   -39.2874 -39.2874 -39.2873 -39.2873 -13.2943 -13.2943 -13.2928 -13.2928
   -13.2712 -13.2712 -13.2691 -13.2691 -13.2589 -13.2589 -13.2563 -13.2563
   -13.2416 -13.2416 -13.2388 -13.2388 -13.2143 -13.2143 -13.2131 -13.2131
    -4.5275  -4.5275  -4.5091  -4.5091   0.7974   0.7974   1.0181   1.0181
     4.5699   4.5699   4.7960   4.7960   5.4169   5.4169   5.8976   5.8976
     6.5010   6.5010   6.9081   6.9081   9.4463   9.4463   9.9535   9.9535
    11.0390  11.0390  11.3752  11.3752  11.9109  11.9109  12.0781  12.0781
    14.7136  14.7136  15.8809  15.8809  16.9809  16.9809  17.6432  17.6432
    17.9312  17.9312  18.7905  18.7905  19.3987  19.3987  19.8018  19.8018
    20.4600  20.4600  20.7239  20.7239  21.3003  21.3003  22.1438  22.1438
    23.1455  23.1455  23.5410  23.5410

     occupation numbers 
     1.0000   1.0000   1.0000   1.0000   1.0000   1.0000   1.0000   1.0000
     1.0000   1.0000   1.0000   1.0000   1.0000   1.0000   1.0000   1.0000
     1.0000   1.0000   1.0000   1.0000   1.0000   1.0000   1.0000   1.0000
     1.0000   1.0000   1.0000   1.0000   1.0000   1.0000   1.0000   1.0000
     1.0000   1.0000   1.0000   1.0000   1.0000   1.0000   1.0000   1.0000
     1.0000   1.0000   1.0000   1.0000   1.0000   1.0000   1.0000   1.0000
     1.0000   1.0000   1.0000   1.0000   1.0000   1.0000   1.0000   1.0000
     1.0000   1.0000   1.0000   1.0000   0.0000   0.0000   0.0000   0.0000
     0.0000   0.0000   0.0000   0.0000   0.0000   0.0000   0.0000   0.0000
     0.0000   0.0000   0.0000   0.0000   0.0000   0.0000   0.0000   0.0000
     0.0000   0.0000   0.0000   0.0000   0.0000   0.0000   0.0000   0.0000
     0.0000   0.0000   0.0000   0.0000   0.0000   0.0000   0.0000   0.0000
     0.0000   0.0000   0.0000   0.0000

          k =-0.5000 0.1463-0.1769 (  9136 PWs)   bands (ev):

   -39.3306 -39.3306 -39.3306 -39.3306 -39.3290 -39.3290 -39.3290 -39.3290
   -39.3002 -39.3002 -39.3002 -39.3002 -39.2967 -39.2967 -39.2967 -39.2967
   -39.2874 -39.2874 -39.2874 -39.2874 -13.2936 -13.2936 -13.2936 -13.2936
   -13.2702 -13.2702 -13.2702 -13.2702 -13.2576 -13.2576 -13.2576 -13.2576
   -13.2402 -13.2402 -13.2402 -13.2402 -13.2137 -13.2137 -13.2137 -13.2137
    -4.5184  -4.5184  -4.5184  -4.5184   0.9033   0.9033   0.9033   0.9033
     4.6890   4.6890   4.6890   4.6890   5.6451   5.6451   5.6451   5.6451
     6.6842   6.6842   6.6842   6.6842   9.7657   9.7657   9.7657   9.7657
    11.2018  11.2018  11.2018  11.2018  11.9114  11.9114  11.9114  11.9114
    15.3094  15.3094  15.3094  15.3094  17.3561  17.3561  17.3561  17.3561
    18.3180  18.3180  18.3180  18.3180  19.5811  19.5811  19.5811  19.5811
    20.4803  20.4803  20.4803  20.4803  21.8166  21.8166  21.8166  21.8166
    23.5535  23.5536  23.5537  23.5537

     occupation numbers 
     1.0000   1.0000   1.0000   1.0000   1.0000   1.0000   1.0000   1.0000
     1.0000   1.0000   1.0000   1.0000   1.0000   1.0000   1.0000   1.0000
     1.0000   1.0000   1.0000   1.0000   1.0000   1.0000   1.0000   1.0000
     1.0000   1.0000   1.0000   1.0000   1.0000   1.0000   1.0000   1.0000
     1.0000   1.0000   1.0000   1.0000   1.0000   1.0000   1.0000   1.0000
     1.0000   1.0000   1.0000   1.0000   1.0000   1.0000   1.0000   1.0000
     1.0000   1.0000   1.0000   1.0000   1.0000   1.0000   1.0000   1.0000
     1.0000   1.0000   1.0000   1.0000   0.0000   0.0000   0.0000   0.0000
     0.0000   0.0000   0.0000   0.0000   0.0000   0.0000   0.0000   0.0000
     0.0000   0.0000   0.0000   0.0000   0.0000   0.0000   0.0000   0.0000
     0.0000   0.0000   0.0000   0.0000   0.0000   0.0000   0.0000   0.0000
     0.0000   0.0000   0.0000   0.0000   0.0000   0.0000   0.0000   0.0000
     0.0000   0.0000   0.0000   0.0000

          k =-0.5000 0.2926 0.0000 (  9134 PWs)   bands (ev):

   -39.3306 -39.3306 -39.3305 -39.3305 -39.3290 -39.3290 -39.3288 -39.3288
   -39.3005 -39.3005 -39.3002 -39.3002 -39.2967 -39.2967 -39.2965 -39.2965
   -39.2874 -39.2874 -39.2871 -39.2871 -13.2985 -13.2985 -13.2942 -13.2942
   -13.2727 -13.2727 -13.2677 -13.2677 -13.2594 -13.2594 -13.2538 -13.2538
   -13.2428 -13.2428 -13.2351 -13.2351 -13.2159 -13.2159 -13.2118 -13.2118
    -4.4560  -4.4560  -4.4337  -4.4337   0.9855   0.9855   1.2588   1.2588
     3.7416   3.7416   4.3199   4.3199   4.7432   4.7432   5.4759   5.4759
     5.9272   5.9272   6.9890   6.9890   9.8007   9.8007  11.2309  11.2309
    11.9169  11.9169  12.2535  12.2535  12.6170  12.6170  13.6814  13.6814
    13.8995  13.8995  15.1205  15.1205  17.1039  17.1039  18.2250  18.2250
    18.8677  18.8677  19.1533  19.1533  19.4547  19.4547  19.9450  19.9450
    20.5292  20.5292  20.6442  20.6442  21.0126  21.0126  21.4396  21.4396
    22.4679  22.4679  22.7921  22.7922

     occupation numbers 
     1.0000   1.0000   1.0000   1.0000   1.0000   1.0000   1.0000   1.0000
     1.0000   1.0000   1.0000   1.0000   1.0000   1.0000   1.0000   1.0000
     1.0000   1.0000   1.0000   1.0000   1.0000   1.0000   1.0000   1.0000
     1.0000   1.0000   1.0000   1.0000   1.0000   1.0000   1.0000   1.0000
     1.0000   1.0000   1.0000   1.0000   1.0000   1.0000   1.0000   1.0000
     1.0000   1.0000   1.0000   1.0000   1.0000   1.0000   1.0000   1.0000
     1.0000   1.0000   1.0000   1.0000   1.0000   1.0000   1.0000   1.0000
     1.0000   1.0000   1.0000   1.0000   0.0000   0.0000   0.0000   0.0000
     0.0000   0.0000   0.0000   0.0000   0.0000   0.0000   0.0000   0.0000
     0.0000   0.0000   0.0000   0.0000   0.0000   0.0000   0.0000   0.0000
     0.0000   0.0000   0.0000   0.0000   0.0000   0.0000   0.0000   0.0000
     0.0000   0.0000   0.0000   0.0000   0.0000   0.0000   0.0000   0.0000
     0.0000   0.0000   0.0000   0.0000

          k =-0.5000 0.2926 0.0590 (  9134 PWs)   bands (ev):

   -39.3306 -39.3306 -39.3305 -39.3305 -39.3290 -39.3290 -39.3289 -39.3289
   -39.3004 -39.3004 -39.3002 -39.3002 -39.2966 -39.2966 -39.2965 -39.2965
   -39.2874 -39.2874 -39.2873 -39.2873 -13.2982 -13.2982 -13.2945 -13.2945
   -13.2725 -13.2725 -13.2682 -13.2682 -13.2590 -13.2590 -13.2542 -13.2542
   -13.2421 -13.2421 -13.2356 -13.2356 -13.2156 -13.2156 -13.2121 -13.2121
    -4.4546  -4.4546  -4.4352  -4.4352   1.0018   1.0018   1.2380   1.2380
     3.7767   3.7767   4.3180   4.3180   4.6996   4.6996   5.4098   5.4098
     6.0357   6.0357   6.9631   6.9631   9.8815   9.8815  11.1693  11.1693
    11.7415  11.7415  12.0990  12.0990  12.8519  12.8519  13.6498  13.6498
    14.0503  14.0503  15.2863  15.2863  16.9391  16.9391  18.0542  18.0542
    18.9021  18.9021  19.1290  19.1290  19.6409  19.6409  19.7181  19.7181
    20.5301  20.5301  20.6363  20.6363  20.8440  20.8440  21.5982  21.5982
    22.5635  22.5636  22.7634  22.7635

     occupation numbers 
     1.0000   1.0000   1.0000   1.0000   1.0000   1.0000   1.0000   1.0000
     1.0000   1.0000   1.0000   1.0000   1.0000   1.0000   1.0000   1.0000
     1.0000   1.0000   1.0000   1.0000   1.0000   1.0000   1.0000   1.0000
     1.0000   1.0000   1.0000   1.0000   1.0000   1.0000   1.0000   1.0000
     1.0000   1.0000   1.0000   1.0000   1.0000   1.0000   1.0000   1.0000
     1.0000   1.0000   1.0000   1.0000   1.0000   1.0000   1.0000   1.0000
     1.0000   1.0000   1.0000   1.0000   1.0000   1.0000   1.0000   1.0000
     1.0000   1.0000   1.0000   1.0000   0.0000   0.0000   0.0000   0.0000
     0.0000   0.0000   0.0000   0.0000   0.0000   0.0000   0.0000   0.0000
     0.0000   0.0000   0.0000   0.0000   0.0000   0.0000   0.0000   0.0000
     0.0000   0.0000   0.0000   0.0000   0.0000   0.0000   0.0000   0.0000
     0.0000   0.0000   0.0000   0.0000   0.0000   0.0000   0.0000   0.0000
     0.0000   0.0000   0.0000   0.0000

          k =-0.5000 0.2926 0.1179 (  9130 PWs)   bands (ev):

   -39.3305 -39.3305 -39.3304 -39.3304 -39.3290 -39.3290 -39.3289 -39.3289
   -39.3005 -39.3005 -39.3003 -39.3003 -39.2965 -39.2965 -39.2964 -39.2964
   -39.2874 -39.2874 -39.2872 -39.2872 -13.2974 -13.2974 -13.2953 -13.2953
   -13.2717 -13.2717 -13.2692 -13.2692 -13.2580 -13.2580 -13.2554 -13.2554
   -13.2406 -13.2406 -13.2369 -13.2369 -13.2148 -13.2148 -13.2127 -13.2127
    -4.4505  -4.4505  -4.4393  -4.4393   1.0475   1.0475   1.1834   1.1834
     3.8793   3.8793   4.2178   4.2178   4.7505   4.7505   5.2071   5.2071
     6.3090   6.3090   6.8470   6.8470  10.1245  10.1245  10.9061  10.9061
    11.6027  11.6027  11.8379  11.8379  13.1632  13.1632  13.5536  13.5536
    14.4849  14.4849  15.4611  15.4611  16.7443  16.7443  17.6343  17.6343
    18.9730  18.9730  19.2356  19.2356  19.4058  19.4058  19.7543  19.7543
    20.3651  20.3651  20.6193  20.6193  20.8379  20.8379  21.5384  21.5384
    22.7167  22.7167  23.0264  23.0269

     occupation numbers 
     1.0000   1.0000   1.0000   1.0000   1.0000   1.0000   1.0000   1.0000
     1.0000   1.0000   1.0000   1.0000   1.0000   1.0000   1.0000   1.0000
     1.0000   1.0000   1.0000   1.0000   1.0000   1.0000   1.0000   1.0000
     1.0000   1.0000   1.0000   1.0000   1.0000   1.0000   1.0000   1.0000
     1.0000   1.0000   1.0000   1.0000   1.0000   1.0000   1.0000   1.0000
     1.0000   1.0000   1.0000   1.0000   1.0000   1.0000   1.0000   1.0000
     1.0000   1.0000   1.0000   1.0000   1.0000   1.0000   1.0000   1.0000
     1.0000   1.0000   1.0000   1.0000   0.0000   0.0000   0.0000   0.0000
     0.0000   0.0000   0.0000   0.0000   0.0000   0.0000   0.0000   0.0000
     0.0000   0.0000   0.0000   0.0000   0.0000   0.0000   0.0000   0.0000
     0.0000   0.0000   0.0000   0.0000   0.0000   0.0000   0.0000   0.0000
     0.0000   0.0000   0.0000   0.0000   0.0000   0.0000   0.0000   0.0000
     0.0000   0.0000   0.0000   0.0000

          k =-0.5000 0.2926-0.1769 (  9124 PWs)   bands (ev):

   -39.3304 -39.3304 -39.3304 -39.3304 -39.3290 -39.3290 -39.3290 -39.3290
   -39.3003 -39.3003 -39.3003 -39.3003 -39.2964 -39.2964 -39.2964 -39.2964
   -39.2873 -39.2873 -39.2873 -39.2873 -13.2964 -13.2964 -13.2964 -13.2964
   -13.2705 -13.2705 -13.2705 -13.2705 -13.2567 -13.2567 -13.2567 -13.2567
   -13.2386 -13.2386 -13.2386 -13.2386 -13.2137 -13.2137 -13.2137 -13.2137
    -4.4449  -4.4449  -4.4449  -4.4449   1.1132   1.1132   1.1132   1.1132
     4.0381   4.0381   4.0381   4.0381   4.9550   4.9550   4.9550   4.9550
     6.6131   6.6131   6.6131   6.6131  10.4989  10.4989  10.4989  10.4989
    11.6535  11.6535  11.6535  11.6535  13.3913  13.3913  13.3913  13.3913
    15.0760  15.0760  15.0760  15.0760  17.0894  17.0894  17.0894  17.0894
    19.1285  19.1285  19.1285  19.1285  19.5023  19.5023  19.5023  19.5023
    20.4914  20.4914  20.4914  20.4914  21.1398  21.1398  21.1399  21.1399
    22.9366  22.9366  22.9367  22.9367

     occupation numbers 
     1.0000   1.0000   1.0000   1.0000   1.0000   1.0000   1.0000   1.0000
     1.0000   1.0000   1.0000   1.0000   1.0000   1.0000   1.0000   1.0000
     1.0000   1.0000   1.0000   1.0000   1.0000   1.0000   1.0000   1.0000
     1.0000   1.0000   1.0000   1.0000   1.0000   1.0000   1.0000   1.0000
     1.0000   1.0000   1.0000   1.0000   1.0000   1.0000   1.0000   1.0000
     1.0000   1.0000   1.0000   1.0000   1.0000   1.0000   1.0000   1.0000
     1.0000   1.0000   1.0000   1.0000   1.0000   1.0000   1.0000   1.0000
     1.0000   1.0000   1.0000   1.0000   0.0000   0.0000   0.0000   0.0000
     0.0000   0.0000   0.0000   0.0000   0.0000   0.0000   0.0000   0.0000
     0.0000   0.0000   0.0000   0.0000   0.0000   0.0000   0.0000   0.0000
     0.0000   0.0000   0.0000   0.0000   0.0000   0.0000   0.0000   0.0000
     0.0000   0.0000   0.0000   0.0000   0.0000   0.0000   0.0000   0.0000
     0.0000   0.0000   0.0000   0.0000

          k =-0.5000-0.4389 0.0000 (  9136 PWs)   bands (ev):

   -39.3307 -39.3307 -39.3305 -39.3305 -39.3288 -39.3288 -39.3288 -39.3288
   -39.3004 -39.3004 -39.3002 -39.3002 -39.2967 -39.2967 -39.2965 -39.2965
   -39.2873 -39.2873 -39.2871 -39.2871 -13.3002 -13.3002 -13.2953 -13.2953
   -13.2730 -13.2730 -13.2677 -13.2677 -13.2589 -13.2589 -13.2534 -13.2534
   -13.2423 -13.2423 -13.2340 -13.2340 -13.2163 -13.2163 -13.2116 -13.2116
    -4.4103  -4.4103  -4.4035  -4.4035   1.1835   1.1835   1.2964   1.2964
     3.4633   3.4633   3.9890   3.9890   4.5989   4.5989   5.0464   5.0464
     5.9590   5.9590   6.7697   6.7697  10.6270  10.6270  10.8699  10.8699
    12.4597  12.4597  12.4998  12.4998  13.2528  13.2528  14.3688  14.3688
    14.4277  14.4277  15.1554  15.1554  17.1349  17.1349  17.5308  17.5308
    17.8306  17.8306  19.4761  19.4761  19.9453  19.9453  20.4752  20.4752
    20.6005  20.6005  20.6754  20.6754  21.4504  21.4505  21.4740  21.4741
    21.9028  21.9028  22.1777  22.1780

     occupation numbers 
     1.0000   1.0000   1.0000   1.0000   1.0000   1.0000   1.0000   1.0000
     1.0000   1.0000   1.0000   1.0000   1.0000   1.0000   1.0000   1.0000
     1.0000   1.0000   1.0000   1.0000   1.0000   1.0000   1.0000   1.0000
     1.0000   1.0000   1.0000   1.0000   1.0000   1.0000   1.0000   1.0000
     1.0000   1.0000   1.0000   1.0000   1.0000   1.0000   1.0000   1.0000
     1.0000   1.0000   1.0000   1.0000   1.0000   1.0000   1.0000   1.0000
     1.0000   1.0000   1.0000   1.0000   1.0000   1.0000   1.0000   1.0000
     1.0000   1.0000   1.0000   1.0000   0.0000   0.0000   0.0000   0.0000
     0.0000   0.0000   0.0000   0.0000   0.0000   0.0000   0.0000   0.0000
     0.0000   0.0000   0.0000   0.0000   0.0000   0.0000   0.0000   0.0000
     0.0000   0.0000   0.0000   0.0000   0.0000   0.0000   0.0000   0.0000
     0.0000   0.0000   0.0000   0.0000   0.0000   0.0000   0.0000   0.0000
     0.0000   0.0000   0.0000   0.0000

          k =-0.5000-0.4389 0.0590 (  9152 PWs)   bands (ev):

   -39.3307 -39.3307 -39.3306 -39.3306 -39.3289 -39.3289 -39.3288 -39.3288
   -39.3004 -39.3004 -39.3004 -39.3004 -39.2967 -39.2967 -39.2966 -39.2966
   -39.2873 -39.2873 -39.2872 -39.2872 -13.2999 -13.2999 -13.2957 -13.2957
   -13.2727 -13.2727 -13.2682 -13.2682 -13.2585 -13.2585 -13.2539 -13.2539
   -13.2416 -13.2416 -13.2346 -13.2346 -13.2159 -13.2159 -13.2119 -13.2119
    -4.4098  -4.4098  -4.4040  -4.4040   1.1893   1.1893   1.2869   1.2869
     3.5090   3.5090   4.0182   4.0182   4.5007   4.5007   4.9606   4.9606
     6.0962   6.0962   6.7907   6.7907  10.5524  10.5524  10.7973  10.7973
    12.4121  12.4121  12.4530  12.4530  13.4944  13.4944  14.4084  14.4084
    14.4304  14.4304  15.2590  15.2590  16.9716  16.9716  17.5182  17.5182
    17.9192  17.9192  19.2332  19.2332  19.7919  19.7919  20.1369  20.1369
    20.6122  20.6122  20.6864  20.6864  21.4830  21.4830  21.7092  21.7092
    22.0833  22.0834  22.1371  22.1372

     occupation numbers 
     1.0000   1.0000   1.0000   1.0000   1.0000   1.0000   1.0000   1.0000
     1.0000   1.0000   1.0000   1.0000   1.0000   1.0000   1.0000   1.0000
     1.0000   1.0000   1.0000   1.0000   1.0000   1.0000   1.0000   1.0000
     1.0000   1.0000   1.0000   1.0000   1.0000   1.0000   1.0000   1.0000
     1.0000   1.0000   1.0000   1.0000   1.0000   1.0000   1.0000   1.0000
     1.0000   1.0000   1.0000   1.0000   1.0000   1.0000   1.0000   1.0000
     1.0000   1.0000   1.0000   1.0000   1.0000   1.0000   1.0000   1.0000
     1.0000   1.0000   1.0000   1.0000   0.0000   0.0000   0.0000   0.0000
     0.0000   0.0000   0.0000   0.0000   0.0000   0.0000   0.0000   0.0000
     0.0000   0.0000   0.0000   0.0000   0.0000   0.0000   0.0000   0.0000
     0.0000   0.0000   0.0000   0.0000   0.0000   0.0000   0.0000   0.0000
     0.0000   0.0000   0.0000   0.0000   0.0000   0.0000   0.0000   0.0000
     0.0000   0.0000   0.0000   0.0000

          k =-0.5000-0.4389 0.1179 (  9144 PWs)   bands (ev):

   -39.3305 -39.3305 -39.3305 -39.3305 -39.3289 -39.3289 -39.3289 -39.3289
   -39.3004 -39.3004 -39.3004 -39.3004 -39.2965 -39.2965 -39.2965 -39.2965
   -39.2874 -39.2874 -39.2873 -39.2873 -13.2990 -13.2990 -13.2966 -13.2966
   -13.2719 -13.2719 -13.2693 -13.2693 -13.2575 -13.2575 -13.2549 -13.2549
   -13.2400 -13.2400 -13.2360 -13.2360 -13.2149 -13.2149 -13.2126 -13.2126
    -4.4086  -4.4086  -4.4052  -4.4052   1.2065   1.2065   1.2626   1.2626
     3.6403   3.6403   4.0130   4.0130   4.3971   4.3971   4.7557   4.7557
     6.3839   6.3839   6.7841   6.7841  10.4464  10.4464  10.6237  10.6237
    12.3578  12.3578  12.3779  12.3779  13.9681  13.9681  14.3919  14.3919
    14.5703  14.5703  15.3307  15.3307  16.8376  16.8376  17.4313  17.4313
    18.0491  18.0491  18.6430  18.6430  19.6264  19.6264  19.8267  19.8267
    20.6301  20.6301  20.6843  20.6843  21.4725  21.4725  21.6025  21.6025
    22.4921  22.4922  22.5952  22.5952

     occupation numbers 
     1.0000   1.0000   1.0000   1.0000   1.0000   1.0000   1.0000   1.0000
     1.0000   1.0000   1.0000   1.0000   1.0000   1.0000   1.0000   1.0000
     1.0000   1.0000   1.0000   1.0000   1.0000   1.0000   1.0000   1.0000
     1.0000   1.0000   1.0000   1.0000   1.0000   1.0000   1.0000   1.0000
     1.0000   1.0000   1.0000   1.0000   1.0000   1.0000   1.0000   1.0000
     1.0000   1.0000   1.0000   1.0000   1.0000   1.0000   1.0000   1.0000
     1.0000   1.0000   1.0000   1.0000   1.0000   1.0000   1.0000   1.0000
     1.0000   1.0000   1.0000   1.0000   0.0000   0.0000   0.0000   0.0000
     0.0000   0.0000   0.0000   0.0000   0.0000   0.0000   0.0000   0.0000
     0.0000   0.0000   0.0000   0.0000   0.0000   0.0000   0.0000   0.0000
     0.0000   0.0000   0.0000   0.0000   0.0000   0.0000   0.0000   0.0000
     0.0000   0.0000   0.0000   0.0000   0.0000   0.0000   0.0000   0.0000
     0.0000   0.0000   0.0000   0.0000

          k =-0.5000-0.4389-0.1769 (  9104 PWs)   bands (ev):

   -39.3304 -39.3304 -39.3304 -39.3304 -39.3288 -39.3288 -39.3288 -39.3288
   -39.3002 -39.3002 -39.3002 -39.3002 -39.2964 -39.2964 -39.2964 -39.2964
   -39.2871 -39.2871 -39.2871 -39.2871 -13.2978 -13.2978 -13.2978 -13.2978
   -13.2707 -13.2707 -13.2707 -13.2707 -13.2562 -13.2562 -13.2562 -13.2562
   -13.2379 -13.2379 -13.2379 -13.2379 -13.2137 -13.2137 -13.2137 -13.2137
    -4.4069  -4.4069  -4.4069  -4.4069   1.2327   1.2327   1.2327   1.2327
     3.8348   3.8348   3.8348   3.8348   4.5289   4.5289   4.5289   4.5289
     6.6482   6.6482   6.6482   6.6482  10.4681  10.4681  10.4681  10.4681
    12.3436  12.3436  12.3436  12.3436  14.2730  14.2730  14.2730  14.2730
    14.9799  14.9799  14.9799  14.9799  17.1310  17.1310  17.1310  17.1310
    18.2149  18.2149  18.2149  18.2149  19.6505  19.6505  19.6505  19.6505
    20.6603  20.6603  20.6603  20.6603  21.4983  21.4983  21.4983  21.4983
    22.8412  22.8412  22.8412  22.8412

     occupation numbers 
     1.0000   1.0000   1.0000   1.0000   1.0000   1.0000   1.0000   1.0000
     1.0000   1.0000   1.0000   1.0000   1.0000   1.0000   1.0000   1.0000
     1.0000   1.0000   1.0000   1.0000   1.0000   1.0000   1.0000   1.0000
     1.0000   1.0000   1.0000   1.0000   1.0000   1.0000   1.0000   1.0000
     1.0000   1.0000   1.0000   1.0000   1.0000   1.0000   1.0000   1.0000
     1.0000   1.0000   1.0000   1.0000   1.0000   1.0000   1.0000   1.0000
     1.0000   1.0000   1.0000   1.0000   1.0000   1.0000   1.0000   1.0000
     1.0000   1.0000   1.0000   1.0000   0.0000   0.0000   0.0000   0.0000
     0.0000   0.0000   0.0000   0.0000   0.0000   0.0000   0.0000   0.0000
     0.0000   0.0000   0.0000   0.0000   0.0000   0.0000   0.0000   0.0000
     0.0000   0.0000   0.0000   0.0000   0.0000   0.0000   0.0000   0.0000
     0.0000   0.0000   0.0000   0.0000   0.0000   0.0000   0.0000   0.0000
     0.0000   0.0000   0.0000   0.0000

     highest occupied, lowest unoccupied level (ev):     7.9115    8.6638

!    total energy              =   -3375.68091445 Ry

     total all-electron energy =    -68859.683949 Ry
     estimated scf accuracy    <          6.9E-09 Ry

     The total energy is the sum of the following terms:
     one-electron contribution =   -1110.66112639 Ry
     hartree contribution      =     607.05675904 Ry
     xc contribution           =    -306.28249579 Ry
     ewald contribution        =    -878.32643845 Ry
     one-center paw contrib.   =   -1687.46761287 Ry
      -> PAW hartree energy AE =     109.43302772 Ry
      -> PAW hartree energy PS =    -108.67636903 Ry
      -> PAW xc energy AE      =    -329.02084705 Ry
      -> PAW xc energy PS      =      47.32333321 Ry
      -> total E_H with PAW    =     607.81341772 Ry
      -> total E_XC with PAW   =    -587.98000963 Ry

     convergence has been achieved in   9 iterations

     Forces acting on atoms (cartesian axes, Ry/au):

     atom    1 type  1   force =     0.00000000    0.00621712   -0.00576280
     atom    2 type  1   force =     0.00000000    0.00621712    0.00576280
     atom    3 type  1   force =     0.00000000   -0.00621712    0.00576280
     atom    4 type  1   force =     0.00000000   -0.00621712   -0.00576280
     atom    5 type  2   force =     0.00000000    0.00718937   -0.00526502
     atom    6 type  2   force =     0.00000000   -0.00718937   -0.00526502
     atom    7 type  2   force =     0.00000000    0.00718937    0.00526502
     atom    8 type  2   force =     0.00000000   -0.00718937    0.00526502
     The non-local contrib.  to forces
     atom    1 type  1   force =    -0.00000000   -0.29425934    0.33097977
     atom    2 type  1   force =     0.00000000   -0.29425934   -0.33097977
     atom    3 type  1   force =     0.00000000    0.29425934   -0.33097977
     atom    4 type  1   force =     0.00000000    0.29425934    0.33097977
     atom    5 type  2   force =     0.00000000   -0.27226641    0.23241233
     atom    6 type  2   force =     0.00000000    0.27226641    0.23241233
     atom    7 type  2   force =     0.00000000   -0.27226641   -0.23241233
     atom    8 type  2   force =     0.00000000    0.27226641   -0.23241233
     The ionic contribution  to forces
     atom    1 type  1   force =     0.00000000    5.08353478   -8.18344314
     atom    2 type  1   force =     0.00000000    5.08353478    8.18344314
     atom    3 type  1   force =    -0.00000000   -5.08353478    8.18344314
     atom    4 type  1   force =    -0.00000000   -5.08353478   -8.18344314
     atom    5 type  2   force =    -0.00000000    4.53495851   -6.39501745
     atom    6 type  2   force =    -0.00000000   -4.53495851   -6.39501745
     atom    7 type  2   force =     0.00000000    4.53495851    6.39501745
     atom    8 type  2   force =     0.00000000   -4.53495851    6.39501745
     The local contribution  to forces
     atom    1 type  1   force =     0.00000000   -4.78220932    7.84602045
     atom    2 type  1   force =     0.00000000   -4.78220932   -7.84602045
     atom    3 type  1   force =    -0.00000000    4.78220932   -7.84602045
     atom    4 type  1   force =    -0.00000000    4.78220932    7.84602045
     atom    5 type  2   force =    -0.00000000   -4.25653751    6.15832994
     atom    6 type  2   force =     0.00000000    4.25653751    6.15832994
     atom    7 type  2   force =    -0.00000000   -4.25653751   -6.15832994
     atom    8 type  2   force =     0.00000000    4.25653751   -6.15832994
     The core correction contribution to forces
     atom    1 type  1   force =     0.00000000   -0.00084859    0.00066228
     atom    2 type  1   force =    -0.00000000   -0.00084859   -0.00066228
     atom    3 type  1   force =     0.00000000    0.00084859   -0.00066228
     atom    4 type  1   force =     0.00000000    0.00084859    0.00066228
     atom    5 type  2   force =     0.00000000    0.00092350   -0.00080381
     atom    6 type  2   force =     0.00000000   -0.00092350   -0.00080381
     atom    7 type  2   force =     0.00000000    0.00092350    0.00080381
     atom    8 type  2   force =     0.00000000   -0.00092350    0.00080381
     The Hubbard contrib.    to forces
     atom    1 type  1   force =     0.00000000    0.00000000    0.00000000
     atom    2 type  1   force =     0.00000000    0.00000000    0.00000000
     atom    3 type  1   force =     0.00000000    0.00000000    0.00000000
     atom    4 type  1   force =     0.00000000    0.00000000    0.00000000
     atom    5 type  2   force =     0.00000000    0.00000000    0.00000000
     atom    6 type  2   force =     0.00000000    0.00000000    0.00000000
     atom    7 type  2   force =     0.00000000    0.00000000    0.00000000
     atom    8 type  2   force =     0.00000000    0.00000000    0.00000000
     The SCF correction term to forces
     atom    1 type  1   force =    -0.00000000   -0.00000041    0.00001785
     atom    2 type  1   force =    -0.00000000   -0.00000041   -0.00001785
     atom    3 type  1   force =    -0.00000000    0.00000041   -0.00001785
     atom    4 type  1   force =    -0.00000000    0.00000041    0.00001785
     atom    5 type  2   force =    -0.00000000    0.00011129   -0.00018604
     atom    6 type  2   force =    -0.00000000   -0.00011129   -0.00018604
     atom    7 type  2   force =     0.00000000    0.00011129    0.00018604
     atom    8 type  2   force =    -0.00000000   -0.00011129    0.00018604

     Total force =     0.024598     Total SCF correction =     0.000435


     Computing stress (Cartesian axis) and pressure

          total   stress  (Ry/bohr**3)                   (kbar)     P=       -0.55
   0.00001340   0.00000000   0.00000000            1.97        0.00        0.00
   0.00000000  -0.00001767   0.00000000            0.00       -2.60        0.00
   0.00000000   0.00000000  -0.00000690            0.00        0.00       -1.02

     kinetic stress (kbar)  21427.41      0.00      0.00
                                0.00  21470.69      0.00
                                0.00      0.00  21479.29

     local   stress (kbar)  -4638.64     -0.00     -0.00
                               -0.00   -836.78     -0.00
                               -0.00     -0.00   -769.98

     nonloc. stress (kbar)  -3903.81      0.00      0.00
                                0.00  -3901.74      0.00
                                0.00      0.00  -3881.79

     hartree stress (kbar)  20577.11     -0.00      0.00
                               -0.00  19023.71     -0.00
                                0.00     -0.00  18886.05

     exc-cor stress (kbar)   4886.16     -0.00      0.00
                               -0.00   4885.40      0.00
                                0.00      0.00   4886.91

     corecor stress (kbar) -11656.35     -0.00     -0.00
                               -0.00 -11656.13      0.00
                               -0.00      0.00 -11656.80

     ewald   stress (kbar) -26689.91      0.00     -0.00
                                0.00 -28987.74      0.00
                               -0.00      0.00 -28944.70

     hubbard stress (kbar)      0.00      0.00      0.00
                                0.00      0.00      0.00
                                0.00      0.00      0.00

     DFT-D   stress (kbar)      0.00      0.00      0.00
                                0.00      0.00      0.00
                                0.00      0.00      0.00

     XDM     stress (kbar)      0.00      0.00      0.00
                                0.00      0.00      0.00
                                0.00      0.00      0.00

     dft-nl  stress (kbar)      0.00      0.00      0.00
                                0.00      0.00      0.00
                                0.00      0.00      0.00

     TS-vdW  stress (kbar)      0.00      0.00      0.00
                                0.00      0.00      0.00
                                0.00      0.00      0.00


                                0.00      0.00      0.00
                                0.00      0.00      0.00


                                0.00      0.00      0.00


     Writing all to output data dir ./bulk/snse.save/

     init_run     :     70.57s CPU     84.55s WALL (       1 calls)
     electrons    :   3128.86s CPU   3608.22s WALL (       1 calls)
     forces       :     39.71s CPU     47.13s WALL (       1 calls)
     stress       :     29.79s CPU     45.70s WALL (       1 calls)

     Called by init_run:
     wfcinit      :     68.27s CPU     79.15s WALL (       1 calls)
     wfcinit:atom :      0.10s CPU      0.06s WALL (      64 calls)
     wfcinit:wfcr :     67.93s CPU     78.92s WALL (      64 calls)
     potinit      :      0.77s CPU      0.84s WALL (       1 calls)
     hinit0       :      0.94s CPU      3.47s WALL (       1 calls)

     Called by electrons:
     c_bands      :   3011.28s CPU   3469.05s WALL (      10 calls)
     sum_band     :    111.55s CPU    131.73s WALL (      10 calls)
     v_of_rho     :      0.34s CPU      0.35s WALL (      10 calls)
     v_h          :      0.02s CPU      0.02s WALL (      10 calls)
     v_xc         :      0.37s CPU      0.38s WALL (      12 calls)
     newd         :      4.60s CPU      6.51s WALL (      10 calls)
     PAW_pot      :      1.46s CPU      1.43s WALL (      10 calls)
     mix_rho      :      0.05s CPU      0.10s WALL (      10 calls)

     Called by c_bands:
     init_us_2    :      1.84s CPU      1.95s WALL (    1472 calls)
     init_us_2:cp :      1.82s CPU      1.94s WALL (    1472 calls)
     cegterg      :   2935.32s CPU   3403.58s WALL (     640 calls)

     Called by sum_band:
     sum_band:wei :      0.00s CPU      0.00s WALL (      10 calls)
     sum_band:loo :    107.50s CPU    124.93s WALL (      10 calls)
     sum_band:buf :      0.59s CPU      0.78s WALL (     640 calls)
     sum_band:ini :      0.77s CPU      0.84s WALL (     640 calls)
     sum_band:cal :     82.20s CPU    100.20s WALL (     640 calls)
     sum_band:bec :      0.04s CPU      0.10s WALL (     640 calls)
     addusdens    :      3.04s CPU      5.73s WALL (      10 calls)
     addusd:skk   :      0.02s CPU      0.12s WALL (      20 calls)
     addusd:dgemm :      1.43s CPU      3.61s WALL (      20 calls)
     addusd:qvan2 :      1.44s CPU      1.31s WALL (      20 calls)

     Called by *egterg:
     cdiaghg      :    629.35s CPU    543.46s WALL (    3009 calls)
     cegterg:over :    775.46s CPU    907.47s WALL (    2433 calls)
     cegterg:upda :     90.10s CPU    161.26s WALL (    2433 calls)
     cegterg:last :    103.60s CPU    152.87s WALL (    1321 calls)
     h_psi        :    635.58s CPU    858.49s WALL (    3137 calls)
     s_psi        :     84.38s CPU    131.27s WALL (    3137 calls)
     g_psi        :      0.63s CPU      0.45s WALL (    2433 calls)

     Called by h_psi:
     h_psi:calbec :    414.07s CPU    498.66s WALL (    3137 calls)
     vloc_psi     :    108.30s CPU    110.47s WALL (    3137 calls)
     add_vuspsi   :    111.52s CPU    246.22s WALL (    3137 calls)

     General routines
     calbec       :    546.80s CPU    658.92s WALL (    4097 calls)
     fft          :      0.48s CPU      0.54s WALL (     154 calls)
     ffts         :      0.16s CPU      0.16s WALL (      20 calls)
     fftw         :    124.27s CPU    125.07s WALL (  364494 calls)
     interpolate  :      0.15s CPU      0.15s WALL (      10 calls)

     Parallel routines

     PAW routines
     PAW_pot      :      1.46s CPU      1.43s WALL (      10 calls)
     PAW_symme    :      0.08s CPU      0.08s WALL (      20 calls)

     PWSCF        :  54m29.77s CPU      1h 3m WALL


   This run was terminated on:  20:28:13  24Jun2025            

=------------------------------------------------------------------------------=
   JOB DONE.
=------------------------------------------------------------------------------=
