
     Program PWSCF v.7.0 starts on 25Jun2025 at  6: 3:55 

     This program is part of the open-source Quantum ESPRESSO suite
     for quantum simulation of materials; please cite
         "P. Giannozzi et al., J. Phys.:Condens. Matter 21 395502 (2009);
         "P. Giannozzi et al., J. Phys.:Condens. Matter 29 465901 (2017);
         "P. Giannozzi et al., J. Chem. Phys. 152 154105 (2020);
          URL http://www.quantum-espresso.org", 
     in publications or presentations arising from this work. More details at
     http://www.quantum-espresso.org/quote

     Parallel version (MPI), running on     8 processors

     MPI processes distributed on     1 nodes
     R & G space division:  proc/nbgrp/npool/nimage =       8
     1193 MiB available memory on the printing compute node when the environment starts

     Waiting for input...
     Reading input from standard input

     Current dimensions of program PWSCF are:
     Max number of different atomic species (ntypx) = 10
     Max number of k-points (npk) =  40000
     Max angular momentum in pseudopotentials (lmaxx) =  4

     Atomic positions and unit cell read from directory:
     ./bulk/snse.save/
     Atomic positions from file used, from input discarded

     file Sn.pbe-dn-kjpaw_psl.1.0.0.UPF: wavefunction(s)  5S 5P 4D renormalized
     file Se.pbe-dn-kjpaw_psl.1.0.0.UPF: wavefunction(s)  4S 4P 3D renormalized

     IMPORTANT: XC functional enforced from input :
     Exchange-correlation= PBE
                           (   1   4   3   4   0   0   0)
     Any further DFT definition will be discarded
     Please, verify this is what you really want

     Message from routine setup:
     using ibrav=0 with symmetry is DISCOURAGED, use correct ibrav instead

     Subspace diagonalization in iterative solution of the eigenvalue problem:
     a serial algorithm will be used


     Parallelization info
     --------------------
     sticks:   dense  smooth     PW     G-vecs:    dense   smooth      PW
     Min         276     137     40                25792     9109    1440
     Max         277     138     41                25799     9116    1447
     Sum        2209    1101    323               206349    72899   11543

     Using Slab Decomposition



     bravais-lattice index     =            0
     lattice parameter (alat)  =       7.7975  a.u.
     unit-cell volume          =    1526.8576 (a.u.)^3
     number of atoms/cell      =            8
     number of atomic types    =            2
     number of electrons       =       120.00
     number of Kohn-Sham states=          100
     kinetic-energy cutoff     =      50.0000  Ry
     charge density cutoff     =     400.0000  Ry
     Exchange-correlation= PBE
                           (   1   4   3   4   0   0   0)

     celldm(1)=   7.797484  celldm(2)=   0.000000  celldm(3)=   0.000000
     celldm(4)=   0.000000  celldm(5)=   0.000000  celldm(6)=   0.000000

     crystal axes: (cart. coord. in units of alat)
               a(1) = (   1.000000   0.000000   0.000000 )  
               a(2) = (   0.000000   1.139268   0.000000 )  
               a(3) = (   0.000000   0.000000   2.826890 )  

     reciprocal axes: (cart. coord. in units 2 pi/alat)
               b(1) = (  1.000000  0.000000  0.000000 )  
               b(2) = (  0.000000  0.877756  0.000000 )  
               b(3) = (  0.000000  0.000000  0.353746 )  


     PseudoPot. # 1 for Sn read from file:
     ./Sn.pbe-dn-kjpaw_psl.1.0.0.UPF
     MD5 check sum: d69e53522d199ccc4f306ae57c56b55d
     Pseudo is Projector augmented-wave + core cor, Zval = 14.0
     Generated using &quot;atomic&quot; code by A. Dal Corso  v.6.3
     Shape of augmentation charge: PSQ
     Using radial grid of 1243 points,  6 beta functions with: 
                l(1) =   0
                l(2) =   0
                l(3) =   1
                l(4) =   1
                l(5) =   2
                l(6) =   2
     Q(r) pseudized with 0 coefficients 


     PseudoPot. # 2 for Se read from file:
     ./Se.pbe-dn-kjpaw_psl.1.0.0.UPF
     MD5 check sum: 4f8dd506ed2a5e2391ebbdbef81d58a8
     Pseudo is Projector augmented-wave + core cor, Zval = 16.0
     Generated using &quot;atomic&quot; code by A. Dal Corso  v.6.3
     Shape of augmentation charge: PSQ
     Using radial grid of 1211 points,  6 beta functions with: 
                l(1) =   0
                l(2) =   0
                l(3) =   1
                l(4) =   1
                l(5) =   2
                l(6) =   2
     Q(r) pseudized with 0 coefficients 


     atomic species   valence    mass     pseudopotential
        Sn            14.00   118.71000     Sn( 1.00)
        Se            16.00    78.96000     Se( 1.00)

      8 Sym. Ops., with inversion, found ( 6 have fractional translation)


                                    s                        frac. trans.

      isym =  1     identity                                     

 cryst.   s( 1) = (     1          0          0      )
                  (     0          1          0      )
                  (     0          0          1      )

 cart.    s( 1) = (  1.0000000  0.0000000  0.0000000 )
                  (  0.0000000  1.0000000  0.0000000 )
                  (  0.0000000  0.0000000  1.0000000 )


      isym =  2     180 deg rotation - cart. axis [0,0,1]        

 cryst.   s( 2) = (    -1          0          0      )    f =(  0.5000000 )
                  (     0         -1          0      )       (  0.5000000 )
                  (     0          0          1      )       (  0.5000000 )

 cart.    s( 2) = ( -1.0000000  0.0000000  0.0000000 )    f =(  0.5000000 )
                  (  0.0000000 -1.0000000  0.0000000 )       (  0.5696342 )
                  (  0.0000000  0.0000000  1.0000000 )       (  1.4134451 )


      isym =  3     180 deg rotation - cart. axis [0,1,0]        

 cryst.   s( 3) = (    -1          0          0      )    f =(  0.0000000 )
                  (     0          1          0      )       (  0.5000000 )
                  (     0          0         -1      )       ( -0.5000000 )

 cart.    s( 3) = ( -1.0000000  0.0000000  0.0000000 )    f =(  0.0000000 )
                  (  0.0000000  1.0000000  0.0000000 )       (  0.5696342 )
                  (  0.0000000  0.0000000 -1.0000000 )       ( -1.4134451 )


      isym =  4     180 deg rotation - cart. axis [1,0,0]        

 cryst.   s( 4) = (     1          0          0      )    f =(  0.5000000 )
                  (     0         -1          0      )       (  0.0000000 )
                  (     0          0         -1      )       (  0.0000000 )

 cart.    s( 4) = (  1.0000000  0.0000000  0.0000000 )    f =(  0.5000000 )
                  (  0.0000000 -1.0000000  0.0000000 )       (  0.0000000 )
                  (  0.0000000  0.0000000 -1.0000000 )       (  0.0000000 )


      isym =  5     inversion                                    

 cryst.   s( 5) = (    -1          0          0      )
                  (     0         -1          0      )
                  (     0          0         -1      )

 cart.    s( 5) = ( -1.0000000  0.0000000  0.0000000 )
                  (  0.0000000 -1.0000000  0.0000000 )
                  (  0.0000000  0.0000000 -1.0000000 )


      isym =  6     inv. 180 deg rotation - cart. axis [0,0,1]   

 cryst.   s( 6) = (     1          0          0      )    f =(  0.5000000 )
                  (     0          1          0      )       (  0.5000000 )
                  (     0          0         -1      )       ( -0.5000000 )

 cart.    s( 6) = (  1.0000000  0.0000000  0.0000000 )    f =(  0.5000000 )
                  (  0.0000000  1.0000000  0.0000000 )       (  0.5696342 )
                  (  0.0000000  0.0000000 -1.0000000 )       ( -1.4134451 )


      isym =  7     inv. 180 deg rotation - cart. axis [0,1,0]   

 cryst.   s( 7) = (     1          0          0      )    f =(  0.0000000 )
                  (     0         -1          0      )       (  0.5000000 )
                  (     0          0          1      )       (  0.5000000 )

 cart.    s( 7) = (  1.0000000  0.0000000  0.0000000 )    f =(  0.0000000 )
                  (  0.0000000 -1.0000000  0.0000000 )       (  0.5696342 )
                  (  0.0000000  0.0000000  1.0000000 )       (  1.4134451 )


      isym =  8     inv. 180 deg rotation - cart. axis [1,0,0]   

 cryst.   s( 8) = (    -1          0          0      )    f =(  0.5000000 )
                  (     0          1          0      )       (  0.0000000 )
                  (     0          0          1      )       (  0.0000000 )

 cart.    s( 8) = ( -1.0000000  0.0000000  0.0000000 )    f =(  0.5000000 )
                  (  0.0000000  1.0000000  0.0000000 )       (  0.0000000 )
                  (  0.0000000  0.0000000  1.0000000 )       (  0.0000000 )


   Cartesian axes

     site n.     atom                  positions (alat units)
         1           Sn  tau(   1) = (   0.7500000   0.4289964   1.7492425  )
         2           Sn  tau(   2) = (   0.2500000   0.9986306   2.4910928  )
         3           Sn  tau(   3) = (   0.2500000   0.7102720   1.0776477  )
         4           Sn  tau(   4) = (   0.7500000   0.1406378   0.3357974  )
         5           Se  tau(   5) = (   0.2500000   0.5800948   0.4199431  )
         6           Se  tau(   6) = (   0.2500000   1.1288079   1.8333882  )
         7           Se  tau(   7) = (   0.7500000   0.0104605   0.9935020  )
         8           Se  tau(   8) = (   0.7500000   0.5591737   2.4069471  )

   Crystallographic axes

     site n.     atom                  positions (cryst. coord.)
         1           Sn  tau(   1) = (  0.7500000  0.3765543  0.6187868  )
         2           Sn  tau(   2) = (  0.2500000  0.8765543  0.8812131  )
         3           Sn  tau(   3) = (  0.2500000  0.6234457  0.3812131  )
         4           Sn  tau(   4) = (  0.7500000  0.1234457  0.1187868  )
         5           Se  tau(   5) = (  0.2500000  0.5091818  0.1485530  )
         6           Se  tau(   6) = (  0.2500000  0.9908182  0.6485530  )
         7           Se  tau(   7) = (  0.7500000  0.0091818  0.3514470  )
         8           Se  tau(   8) = (  0.7500000  0.4908182  0.8514470  )

     number of k points=   101
                       cart. coord. in units 2pi/alat
        k(    1) = (   0.0000000   0.0000000   0.0000000), wk =   0.0198020
        k(    2) = (   0.0250000   0.0000000   0.0000000), wk =   0.0198020
        k(    3) = (   0.0500000   0.0000000   0.0000000), wk =   0.0198020
        k(    4) = (   0.0750000   0.0000000   0.0000000), wk =   0.0198020
        k(    5) = (   0.1000000   0.0000000   0.0000000), wk =   0.0198020
        k(    6) = (   0.1250000   0.0000000   0.0000000), wk =   0.0198020
        k(    7) = (   0.1500000   0.0000000   0.0000000), wk =   0.0198020
        k(    8) = (   0.1750000   0.0000000   0.0000000), wk =   0.0198020
        k(    9) = (   0.2000000   0.0000000   0.0000000), wk =   0.0198020
        k(   10) = (   0.2250000   0.0000000   0.0000000), wk =   0.0198020
        k(   11) = (   0.2500000   0.0000000   0.0000000), wk =   0.0198020
        k(   12) = (   0.2750000   0.0000000   0.0000000), wk =   0.0198020
        k(   13) = (   0.3000000   0.0000000   0.0000000), wk =   0.0198020
        k(   14) = (   0.3250000   0.0000000   0.0000000), wk =   0.0198020
        k(   15) = (   0.3500000   0.0000000   0.0000000), wk =   0.0198020
        k(   16) = (   0.3750000   0.0000000   0.0000000), wk =   0.0198020
        k(   17) = (   0.4000000   0.0000000   0.0000000), wk =   0.0198020
        k(   18) = (   0.4250000   0.0000000   0.0000000), wk =   0.0198020
        k(   19) = (   0.4500000   0.0000000   0.0000000), wk =   0.0198020
        k(   20) = (   0.4750000   0.0000000   0.0000000), wk =   0.0198020
        k(   21) = (   0.5000000   0.0000000   0.0000000), wk =   0.0198020
        k(   22) = (   0.5000000   0.0219439   0.0000000), wk =   0.0198020
        k(   23) = (   0.5000000   0.0438878   0.0000000), wk =   0.0198020
        k(   24) = (   0.5000000   0.0658317   0.0000000), wk =   0.0198020
        k(   25) = (   0.5000000   0.0877756   0.0000000), wk =   0.0198020
        k(   26) = (   0.5000000   0.1097195   0.0000000), wk =   0.0198020
        k(   27) = (   0.5000000   0.1316634   0.0000000), wk =   0.0198020
        k(   28) = (   0.5000000   0.1536073   0.0000000), wk =   0.0198020
        k(   29) = (   0.5000000   0.1755513   0.0000000), wk =   0.0198020
        k(   30) = (   0.5000000   0.1974952   0.0000000), wk =   0.0198020
        k(   31) = (   0.5000000   0.2194391   0.0000000), wk =   0.0198020
        k(   32) = (   0.5000000   0.2413830   0.0000000), wk =   0.0198020
        k(   33) = (   0.5000000   0.2633269   0.0000000), wk =   0.0198020
        k(   34) = (   0.5000000   0.2852708   0.0000000), wk =   0.0198020
        k(   35) = (   0.5000000   0.3072147   0.0000000), wk =   0.0198020
        k(   36) = (   0.5000000   0.3291586   0.0000000), wk =   0.0198020
        k(   37) = (   0.5000000   0.3511025   0.0000000), wk =   0.0198020
        k(   38) = (   0.5000000   0.3730464   0.0000000), wk =   0.0198020
        k(   39) = (   0.5000000   0.3949903   0.0000000), wk =   0.0198020
        k(   40) = (   0.5000000   0.4169342   0.0000000), wk =   0.0198020
        k(   41) = (   0.5000000   0.4388781   0.0000000), wk =   0.0198020
        k(   42) = (   0.5000000   0.4388781   0.0088436), wk =   0.0198020
        k(   43) = (   0.5000000   0.4388781   0.0176873), wk =   0.0198020
        k(   44) = (   0.5000000   0.4388781   0.0265309), wk =   0.0198020
        k(   45) = (   0.5000000   0.4388781   0.0353746), wk =   0.0198020
        k(   46) = (   0.5000000   0.4388781   0.0442182), wk =   0.0198020
        k(   47) = (   0.5000000   0.4388781   0.0530618), wk =   0.0198020
        k(   48) = (   0.5000000   0.4388781   0.0619055), wk =   0.0198020
        k(   49) = (   0.5000000   0.4388781   0.0707491), wk =   0.0198020
        k(   50) = (   0.5000000   0.4388781   0.0795928), wk =   0.0198020
        k(   51) = (   0.5000000   0.4388781   0.0884364), wk =   0.0198020
        k(   52) = (   0.5000000   0.4388781   0.0972800), wk =   0.0198020
        k(   53) = (   0.5000000   0.4388781   0.1061237), wk =   0.0198020
        k(   54) = (   0.5000000   0.4388781   0.1149673), wk =   0.0198020
        k(   55) = (   0.5000000   0.4388781   0.1238110), wk =   0.0198020
        k(   56) = (   0.5000000   0.4388781   0.1326546), wk =   0.0198020
        k(   57) = (   0.5000000   0.4388781   0.1414982), wk =   0.0198020
        k(   58) = (   0.5000000   0.4388781   0.1503419), wk =   0.0198020
        k(   59) = (   0.5000000   0.4388781   0.1591855), wk =   0.0198020
        k(   60) = (   0.5000000   0.4388781   0.1680292), wk =   0.0198020
        k(   61) = (   0.5000000   0.4388781   0.1768728), wk =   0.0198020
        k(   62) = (   0.4750000   0.4169342   0.1768728), wk =   0.0198020
        k(   63) = (   0.4500000   0.3949903   0.1768728), wk =   0.0198020
        k(   64) = (   0.4250000   0.3730464   0.1768728), wk =   0.0198020
        k(   65) = (   0.4000000   0.3511025   0.1768728), wk =   0.0198020
        k(   66) = (   0.3750000   0.3291586   0.1768728), wk =   0.0198020
        k(   67) = (   0.3500000   0.3072147   0.1768728), wk =   0.0198020
        k(   68) = (   0.3250000   0.2852708   0.1768728), wk =   0.0198020
        k(   69) = (   0.3000000   0.2633269   0.1768728), wk =   0.0198020
        k(   70) = (   0.2750000   0.2413830   0.1768728), wk =   0.0198020
        k(   71) = (   0.2500000   0.2194391   0.1768728), wk =   0.0198020
        k(   72) = (   0.2250000   0.1974952   0.1768728), wk =   0.0198020
        k(   73) = (   0.2000000   0.1755513   0.1768728), wk =   0.0198020
        k(   74) = (   0.1750000   0.1536073   0.1768728), wk =   0.0198020
        k(   75) = (   0.1500000   0.1316634   0.1768728), wk =   0.0198020
        k(   76) = (   0.1250000   0.1097195   0.1768728), wk =   0.0198020
        k(   77) = (   0.1000000   0.0877756   0.1768728), wk =   0.0198020
        k(   78) = (   0.0750000   0.0658317   0.1768728), wk =   0.0198020
        k(   79) = (   0.0500000   0.0438878   0.1768728), wk =   0.0198020
        k(   80) = (   0.0250000   0.0219439   0.1768728), wk =   0.0198020
        k(   81) = (   0.0000000   0.0000000   0.1768728), wk =   0.0198020
        k(   82) = (   0.0000000   0.0000000   0.1680292), wk =   0.0198020
        k(   83) = (   0.0000000   0.0000000   0.1591855), wk =   0.0198020
        k(   84) = (   0.0000000   0.0000000   0.1503419), wk =   0.0198020
        k(   85) = (   0.0000000   0.0000000   0.1414982), wk =   0.0198020
        k(   86) = (   0.0000000   0.0000000   0.1326546), wk =   0.0198020
        k(   87) = (   0.0000000   0.0000000   0.1238110), wk =   0.0198020
        k(   88) = (   0.0000000   0.0000000   0.1149673), wk =   0.0198020
        k(   89) = (   0.0000000   0.0000000   0.1061237), wk =   0.0198020
        k(   90) = (   0.0000000   0.0000000   0.0972800), wk =   0.0198020
        k(   91) = (   0.0000000   0.0000000   0.0884364), wk =   0.0198020
        k(   92) = (   0.0000000   0.0000000   0.0795928), wk =   0.0198020
        k(   93) = (   0.0000000   0.0000000   0.0707491), wk =   0.0198020
        k(   94) = (   0.0000000   0.0000000   0.0619055), wk =   0.0198020
        k(   95) = (   0.0000000   0.0000000   0.0530618), wk =   0.0198020
        k(   96) = (   0.0000000   0.0000000   0.0442182), wk =   0.0198020
        k(   97) = (   0.0000000   0.0000000   0.0353746), wk =   0.0198020
        k(   98) = (   0.0000000   0.0000000   0.0265309), wk =   0.0198020
        k(   99) = (   0.0000000   0.0000000   0.0176873), wk =   0.0198020
        k(  100) = (   0.0000000   0.0000000   0.0088436), wk =   0.0198020
        k(  101) = (   0.0000000   0.0000000   0.0000000), wk =   0.0198020

                       cryst. coord.
        k(    1) = (   0.0000000   0.0000000   0.0000000), wk =   0.0198020
        k(    2) = (   0.0250000   0.0000000   0.0000000), wk =   0.0198020
        k(    3) = (   0.0500000   0.0000000   0.0000000), wk =   0.0198020
        k(    4) = (   0.0750000   0.0000000   0.0000000), wk =   0.0198020
        k(    5) = (   0.1000000   0.0000000   0.0000000), wk =   0.0198020
        k(    6) = (   0.1250000   0.0000000   0.0000000), wk =   0.0198020
        k(    7) = (   0.1500000   0.0000000   0.0000000), wk =   0.0198020
        k(    8) = (   0.1750000   0.0000000   0.0000000), wk =   0.0198020
        k(    9) = (   0.2000000   0.0000000   0.0000000), wk =   0.0198020
        k(   10) = (   0.2250000   0.0000000   0.0000000), wk =   0.0198020
        k(   11) = (   0.2500000   0.0000000   0.0000000), wk =   0.0198020
        k(   12) = (   0.2750000   0.0000000   0.0000000), wk =   0.0198020
        k(   13) = (   0.3000000   0.0000000   0.0000000), wk =   0.0198020
        k(   14) = (   0.3250000   0.0000000   0.0000000), wk =   0.0198020
        k(   15) = (   0.3500000   0.0000000   0.0000000), wk =   0.0198020
        k(   16) = (   0.3750000   0.0000000   0.0000000), wk =   0.0198020
        k(   17) = (   0.4000000   0.0000000   0.0000000), wk =   0.0198020
        k(   18) = (   0.4250000   0.0000000   0.0000000), wk =   0.0198020
        k(   19) = (   0.4500000   0.0000000   0.0000000), wk =   0.0198020
        k(   20) = (   0.4750000   0.0000000   0.0000000), wk =   0.0198020
        k(   21) = (   0.5000000   0.0000000   0.0000000), wk =   0.0198020
        k(   22) = (   0.5000000   0.0250000   0.0000000), wk =   0.0198020
        k(   23) = (   0.5000000   0.0500000   0.0000000), wk =   0.0198020
        k(   24) = (   0.5000000   0.0750000   0.0000000), wk =   0.0198020
        k(   25) = (   0.5000000   0.1000000   0.0000000), wk =   0.0198020
        k(   26) = (   0.5000000   0.1250000   0.0000000), wk =   0.0198020
        k(   27) = (   0.5000000   0.1500000   0.0000000), wk =   0.0198020
        k(   28) = (   0.5000000   0.1750000   0.0000000), wk =   0.0198020
        k(   29) = (   0.5000000   0.2000000   0.0000000), wk =   0.0198020
        k(   30) = (   0.5000000   0.2250000   0.0000000), wk =   0.0198020
        k(   31) = (   0.5000000   0.2500000   0.0000000), wk =   0.0198020
        k(   32) = (   0.5000000   0.2750000   0.0000000), wk =   0.0198020
        k(   33) = (   0.5000000   0.3000000   0.0000000), wk =   0.0198020
        k(   34) = (   0.5000000   0.3250000   0.0000000), wk =   0.0198020
        k(   35) = (   0.5000000   0.3500000   0.0000000), wk =   0.0198020
        k(   36) = (   0.5000000   0.3750000   0.0000000), wk =   0.0198020
        k(   37) = (   0.5000000   0.4000000   0.0000000), wk =   0.0198020
        k(   38) = (   0.5000000   0.4250000   0.0000000), wk =   0.0198020
        k(   39) = (   0.5000000   0.4500000   0.0000000), wk =   0.0198020
        k(   40) = (   0.5000000   0.4750000   0.0000000), wk =   0.0198020
        k(   41) = (   0.5000000   0.5000000   0.0000000), wk =   0.0198020
        k(   42) = (   0.5000000   0.5000000   0.0250000), wk =   0.0198020
        k(   43) = (   0.5000000   0.5000000   0.0500000), wk =   0.0198020
        k(   44) = (   0.5000000   0.5000000   0.0750000), wk =   0.0198020
        k(   45) = (   0.5000000   0.5000000   0.1000000), wk =   0.0198020
        k(   46) = (   0.5000000   0.5000000   0.1250000), wk =   0.0198020
        k(   47) = (   0.5000000   0.5000000   0.1500000), wk =   0.0198020
        k(   48) = (   0.5000000   0.5000000   0.1750000), wk =   0.0198020
        k(   49) = (   0.5000000   0.5000000   0.2000000), wk =   0.0198020
        k(   50) = (   0.5000000   0.5000000   0.2250000), wk =   0.0198020
        k(   51) = (   0.5000000   0.5000000   0.2500000), wk =   0.0198020
        k(   52) = (   0.5000000   0.5000000   0.2750000), wk =   0.0198020
        k(   53) = (   0.5000000   0.5000000   0.3000000), wk =   0.0198020
        k(   54) = (   0.5000000   0.5000000   0.3250000), wk =   0.0198020
        k(   55) = (   0.5000000   0.5000000   0.3500000), wk =   0.0198020
        k(   56) = (   0.5000000   0.5000000   0.3750000), wk =   0.0198020
        k(   57) = (   0.5000000   0.5000000   0.4000000), wk =   0.0198020
        k(   58) = (   0.5000000   0.5000000   0.4250000), wk =   0.0198020
        k(   59) = (   0.5000000   0.5000000   0.4500000), wk =   0.0198020
        k(   60) = (   0.5000000   0.5000000   0.4750000), wk =   0.0198020
        k(   61) = (   0.5000000   0.5000000   0.5000000), wk =   0.0198020
        k(   62) = (   0.4750000   0.4750000   0.5000000), wk =   0.0198020
        k(   63) = (   0.4500000   0.4500000   0.5000000), wk =   0.0198020
        k(   64) = (   0.4250000   0.4250000   0.5000000), wk =   0.0198020
        k(   65) = (   0.4000000   0.4000000   0.5000000), wk =   0.0198020
        k(   66) = (   0.3750000   0.3750000   0.5000000), wk =   0.0198020
        k(   67) = (   0.3500000   0.3500000   0.5000000), wk =   0.0198020
        k(   68) = (   0.3250000   0.3250000   0.5000000), wk =   0.0198020
        k(   69) = (   0.3000000   0.3000000   0.5000000), wk =   0.0198020
        k(   70) = (   0.2750000   0.2750000   0.5000000), wk =   0.0198020
        k(   71) = (   0.2500000   0.2500000   0.5000000), wk =   0.0198020
        k(   72) = (   0.2250000   0.2250000   0.5000000), wk =   0.0198020
        k(   73) = (   0.2000000   0.2000000   0.5000000), wk =   0.0198020
        k(   74) = (   0.1750000   0.1750000   0.5000000), wk =   0.0198020
        k(   75) = (   0.1500000   0.1500000   0.5000000), wk =   0.0198020
        k(   76) = (   0.1250000   0.1250000   0.5000000), wk =   0.0198020
        k(   77) = (   0.1000000   0.1000000   0.5000000), wk =   0.0198020
        k(   78) = (   0.0750000   0.0750000   0.5000000), wk =   0.0198020
        k(   79) = (   0.0500000   0.0500000   0.5000000), wk =   0.0198020
        k(   80) = (   0.0250000   0.0250000   0.5000000), wk =   0.0198020
        k(   81) = (   0.0000000   0.0000000   0.5000000), wk =   0.0198020
        k(   82) = (   0.0000000   0.0000000   0.4750000), wk =   0.0198020
        k(   83) = (   0.0000000   0.0000000   0.4500000), wk =   0.0198020
        k(   84) = (   0.0000000   0.0000000   0.4250000), wk =   0.0198020
        k(   85) = (   0.0000000   0.0000000   0.4000000), wk =   0.0198020
        k(   86) = (   0.0000000   0.0000000   0.3750000), wk =   0.0198020
        k(   87) = (   0.0000000   0.0000000   0.3500000), wk =   0.0198020
        k(   88) = (   0.0000000   0.0000000   0.3250000), wk =   0.0198020
        k(   89) = (   0.0000000   0.0000000   0.3000000), wk =   0.0198020
        k(   90) = (   0.0000000   0.0000000   0.2750000), wk =   0.0198020
        k(   91) = (   0.0000000   0.0000000   0.2500000), wk =   0.0198020
        k(   92) = (   0.0000000   0.0000000   0.2250000), wk =   0.0198020
        k(   93) = (   0.0000000   0.0000000   0.2000000), wk =   0.0198020
        k(   94) = (   0.0000000   0.0000000   0.1750000), wk =   0.0198020
        k(   95) = (   0.0000000   0.0000000   0.1500000), wk =   0.0198020
        k(   96) = (   0.0000000   0.0000000   0.1250000), wk =   0.0198020
        k(   97) = (   0.0000000   0.0000000   0.1000000), wk =   0.0198020
        k(   98) = (   0.0000000   0.0000000   0.0750000), wk =   0.0198020
        k(   99) = (   0.0000000   0.0000000   0.0500000), wk =   0.0198020
        k(  100) = (   0.0000000   0.0000000   0.0250000), wk =   0.0198020
        k(  101) = (   0.0000000   0.0000000   0.0000000), wk =   0.0198020

     Dense  grid:   206349 G-vectors     FFT dimensions: (  50,  60, 144)

     Smooth grid:    72899 G-vectors     FFT dimensions: (  36,  40, 100)

     Dynamical RAM for                 wfc:       1.74 MB

     Dynamical RAM for     wfc (w. buffer):       1.74 MB

     Dynamical RAM for           str. fact:       0.79 MB

     Dynamical RAM for           local pot:       0.00 MB

     Dynamical RAM for          nlocal pot:       2.50 MB

     Dynamical RAM for                qrad:       3.21 MB

     Dynamical RAM for          rho,v,vnew:       2.42 MB

     Dynamical RAM for           G-vectors:       1.55 MB

     Dynamical RAM for          h,s,v(r/c):       1.83 MB

     Dynamical RAM for          <psi|beta>:       0.22 MB

     Dynamical RAM for                 psi:       3.48 MB

     Dynamical RAM for                hpsi:       3.48 MB

     Dynamical RAM for                spsi:       3.48 MB

     Dynamical RAM for      wfcinit/wfcrot:       3.71 MB

     Dynamical RAM for           addusdens:      74.78 MB

     Estimated static dynamical RAM per process >      15.44 MB

     Estimated max dynamical RAM per process >      90.22 MB

     Estimated total dynamical RAM >     721.78 MB

     The potential is recalculated from file :
     ./bulk/snse.save/charge-density

     Starting wfcs are   72 randomized atomic wfcs +   28 random wfcs
     Checking if some PAW data can be deallocated... 
       PAW data deallocated on    4 nodes for type:  1
       PAW data deallocated on    4 nodes for type:  2

     Band Structure Calculation
     Davidson diagonalization with overlap

     Computing kpt #:     1  of   101
     total cpu time spent up to now is       49.3 secs

     Computing kpt #:     2  of   101
     total cpu time spent up to now is      100.5 secs

     Computing kpt #:     3  of   101
     total cpu time spent up to now is      150.8 secs

     Computing kpt #:     4  of   101
     total cpu time spent up to now is      206.4 secs

     Computing kpt #:     5  of   101
     total cpu time spent up to now is      261.3 secs

     Computing kpt #:     6  of   101
     total cpu time spent up to now is      312.7 secs

     Computing kpt #:     7  of   101
     total cpu time spent up to now is      367.4 secs

     Computing kpt #:     8  of   101
     total cpu time spent up to now is      421.7 secs

     Computing kpt #:     9  of   101
     total cpu time spent up to now is      465.5 secs

     Computing kpt #:    10  of   101
     total cpu time spent up to now is      514.6 secs

     Computing kpt #:    11  of   101
     total cpu time spent up to now is      561.0 secs

     Computing kpt #:    12  of   101
     total cpu time spent up to now is      611.6 secs

     Computing kpt #:    13  of   101
     total cpu time spent up to now is      661.8 secs

     Computing kpt #:    14  of   101
     total cpu time spent up to now is      709.6 secs

     Computing kpt #:    15  of   101
     total cpu time spent up to now is      763.3 secs

     Computing kpt #:    16  of   101
     total cpu time spent up to now is      813.3 secs

     Computing kpt #:    17  of   101
     total cpu time spent up to now is      864.5 secs

     Computing kpt #:    18  of   101
     total cpu time spent up to now is      924.9 secs

     Computing kpt #:    19  of   101
     total cpu time spent up to now is      981.0 secs

     Computing kpt #:    20  of   101
     total cpu time spent up to now is     1027.9 secs

     Computing kpt #:    21  of   101
     total cpu time spent up to now is     1077.1 secs

     Computing kpt #:    22  of   101
     total cpu time spent up to now is     1122.0 secs

     Computing kpt #:    23  of   101
     total cpu time spent up to now is     1171.9 secs

     Computing kpt #:    24  of   101
     total cpu time spent up to now is     1222.0 secs

     Computing kpt #:    25  of   101
     total cpu time spent up to now is     1267.9 secs

     Computing kpt #:    26  of   101
     total cpu time spent up to now is     1311.4 secs

     Computing kpt #:    27  of   101
     total cpu time spent up to now is     1360.2 secs

     Computing kpt #:    28  of   101
     total cpu time spent up to now is     1408.0 secs

     Computing kpt #:    29  of   101
     total cpu time spent up to now is     1463.8 secs

     Computing kpt #:    30  of   101
     total cpu time spent up to now is     1517.5 secs

     Computing kpt #:    31  of   101
     total cpu time spent up to now is     1580.6 secs

     Computing kpt #:    32  of   101
     total cpu time spent up to now is     1643.7 secs

     Computing kpt #:    33  of   101
     total cpu time spent up to now is     1695.5 secs

     Computing kpt #:    34  of   101
     total cpu time spent up to now is     1746.7 secs

     Computing kpt #:    35  of   101
     total cpu time spent up to now is     1795.4 secs

     Computing kpt #:    36  of   101
     total cpu time spent up to now is     1849.8 secs

     Computing kpt #:    37  of   101
     total cpu time spent up to now is     1905.5 secs

     Computing kpt #:    38  of   101
     total cpu time spent up to now is     1962.6 secs

     Computing kpt #:    39  of   101
     total cpu time spent up to now is     2020.9 secs

     Computing kpt #:    40  of   101
     total cpu time spent up to now is     2076.9 secs

     Computing kpt #:    41  of   101
     total cpu time spent up to now is     2130.1 secs

     Computing kpt #:    42  of   101
     total cpu time spent up to now is     2184.1 secs

     Computing kpt #:    43  of   101
     total cpu time spent up to now is     2240.9 secs

     Computing kpt #:    44  of   101
     total cpu time spent up to now is     2298.0 secs

     Computing kpt #:    45  of   101
     total cpu time spent up to now is     2347.5 secs

     Computing kpt #:    46  of   101
     total cpu time spent up to now is     2393.5 secs

     Computing kpt #:    47  of   101
     total cpu time spent up to now is     2448.7 secs

     Computing kpt #:    48  of   101
     total cpu time spent up to now is     2495.4 secs

     Computing kpt #:    49  of   101
     total cpu time spent up to now is     2546.1 secs

     Computing kpt #:    50  of   101
     total cpu time spent up to now is     2589.9 secs

     Computing kpt #:    51  of   101
     total cpu time spent up to now is     2642.9 secs

     Computing kpt #:    52  of   101
     total cpu time spent up to now is     2701.2 secs

     Computing kpt #:    53  of   101
     total cpu time spent up to now is     2750.2 secs

     Computing kpt #:    54  of   101
     total cpu time spent up to now is     2815.9 secs

     Computing kpt #:    55  of   101
     total cpu time spent up to now is     2895.5 secs

     Computing kpt #:    56  of   101
     total cpu time spent up to now is     2978.2 secs

     Computing kpt #:    57  of   101
     total cpu time spent up to now is     3070.7 secs

     Computing kpt #:    58  of   101
     total cpu time spent up to now is     3172.5 secs

     Computing kpt #:    59  of   101
     total cpu time spent up to now is     3253.6 secs

     Computing kpt #:    60  of   101
     total cpu time spent up to now is     3328.2 secs

     Computing kpt #:    61  of   101
     total cpu time spent up to now is     3396.6 secs

     Computing kpt #:    62  of   101
     total cpu time spent up to now is     3486.3 secs

     Computing kpt #:    63  of   101
     total cpu time spent up to now is     3582.9 secs

     Computing kpt #:    64  of   101
     total cpu time spent up to now is     3665.2 secs

     Computing kpt #:    65  of   101
     total cpu time spent up to now is     3731.8 secs

     Computing kpt #:    66  of   101
     total cpu time spent up to now is     3800.8 secs

     Computing kpt #:    67  of   101
     total cpu time spent up to now is     3851.3 secs

     Computing kpt #:    68  of   101
     total cpu time spent up to now is     3914.0 secs

     Computing kpt #:    69  of   101
     total cpu time spent up to now is     3982.3 secs

     Computing kpt #:    70  of   101
     total cpu time spent up to now is     4046.5 secs

     Computing kpt #:    71  of   101
     total cpu time spent up to now is     4102.8 secs

     Computing kpt #:    72  of   101
     total cpu time spent up to now is     4154.2 secs

     Computing kpt #:    73  of   101
     total cpu time spent up to now is     4214.0 secs

     Computing kpt #:    74  of   101
     total cpu time spent up to now is     4263.3 secs

     Computing kpt #:    75  of   101
     total cpu time spent up to now is     4320.7 secs

     Computing kpt #:    76  of   101
     total cpu time spent up to now is     4370.6 secs

     Computing kpt #:    77  of   101
     total cpu time spent up to now is     4421.5 secs

     Computing kpt #:    78  of   101
     total cpu time spent up to now is     4471.5 secs

     Computing kpt #:    79  of   101
     total cpu time spent up to now is     4522.0 secs

     Computing kpt #:    80  of   101
     total cpu time spent up to now is     4573.6 secs

     Computing kpt #:    81  of   101
     total cpu time spent up to now is     4619.1 secs

     Computing kpt #:    82  of   101
     total cpu time spent up to now is     4670.6 secs

     Computing kpt #:    83  of   101
     total cpu time spent up to now is     4716.2 secs

     Computing kpt #:    84  of   101
     total cpu time spent up to now is     4763.3 secs

     Computing kpt #:    85  of   101
     total cpu time spent up to now is     4810.3 secs

     Computing kpt #:    86  of   101
     total cpu time spent up to now is     4854.5 secs

     Computing kpt #:    87  of   101
     total cpu time spent up to now is     4899.0 secs

     Computing kpt #:    88  of   101
     total cpu time spent up to now is     4944.9 secs

     Computing kpt #:    89  of   101
     total cpu time spent up to now is     4993.0 secs

     Computing kpt #:    90  of   101
     total cpu time spent up to now is     5037.1 secs

     Computing kpt #:    91  of   101
     total cpu time spent up to now is     5084.2 secs

     Computing kpt #:    92  of   101
     total cpu time spent up to now is     5127.1 secs

     Computing kpt #:    93  of   101
     total cpu time spent up to now is     5173.7 secs

     Computing kpt #:    94  of   101
     total cpu time spent up to now is     5216.9 secs

     Computing kpt #:    95  of   101
     total cpu time spent up to now is     5270.1 secs

     Computing kpt #:    96  of   101
     total cpu time spent up to now is     5314.1 secs

     Computing kpt #:    97  of   101
     total cpu time spent up to now is     5359.5 secs

     Computing kpt #:    98  of   101
     total cpu time spent up to now is     5405.7 secs

     Computing kpt #:    99  of   101
     total cpu time spent up to now is     5454.0 secs

     Computing kpt #:   100  of   101
     total cpu time spent up to now is     5502.7 secs

     Computing kpt #:   101  of   101
     total cpu time spent up to now is     5554.2 secs

     ethr =  8.33E-12,  avg # of iterations = 40.4

     total cpu time spent up to now is     5554.2 secs

     End of band structure calculation

          k = 0.0000 0.0000 0.0000 (  9087 PWs)   bands (ev):

   -39.3310 -39.3309 -39.3308 -39.3307 -39.3300 -39.3296 -39.3294 -39.3294
   -39.3007 -39.3005 -39.3003 -39.3003 -39.2970 -39.2969 -39.2969 -39.2965
   -39.2882 -39.2878 -39.2877 -39.2874 -13.3006 -13.2906 -13.2863 -13.2810
   -13.2804 -13.2773 -13.2764 -13.2734 -13.2601 -13.2586 -13.2575 -13.2515
   -13.2480 -13.2465 -13.2270 -13.2268 -13.2202 -13.2196 -13.2188 -13.2124
    -5.5892  -5.3235  -4.6035  -4.2384   0.8247   1.6903   2.4946   3.0667
     3.4245   4.6813   4.9647   4.9730   4.9964   5.3863   6.0404   6.2125
     6.5641   7.0918   7.2634   7.7390   8.9430  10.5581  10.6733  10.7534
    10.9912  11.4189  11.5547  12.3864  12.5901  12.9007  13.3381  13.7905
    14.0041  14.3674  14.7455  15.1656  15.3198  16.2026  16.2223  16.5184
    16.5485  16.6121  16.8044  17.1200  17.4425  17.5431  18.1069  18.1874
    18.5673  18.7905  19.1037  19.3054  20.1069  20.2911  20.5445  20.7195
    21.8015  22.1174  23.1584  23.2098

          k = 0.0250 0.0000 0.0000 (  9095 PWs)   bands (ev):

   -39.3311 -39.3310 -39.3308 -39.3307 -39.3299 -39.3296 -39.3296 -39.3295
   -39.3007 -39.3004 -39.3004 -39.3002 -39.2972 -39.2970 -39.2969 -39.2966
   -39.2880 -39.2879 -39.2877 -39.2875 -13.3005 -13.2905 -13.2862 -13.2810
   -13.2804 -13.2773 -13.2765 -13.2735 -13.2600 -13.2586 -13.2575 -13.2516
   -13.2479 -13.2465 -13.2270 -13.2267 -13.2204 -13.2195 -13.2187 -13.2124
    -5.5858  -5.3205  -4.6018  -4.2378   0.8216   1.6843   2.4915   3.0509
     3.4257   4.6858   4.9324   4.9764   5.0280   5.3786   6.0427   6.2144
     6.5555   7.1006   7.2645   7.7372   8.9476  10.5702  10.6862  10.7717
    10.9687  11.3924  11.5610  12.3501  12.5556  12.9197  13.3474  13.7651
    14.0103  14.3663  14.7061  15.1199  15.2878  16.2181  16.2199  16.4502
    16.6316  16.6517  16.8764  17.1620  17.4687  17.5631  18.0792  18.2162
    18.5277  18.8353  19.1388  19.3717  20.0947  20.1633  20.4482  20.9344
    21.8836  22.0832  23.1276  23.2315

          k = 0.0500 0.0000 0.0000 (  9089 PWs)   bands (ev):

   -39.3310 -39.3309 -39.3308 -39.3307 -39.3298 -39.3297 -39.3295 -39.3294
   -39.3006 -39.3004 -39.3004 -39.3004 -39.2971 -39.2970 -39.2968 -39.2966
   -39.2880 -39.2878 -39.2877 -39.2876 -13.3001 -13.2903 -13.2858 -13.2811
   -13.2803 -13.2774 -13.2768 -13.2736 -13.2600 -13.2588 -13.2573 -13.2520
   -13.2476 -13.2466 -13.2272 -13.2265 -13.2207 -13.2194 -13.2186 -13.2123
    -5.5756  -5.3115  -4.5968  -4.2361   0.8125   1.6666   2.4819   3.0040
     3.4295   4.6992   4.8884   4.9864   5.0707   5.3564   6.0497   6.2202
     6.5310   7.1264   7.2675   7.7312   8.9611  10.6035  10.7235  10.8248
    10.8898  11.3354  11.5805  12.2519  12.4588  12.9626  13.3657  13.6932
    14.0330  14.3564  14.5957  15.0071  15.2030  16.2174  16.2609  16.4101
    16.7070  16.7913  17.0409  17.2556  17.5448  17.6335  18.0316  18.3053
    18.4483  18.9627  19.2367  19.5116  19.8185  20.2217  20.3209  21.2890
    21.8662  22.2044  23.0322  23.2772

          k = 0.0750 0.0000 0.0000 (  9079 PWs)   bands (ev):

   -39.3309 -39.3309 -39.3308 -39.3307 -39.3298 -39.3297 -39.3295 -39.3294
   -39.3006 -39.3005 -39.3004 -39.3002 -39.2970 -39.2969 -39.2968 -39.2967
   -39.2880 -39.2879 -39.2876 -39.2875 -13.2995 -13.2901 -13.2852 -13.2813
   -13.2800 -13.2776 -13.2772 -13.2739 -13.2599 -13.2589 -13.2570 -13.2526
   -13.2472 -13.2466 -13.2275 -13.2263 -13.2213 -13.2193 -13.2184 -13.2122
    -5.5587  -5.2965  -4.5885  -4.2334   0.7975   1.6376   2.4648   2.9284
     3.4369   4.7214   4.8452   5.0031   5.1137   5.3223   6.0614   6.2295
     6.4939   7.1675   7.2720   7.7191   8.9829  10.6492  10.7405  10.7803
    10.9071  11.2834  11.6147  12.1156  12.3156  13.0027  13.3732  13.5867
    14.0801  14.3246  14.4328  14.8751  15.0883  16.2182  16.3253  16.4116
    16.8398  16.9392  17.2174  17.3151  17.6653  17.7842  18.0559  18.3810
    18.4577  19.1560  19.3849  19.4281  19.8316  19.9465  20.5537  21.6677
    21.6846  22.5009  22.8722  23.3214

          k = 0.1000 0.0000 0.0000 (  9083 PWs)   bands (ev):

   -39.3310 -39.3309 -39.3309 -39.3308 -39.3298 -39.3296 -39.3295 -39.3295
   -39.3005 -39.3005 -39.3004 -39.3003 -39.2970 -39.2970 -39.2968 -39.2968
   -39.2879 -39.2879 -39.2876 -39.2875 -13.2986 -13.2897 -13.2843 -13.2817
   -13.2794 -13.2779 -13.2778 -13.2744 -13.2597 -13.2591 -13.2566 -13.2532
   -13.2468 -13.2468 -13.2279 -13.2259 -13.2220 -13.2191 -13.2181 -13.2121
    -5.5352  -5.2758  -4.5774  -4.2301   0.7766   1.5978   2.4388   2.8273
     3.4491   4.7524   4.8053   5.0264   5.1568   5.2804   6.0778   6.2417
     6.4489   7.2215   7.2771   7.6988   9.0123  10.5333  10.6925  10.8474
    11.0086  11.2404  11.6658  11.9653  12.1462  13.0234  13.3533  13.4607
    14.1556  14.2400  14.2628  14.7649  14.9643  16.2152  16.4074  16.4480
    17.0100  17.0828  17.2818  17.3621  17.8255  18.0344  18.2179  18.3371
    18.6705  19.2081  19.3982  19.5747  19.6647  20.0622  20.8354  21.4735
    22.0500  22.6626  22.8072  23.1720

          k = 0.1250 0.0000 0.0000 (  9087 PWs)   bands (ev):

   -39.3311 -39.3310 -39.3309 -39.3309 -39.3297 -39.3296 -39.3295 -39.3295
   -39.3005 -39.3005 -39.3004 -39.3003 -39.2971 -39.2970 -39.2970 -39.2968
   -39.2879 -39.2879 -39.2876 -39.2875 -13.2976 -13.2894 -13.2833 -13.2823
   -13.2787 -13.2785 -13.2781 -13.2749 -13.2596 -13.2594 -13.2561 -13.2539
   -13.2469 -13.2463 -13.2284 -13.2254 -13.2229 -13.2188 -13.2178 -13.2120
    -5.5053  -5.2494  -4.5636  -4.2265   0.7503   1.5484   2.4023   2.7046
     3.4676   4.7710   4.7920   5.0559   5.2003   5.2349   6.0989   6.2552
     6.4020   7.2822   7.2855   7.6682   9.0484  10.2925  10.7135  10.9098
    11.1141  11.1917  11.7312  11.8222  11.9757  13.0231  13.3005  13.3307
    14.0404  14.1740  14.2576  14.7024  14.8454  16.1939  16.5022  16.5047
    17.1830  17.2039  17.2226  17.4966  18.0235  18.2713  18.3564  18.4781
    18.9341  19.0955  19.4029  19.6750  19.7995  20.3204  21.1428  21.2582
    22.4027  22.4298  22.9284  23.0191

          k = 0.1500 0.0000 0.0000 (  9081 PWs)   bands (ev):

   -39.3311 -39.3309 -39.3309 -39.3309 -39.3296 -39.3295 -39.3295 -39.3294
   -39.3005 -39.3005 -39.3004 -39.3003 -39.2970 -39.2969 -39.2969 -39.2968
   -39.2879 -39.2878 -39.2876 -39.2875 -13.2964 -13.2892 -13.2829 -13.2821
   -13.2794 -13.2781 -13.2779 -13.2755 -13.2596 -13.2594 -13.2555 -13.2547
   -13.2471 -13.2458 -13.2290 -13.2248 -13.2240 -13.2185 -13.2174 -13.2119
    -5.4691  -5.2177  -4.5477  -4.2232   0.7190   1.4908   2.3541   2.5646
     3.4940   4.7445   4.8400   5.0913   5.1904   5.2442   6.1243   6.2657
     6.3614   7.2863   7.3565   7.6262   9.0904  10.0359  10.6917  10.9448
    11.1249  11.2029  11.7018  11.7432  11.8950  13.0062  13.2052  13.2232
    13.8626  14.0719  14.3842  14.6968  14.7403  16.1401  16.5635  16.6032
    17.1409  17.3186  17.3706  17.6531  18.1317  18.2570  18.7028  18.7834
    19.1587  19.2025  19.2364  19.9756  20.0529  20.5853  21.0506  21.4429
    22.2132  22.5129  22.6921  23.0280

          k = 0.1750 0.0000 0.0000 (  9077 PWs)   bands (ev):

   -39.3310 -39.3309 -39.3309 -39.3308 -39.3296 -39.3295 -39.3295 -39.3294
   -39.3005 -39.3004 -39.3003 -39.3002 -39.2970 -39.2969 -39.2969 -39.2968
   -39.2879 -39.2877 -39.2876 -39.2875 -13.2951 -13.2891 -13.2836 -13.2812
   -13.2800 -13.2780 -13.2770 -13.2761 -13.2599 -13.2593 -13.2554 -13.2548
   -13.2473 -13.2453 -13.2296 -13.2252 -13.2242 -13.2181 -13.2170 -13.2118
    -5.4270  -5.1811  -4.5303  -4.2207   0.6834   1.4270   2.2933   2.4115
     3.5295   4.7272   4.8961   5.1322   5.1507   5.2883   6.1537   6.2604
     6.3431   7.2885   7.4313   7.5728   9.1377   9.7752  10.6173  10.9242
    11.0356  11.2518  11.6055  11.6442  11.9821  12.9737  13.0750  13.1399
    13.7499  13.9779  14.5379  14.6546  14.7455  16.0494  16.6119  16.7050
    17.1185  17.4059  17.5082  17.8016  17.9797  18.5211  18.9214  19.1040
    19.2419  19.3604  19.5650  20.2910  20.3273  20.8482  20.8586  21.6166
    22.1383  22.2982  22.4723  22.9835

          k = 0.2000 0.0000 0.0000 (  9075 PWs)   bands (ev):

   -39.3311 -39.3310 -39.3308 -39.3308 -39.3295 -39.3295 -39.3294 -39.3293
   -39.3006 -39.3005 -39.3004 -39.3001 -39.2972 -39.2969 -39.2967 -39.2967
   -39.2879 -39.2876 -39.2876 -39.2876 -13.2937 -13.2892 -13.2844 -13.2818
   -13.2791 -13.2776 -13.2767 -13.2761 -13.2600 -13.2592 -13.2561 -13.2541
   -13.2476 -13.2448 -13.2304 -13.2265 -13.2235 -13.2177 -13.2165 -13.2117
    -5.3792  -5.1398  -4.5120  -4.2198   0.6447   1.3590   2.2201   2.2491
     3.5748   4.7202   4.9598   5.1197   5.1776   5.3319   6.1864   6.2353
     6.3526   7.2881   7.5065   7.5092   9.1895   9.5190  10.4982  10.8306
    10.9253  11.2444  11.5186  11.5804  12.0912  12.9162  12.9223  13.0690
    13.7500  13.9189  14.5919  14.7245  14.8415  15.9304  16.6478  16.8043
    17.1382  17.4455  17.4889  17.8771  18.0119  18.8061  18.9917  19.4185
    19.5903  19.6393  19.9079  20.6099  20.6129  20.6908  21.0985  21.5277
    22.0429  22.2797  22.3540  22.8651

          k = 0.2250 0.0000 0.0000 (  9078 PWs)   bands (ev):

   -39.3312 -39.3309 -39.3308 -39.3308 -39.3295 -39.3294 -39.3294 -39.3293
   -39.3006 -39.3005 -39.3004 -39.3002 -39.2973 -39.2968 -39.2968 -39.2967
   -39.2878 -39.2877 -39.2876 -39.2876 -13.2924 -13.2895 -13.2852 -13.2828
   -13.2776 -13.2772 -13.2769 -13.2751 -13.2602 -13.2592 -13.2569 -13.2533
   -13.2480 -13.2443 -13.2311 -13.2279 -13.2228 -13.2173 -13.2160 -13.2116
    -5.3262  -5.0944  -4.4937  -4.2213   0.6042   1.2896   2.0811   2.1355
     3.6302   4.7237   5.0286   5.1016   5.2267   5.3738   6.2060   6.2217
     6.3748   7.2843   7.4375   7.5770   9.2449   9.2753  10.3521  10.6783
    10.7997  11.1798  11.4229  11.5595  12.1771  12.7245  12.8487  13.0201
    13.8733  13.9238  14.5562  14.9486  14.9779  15.7978  16.6710  16.8998
    17.1913  17.3182  17.4077  17.9010  18.2434  19.0977  19.1653  19.7031
    19.9573  19.9771  20.2521  20.5629  20.8561  20.9312  21.2991  21.4135
    21.8379  22.1292  22.6711  22.7238

          k = 0.2500 0.0000 0.0000 (  9098 PWs)   bands (ev):

   -39.3313 -39.3311 -39.3309 -39.3308 -39.3295 -39.3294 -39.3294 -39.3293
   -39.3006 -39.3005 -39.3004 -39.3004 -39.2974 -39.2971 -39.2969 -39.2967
   -39.2879 -39.2878 -39.2878 -39.2876 -13.2912 -13.2899 -13.2860 -13.2840
   -13.2777 -13.2762 -13.2761 -13.2741 -13.2602 -13.2592 -13.2575 -13.2524
   -13.2484 -13.2438 -13.2319 -13.2294 -13.2220 -13.2169 -13.2155 -13.2116
    -5.2684  -5.0454  -4.4761  -4.2259   0.5634   1.2214   1.9106   2.0410
     3.6955   4.7373   5.0754   5.1249   5.2783   5.4125   6.1789   6.2586
     6.4026   7.2763   7.3610   7.6357   9.0537   9.3026  10.1950  10.4959
    10.6657  11.0704  11.3107  11.5556  12.2193  12.5151  12.7520  12.9917
    14.0086  14.0954  14.5551  15.1481  15.2107  15.6641  16.6648  16.9908
    17.1522  17.2691  17.2740  17.9534  18.5380  19.3757  19.4009  19.9205
    20.2815  20.2830  20.5598  20.5798  20.9364  21.2303  21.3139  21.5152
    21.8425  22.0429  22.5823  22.9918

          k = 0.2750 0.0000 0.0000 (  9082 PWs)   bands (ev):

   -39.3311 -39.3310 -39.3308 -39.3308 -39.3296 -39.3293 -39.3293 -39.3292
   -39.3005 -39.3005 -39.3004 -39.3003 -39.2973 -39.2971 -39.2967 -39.2967
   -39.2878 -39.2878 -39.2878 -39.2877 -13.2904 -13.2902 -13.2868 -13.2852
   -13.2779 -13.2751 -13.2747 -13.2733 -13.2602 -13.2592 -13.2582 -13.2515
   -13.2489 -13.2433 -13.2327 -13.2309 -13.2212 -13.2164 -13.2150 -13.2116
    -5.2062  -4.9935  -4.4602  -4.2346   0.5244   1.1571   1.7407   1.9389
     3.7703   4.7597   5.0855   5.2048   5.3309   5.4461   6.1537   6.2961
     6.4347   7.2636   7.2833   7.6707   8.8678   9.3608  10.0379  10.3036
    10.5306  10.9333  11.1853  11.5456  12.2224  12.3026  12.6348  12.9762
    14.1556  14.3880  14.6080  15.3448  15.5072  15.5383  16.5858  17.0742
    17.0771  17.0799  17.3656  18.0486  18.8514  19.6138  19.6143  20.0138
    20.3528  20.5487  20.8397  20.8601  20.9297  21.2128  21.4959  21.8164
    22.0453  22.0487  22.4669  22.9226

          k = 0.3000 0.0000 0.0000 (  9092 PWs)   bands (ev):

   -39.3311 -39.3311 -39.3308 -39.3308 -39.3297 -39.3294 -39.3294 -39.3293
   -39.3005 -39.3005 -39.3004 -39.3003 -39.2973 -39.2970 -39.2968 -39.2968
   -39.2878 -39.2878 -39.2878 -39.2877 -13.2910 -13.2896 -13.2876 -13.2864
   -13.2778 -13.2740 -13.2733 -13.2725 -13.2601 -13.2593 -13.2588 -13.2505
   -13.2494 -13.2428 -13.2335 -13.2324 -13.2203 -13.2159 -13.2145 -13.2116
    -5.1404  -4.9393  -4.4470  -4.2479   0.4892   1.0994   1.5739   1.8316
     3.8537   4.7888   5.1029   5.2969   5.3827   5.4729   6.1280   6.3329
     6.4711   7.2085   7.2457   7.6660   8.7353   9.4166   9.8877  10.1127
    10.4009  10.7833  11.0556  11.5123  12.0963  12.2116  12.5013  12.9644
    14.3041  14.7299  14.7582  15.4263  15.5596  15.8304  16.4312  16.8614
    17.1008  17.1579  17.4774  18.1751  19.1611  19.7287  19.7885  19.9576
    20.4398  20.5788  20.9908  21.0425  21.1601  21.3136  21.7550  22.1244
    22.1784  22.3109  22.4073  22.9769

          k = 0.3250 0.0000 0.0000 (  9088 PWs)   bands (ev):

   -39.3311 -39.3311 -39.3308 -39.3307 -39.3295 -39.3293 -39.3293 -39.3293
   -39.3005 -39.3005 -39.3004 -39.3003 -39.2973 -39.2970 -39.2967 -39.2967
   -39.2879 -39.2878 -39.2877 -39.2877 -13.2916 -13.2892 -13.2883 -13.2875
   -13.2773 -13.2729 -13.2720 -13.2717 -13.2598 -13.2594 -13.2593 -13.2500
   -13.2495 -13.2423 -13.2343 -13.2339 -13.2195 -13.2155 -13.2141 -13.2116
    -5.0715  -4.8837  -4.4375  -4.2668   0.4600   1.0508   1.4124   1.7217
     3.9449   4.8214   5.1317   5.3959   5.4315   5.4920   6.0989   6.3674
     6.5124   7.1403   7.2226   7.6091   8.6704   9.4656   9.7482   9.9301
    10.2824  10.6326  10.9314  11.4463  11.9030  12.2120  12.3566  12.9496
    14.4116  15.0256  15.1039  15.3336  15.7821  16.1657  16.2520  16.6371
    17.1945  17.2322  17.6023  18.3261  19.4454  19.7479  19.8082  19.8880
    20.4106  20.5595  21.0916  21.0988  21.4404  21.6081  22.0643  22.2346
    22.4098  22.5540  22.5974  23.1697

          k = 0.3500 0.0000 0.0000 (  9084 PWs)   bands (ev):

   -39.3311 -39.3310 -39.3308 -39.3307 -39.3294 -39.3294 -39.3294 -39.3291
   -39.3006 -39.3006 -39.3005 -39.3003 -39.2971 -39.2971 -39.2968 -39.2966
   -39.2878 -39.2877 -39.2877 -39.2876 -13.2921 -13.2892 -13.2890 -13.2887
   -13.2766 -13.2718 -13.2712 -13.2709 -13.2597 -13.2596 -13.2595 -13.2507
   -13.2486 -13.2418 -13.2353 -13.2350 -13.2186 -13.2150 -13.2137 -13.2118
    -5.0003  -4.8274  -4.4325  -4.2917   0.4390   1.0132   1.2584   1.6120
     4.0428   4.8529   5.1711   5.4748   5.5009   5.5042   6.0635   6.3975
     6.5585   7.0815   7.1943   7.5051   8.6701   9.5017   9.6219   9.7609
    10.1799  10.4909  10.8211  11.3500  11.7289  12.2057  12.2343  12.9275
    14.4997  15.2517  15.3695  15.5092  15.9987  16.0635  16.4196  16.5057
    17.2993  17.3427  17.7390  18.4964  19.6242  19.6728  19.7251  19.9255
    20.2063  20.6158  21.0576  21.1721  21.7018  21.9347  22.3367  22.4006
    22.4498  22.8896  22.9033  23.4318

          k = 0.3750 0.0000 0.0000 (  9084 PWs)   bands (ev):

   -39.3311 -39.3310 -39.3309 -39.3308 -39.3293 -39.3293 -39.3292 -39.3291
   -39.3006 -39.3005 -39.3005 -39.3004 -39.2971 -39.2970 -39.2969 -39.2969
   -39.2878 -39.2877 -39.2877 -39.2875 -13.2926 -13.2897 -13.2896 -13.2894
   -13.2757 -13.2708 -13.2708 -13.2698 -13.2601 -13.2598 -13.2590 -13.2514
   -13.2476 -13.2414 -13.2367 -13.2358 -13.2178 -13.2145 -13.2133 -13.2119
    -4.9277  -4.7716  -4.4330  -4.3230   0.4282   0.9884   1.1138   1.5048
     4.1460   4.8765   5.2194   5.5100   5.5133   5.6112   6.0201   6.4202
     6.6090   7.0331   7.1614   7.3750   8.7166   9.5101   9.5166   9.6091
    10.0974  10.3666  10.7319  11.2346  11.5809  12.0532  12.2767  12.8964
    14.5901  15.2000  15.7509  15.8901  15.9172  16.1243  16.2889  16.8068
    17.3596  17.5577  17.8864  18.6760  19.4363  19.6886  19.7652  19.9262
    20.0596  20.5819  20.9606  21.1896  21.9205  22.2133  22.3348  22.4378
    22.8556  22.9966  23.2093  23.3773

          k = 0.4000 0.0000 0.0000 (  9078 PWs)   bands (ev):

   -39.3310 -39.3309 -39.3309 -39.3308 -39.3293 -39.3292 -39.3292 -39.3290
   -39.3005 -39.3004 -39.3004 -39.3004 -39.2970 -39.2969 -39.2969 -39.2968
   -39.2878 -39.2877 -39.2877 -39.2876 -13.2930 -13.2906 -13.2900 -13.2897
   -13.2748 -13.2705 -13.2699 -13.2690 -13.2604 -13.2600 -13.2584 -13.2521
   -13.2466 -13.2409 -13.2380 -13.2365 -13.2169 -13.2141 -13.2131 -13.2122
    -4.8544  -4.7171  -4.4395  -4.3610   0.4296   0.9777   0.9801   1.4026
     4.2530   4.8840   5.2741   5.5259   5.5342   5.7262   5.9682   6.4302
     6.6626   6.9941   7.1252   7.2422   8.7917   9.4138   9.4787   9.5025
    10.0379  10.2654  10.6687  11.1118  11.4660  11.9036  12.3333  12.8557
    14.6909  15.1693  15.7306  15.9590  16.1426  16.3254  16.4399  17.0483
    17.4189  17.8506  18.0434  18.8385  19.2622  19.6425  19.6492  19.9125
    20.0329  20.4953  20.8379  21.1087  21.8673  22.3439  22.4601  22.4814
    22.8402  23.2550  23.2630  23.6002

          k = 0.4250 0.0000 0.0000 (  9098 PWs)   bands (ev):

   -39.3312 -39.3310 -39.3310 -39.3309 -39.3295 -39.3293 -39.3293 -39.3290
   -39.3005 -39.3005 -39.3005 -39.3004 -39.2972 -39.2970 -39.2969 -39.2969
   -39.2879 -39.2878 -39.2877 -39.2877 -13.2932 -13.2914 -13.2904 -13.2900
   -13.2738 -13.2705 -13.2691 -13.2684 -13.2606 -13.2602 -13.2578 -13.2529
   -13.2456 -13.2404 -13.2393 -13.2371 -13.2161 -13.2137 -13.2129 -13.2125
    -4.7814  -4.6649  -4.4527  -4.4055   0.4446   0.8588   0.9818   1.3076
     4.3620   4.8680   5.3320   5.5449   5.5496   5.8449   5.9084   6.4193
     6.7170   6.9615   7.0874   7.1271   8.8832   9.3348   9.3732   9.4566
    10.0029  10.1871  10.6346  10.9913  11.3916  11.7614  12.3991  12.8058
    14.8047  15.1615  15.5879  15.7627  16.5094  16.6078  16.7147  17.2302
    17.4970  18.1976  18.2074  18.9186  19.1198  19.4581  19.6334  19.8984
    19.9653  20.4051  20.7081  20.9080  21.6854  22.3259  22.3604  22.6625
    22.7821  23.4219  23.5375  23.9666

          k = 0.4500 0.0000 0.0000 (  9110 PWs)   bands (ev):

   -39.3312 -39.3311 -39.3309 -39.3309 -39.3295 -39.3294 -39.3293 -39.3293
   -39.3005 -39.3005 -39.3005 -39.3004 -39.2971 -39.2971 -39.2969 -39.2969
   -39.2879 -39.2878 -39.2878 -39.2877 -13.2933 -13.2921 -13.2906 -13.2903
   -13.2729 -13.2707 -13.2685 -13.2680 -13.2607 -13.2604 -13.2571 -13.2538
   -13.2446 -13.2404 -13.2399 -13.2377 -13.2153 -13.2134 -13.2129 -13.2128
    -4.7098  -4.6161  -4.4726  -4.4563   0.4744   0.7513   1.0010   1.2217
     4.4705   4.8253   5.3895   5.5408   5.5887   5.8427   5.9659   6.3780
     6.7698   6.9312   7.0463   7.0509   8.9834   9.2755   9.2953   9.3835
     9.9921  10.1255  10.6307  10.8803  11.3620  11.6315  12.4698  12.7480
    14.9322  15.1769  15.4638  15.5734  16.7508  16.7881  17.0567  17.3636
    17.6445  18.3719  18.5317  18.8279  19.0361  19.3044  19.6861  19.8174
    19.8883  20.3493  20.5830  20.6014  21.5701  22.1541  22.3008  22.5312
    23.0895  23.6343  23.6689  24.2318

          k = 0.4750 0.0000 0.0000 (  9112 PWs)   bands (ev):

   -39.3312 -39.3311 -39.3310 -39.3309 -39.3294 -39.3294 -39.3294 -39.3294
   -39.3005 -39.3005 -39.3005 -39.3005 -39.2972 -39.2970 -39.2969 -39.2969
   -39.2879 -39.2879 -39.2878 -39.2878 -13.2933 -13.2927 -13.2907 -13.2906
   -13.2721 -13.2710 -13.2680 -13.2678 -13.2607 -13.2606 -13.2563 -13.2546
   -13.2437 -13.2416 -13.2394 -13.2383 -13.2146 -13.2134 -13.2131 -13.2128
    -4.6405  -4.5717  -4.5129  -4.4993   0.5199   0.6586   1.0354   1.1468
     4.5756   4.7585   5.4428   5.5214   5.6420   5.7738   6.0866   6.3030
     6.8187   6.8990   7.0068   7.0202   9.0875   9.2390   9.2470   9.2925
    10.0034  10.0744  10.6560  10.7844  11.3772  11.5195  12.5425  12.6837
    15.0733  15.2154  15.3596  15.3946  16.8602  16.9178  17.3099  17.4424
    17.9089  18.5237  18.5776  18.7036  19.0483  19.2474  19.7050  19.7772
    19.8760  20.2351  20.3436  20.4723  21.5733  21.9097  22.3183  22.4384
    23.3598  23.6455  23.9001  24.1964

          k = 0.5000 0.0000 0.0000 (  9110 PWs)   bands (ev):

   -39.3311 -39.3311 -39.3310 -39.3310 -39.3294 -39.3294 -39.3293 -39.3293
   -39.3005 -39.3005 -39.3005 -39.3005 -39.2971 -39.2971 -39.2969 -39.2969
   -39.2879 -39.2879 -39.2878 -39.2878 -13.2930 -13.2930 -13.2907 -13.2907
   -13.2715 -13.2715 -13.2678 -13.2678 -13.2607 -13.2607 -13.2555 -13.2555
   -13.2426 -13.2426 -13.2388 -13.2388 -13.2140 -13.2140 -13.2129 -13.2129
    -4.5746  -4.5746  -4.5325  -4.5325   0.5813   0.5813   1.0843   1.0843
     4.6732   4.6732   5.4879   5.4879   5.7054   5.7054   6.2019   6.2019
     6.8619   6.8619   7.0021   7.0021   9.1919   9.1919   9.2287   9.2287
    10.0325  10.0325  10.7083  10.7083  11.4322  11.4322  12.6145  12.6145
    15.2276  15.2276  15.2765  15.2765  16.9246  16.9246  17.4371  17.4371
    18.2465  18.2465  18.6505  18.6505  19.1587  19.1587  19.8449  19.8449
    19.8800  19.8800  20.3877  20.3877  21.6975  21.6975  22.3681  22.3681
    23.5558  23.5558  24.0800  24.0800

          k = 0.5000 0.0219 0.0000 (  9100 PWs)   bands (ev):

   -39.3311 -39.3311 -39.3309 -39.3309 -39.3294 -39.3294 -39.3293 -39.3293
   -39.3006 -39.3006 -39.3004 -39.3004 -39.2970 -39.2970 -39.2969 -39.2969
   -39.2879 -39.2879 -39.2877 -39.2877 -13.2931 -13.2931 -13.2907 -13.2907
   -13.2715 -13.2715 -13.2678 -13.2678 -13.2607 -13.2607 -13.2555 -13.2555
   -13.2426 -13.2426 -13.2388 -13.2388 -13.2140 -13.2140 -13.2129 -13.2129
    -4.5737  -4.5737  -4.5317  -4.5317   0.5840   0.5840   1.0857   1.0857
     4.6699   4.6699   5.4665   5.4665   5.6762   5.6762   6.2238   6.2238
     6.8353   6.8353   7.0205   7.0205   9.1369   9.1369   9.2842   9.2842
    10.0537  10.0537  10.7484  10.7484  11.4421  11.4421  12.6068  12.6068
    15.0565  15.0565  15.4561  15.4561  16.8951  16.8951  17.4523  17.4523
    18.2019  18.2019  18.7115  18.7115  19.1596  19.1596  19.8485  19.8485
    19.8895  19.8895  20.3988  20.3988  21.7039  21.7039  22.3504  22.3504
    23.5125  23.5125  24.0394  24.0394

          k = 0.5000 0.0439 0.0000 (  9092 PWs)   bands (ev):

   -39.3310 -39.3310 -39.3309 -39.3309 -39.3294 -39.3294 -39.3292 -39.3292
   -39.3006 -39.3006 -39.3004 -39.3004 -39.2969 -39.2969 -39.2968 -39.2968
   -39.2878 -39.2878 -39.2877 -39.2877 -13.2932 -13.2932 -13.2908 -13.2908
   -13.2715 -13.2715 -13.2678 -13.2678 -13.2606 -13.2606 -13.2554 -13.2554
   -13.2427 -13.2427 -13.2387 -13.2387 -13.2141 -13.2141 -13.2128 -13.2128
    -4.5709  -4.5709  -4.5293  -4.5293   0.5922   0.5922   1.0901   1.0901
     4.6592   4.6592   5.4000   5.4000   5.6135   5.6135   6.2649   6.2649
     6.7732   6.7732   7.0616   7.0616   9.0624   9.0624   9.3649   9.3649
    10.1210  10.1210  10.8570  10.8570  11.4727  11.4727  12.5843  12.5843
    14.8743  14.8743  15.6608  15.6608  16.8200  16.8200  17.4875  17.4875
    18.1175  18.1175  18.8436  18.8436  19.1630  19.1630  19.8581  19.8581
    19.9181  19.9181  20.4328  20.4328  21.7225  21.7225  22.3000  22.3000
    23.3897  23.3897  23.9271  23.9271

          k = 0.5000 0.0658 0.0000 (  9112 PWs)   bands (ev):

   -39.3311 -39.3311 -39.3309 -39.3309 -39.3294 -39.3294 -39.3293 -39.3293
   -39.3007 -39.3007 -39.3006 -39.3006 -39.2970 -39.2970 -39.2969 -39.2969
   -39.2878 -39.2878 -39.2878 -39.2878 -13.2934 -13.2934 -13.2909 -13.2909
   -13.2716 -13.2716 -13.2678 -13.2678 -13.2606 -13.2606 -13.2553 -13.2553
   -13.2427 -13.2427 -13.2385 -13.2385 -13.2142 -13.2142 -13.2127 -13.2127
    -4.5664  -4.5664  -4.5254  -4.5254   0.6058   0.6058   1.0973   1.0973
     4.6396   4.6396   5.2940   5.2940   5.5473   5.5473   6.2874   6.2874
     6.6949   6.6949   7.1147   7.1147   8.9862   8.9862   9.4666   9.4666
    10.2363  10.2363  11.0090  11.0090  11.5280  11.5280  12.5485  12.5485
    14.7043  14.7043  15.8552  15.8552  16.7288  16.7288  17.5246  17.5246
    18.0432  18.0432  18.9924  18.9924  19.1712  19.1712  19.8722  19.8722
    19.9631  19.9631  20.4925  20.4925  21.7514  21.7514  22.2238  22.2238
    23.2052  23.2052  23.7617  23.7617

          k = 0.5000 0.0878 0.0000 (  9088 PWs)   bands (ev):

   -39.3309 -39.3309 -39.3308 -39.3308 -39.3294 -39.3294 -39.3292 -39.3292
   -39.3007 -39.3007 -39.3006 -39.3006 -39.2969 -39.2969 -39.2968 -39.2968
   -39.2877 -39.2877 -39.2875 -39.2875 -13.2937 -13.2937 -13.2911 -13.2911
   -13.2716 -13.2716 -13.2677 -13.2677 -13.2605 -13.2605 -13.2552 -13.2552
   -13.2428 -13.2428 -13.2382 -13.2382 -13.2144 -13.2144 -13.2126 -13.2126
    -4.5602  -4.5602  -4.5200  -4.5200   0.6246   0.6246   1.1071   1.1071
     4.6081   4.6081   5.1677   5.1677   5.4824   5.4824   6.2691   6.2691
     6.6132   6.6132   7.1731   7.1731   8.9215   8.9215   9.5943   9.5943
    10.3931  10.3931  11.1771  11.1771  11.6158  11.6158  12.5019  12.5019
    14.5472  14.5472  16.0036  16.0036  16.6682  16.6682  17.5512  17.5512
    17.9988  17.9988  19.1245  19.1245  19.1950  19.1950  19.8906  19.8906
    20.0188  20.0188  20.5814  20.5814  21.7843  21.7843  22.1331  22.1331
    22.9800  22.9800  23.5625  23.5625

          k = 0.5000 0.1097 0.0000 (  9112 PWs)   bands (ev):

   -39.3310 -39.3310 -39.3309 -39.3309 -39.3294 -39.3294 -39.3294 -39.3294
   -39.3007 -39.3007 -39.3006 -39.3006 -39.2970 -39.2970 -39.2969 -39.2969
   -39.2878 -39.2878 -39.2877 -39.2877 -13.2941 -13.2941 -13.2913 -13.2913
   -13.2717 -13.2717 -13.2677 -13.2677 -13.2604 -13.2604 -13.2550 -13.2550
   -13.2428 -13.2428 -13.2379 -13.2379 -13.2145 -13.2145 -13.2125 -13.2125
    -4.5525  -4.5525  -4.5133  -4.5133   0.6484   0.6484   1.1193   1.1193
     4.5607   4.5607   5.0388   5.0388   5.4167   5.4167   6.2062   6.2062
     6.5360   6.5360   7.2255   7.2255   8.8836   8.8836   9.7486   9.7486
    10.5803  10.5803  11.3368  11.3368  11.7465  11.7465  12.4491  12.4491
    14.4035  14.4035  16.0413  16.0413  16.7072  16.7072  17.5641  17.5641
    17.9910  17.9910  19.1812  19.1812  19.2812  19.2812  19.9117  19.9117
    20.0785  20.0785  20.7017  20.7017  21.8012  21.8012  22.0479  22.0479
    22.7344  22.7344  23.3497  23.3497

          k = 0.5000 0.1317 0.0000 (  9118 PWs)   bands (ev):

   -39.3310 -39.3310 -39.3309 -39.3309 -39.3295 -39.3295 -39.3294 -39.3294
   -39.3009 -39.3009 -39.3005 -39.3005 -39.2970 -39.2970 -39.2969 -39.2969
   -39.2879 -39.2879 -39.2877 -39.2877 -13.2945 -13.2945 -13.2916 -13.2916
   -13.2718 -13.2718 -13.2677 -13.2677 -13.2603 -13.2603 -13.2548 -13.2548
   -13.2429 -13.2429 -13.2376 -13.2376 -13.2147 -13.2147 -13.2124 -13.2124
    -4.5433  -4.5433  -4.5055  -4.5055   0.6770   0.6770   1.1336   1.1336
     4.4937   4.4937   4.9190   4.9190   5.3495   5.3495   6.1114   6.1114
     6.4614   6.4614   7.2593   7.2593   8.8851   8.8851   9.9265   9.9265
    10.7869  10.7869  11.4766  11.4766  11.9172  11.9172  12.3990  12.3990
    14.2735  14.2735  15.9640  15.9640  16.8471  16.8471  17.5736  17.5736
    18.0172  18.0172  19.2089  19.2089  19.3773  19.3773  19.9316  19.9316
    20.1378  20.1378  20.8495  20.8495  21.7560  21.7560  22.0029  22.0029
    22.4902  22.4902  23.1493  23.1493

          k = 0.5000 0.1536 0.0000 (  9104 PWs)   bands (ev):

   -39.3309 -39.3309 -39.3308 -39.3308 -39.3294 -39.3294 -39.3293 -39.3293
   -39.3008 -39.3008 -39.3006 -39.3006 -39.2970 -39.2970 -39.2968 -39.2968
   -39.2877 -39.2877 -39.2877 -39.2877 -13.2950 -13.2950 -13.2919 -13.2919
   -13.2719 -13.2719 -13.2677 -13.2677 -13.2601 -13.2601 -13.2546 -13.2546
   -13.2429 -13.2429 -13.2372 -13.2372 -13.2148 -13.2148 -13.2122 -13.2122
    -4.5330  -4.5330  -4.4967  -4.4967   0.7101   0.7101   1.1496   1.1496
     4.4060   4.4060   4.8135   4.8135   5.2800   5.2800   6.0034   6.0034
     6.3837   6.3837   7.2675   7.2675   8.9312   8.9312  10.1231  10.1231
    11.0028  11.0028  11.6038  11.6038  12.0870  12.0870  12.3838  12.3838
    14.1577  14.1577  15.8340  15.8340  17.0106  17.0106  17.6030  17.6030
    18.0718  18.0718  19.2392  19.2392  19.4505  19.4505  19.9429  19.9429
    20.1957  20.1957  21.0107  21.0107  21.6361  21.6361  21.9778  21.9778
    22.2804  22.2804  22.9980  22.9980

          k = 0.5000 0.1756 0.0000 (  9098 PWs)   bands (ev):

   -39.3309 -39.3309 -39.3308 -39.3308 -39.3294 -39.3294 -39.3292 -39.3292
   -39.3008 -39.3008 -39.3005 -39.3005 -39.2969 -39.2969 -39.2968 -39.2968
   -39.2877 -39.2877 -39.2876 -39.2876 -13.2955 -13.2955 -13.2922 -13.2922
   -13.2720 -13.2720 -13.2676 -13.2676 -13.2600 -13.2600 -13.2544 -13.2544
   -13.2429 -13.2429 -13.2368 -13.2368 -13.2150 -13.2150 -13.2121 -13.2121
    -4.5217  -4.5217  -4.4871  -4.4871   0.7471   0.7471   1.1669   1.1669
     4.3020   4.3020   4.7217   4.7217   5.2060   5.2060   5.8973   5.8973
     6.2999   6.2999   7.2508   7.2508   9.0183   9.0183  10.3328  10.3328
    11.2178  11.2178  11.7296  11.7296  12.1529  12.1529  12.4959  12.4959
    14.0571  14.0571  15.6890  15.6890  17.1319  17.1319  17.6816  17.6816
    18.1549  18.1549  19.2733  19.2733  19.5004  19.5004  19.9357  19.9357
    20.2541  20.2541  21.1562  21.1562  21.4669  21.4669  21.8971  21.8971
    22.1603  22.1603  22.9349  22.9349

          k = 0.5000 0.1975 0.0000 (  9132 PWs)   bands (ev):

   -39.3310 -39.3310 -39.3309 -39.3309 -39.3295 -39.3295 -39.3293 -39.3293
   -39.3009 -39.3009 -39.3008 -39.3008 -39.2970 -39.2970 -39.2969 -39.2969
   -39.2878 -39.2878 -39.2877 -39.2877 -13.2960 -13.2960 -13.2925 -13.2925
   -13.2721 -13.2721 -13.2676 -13.2676 -13.2599 -13.2599 -13.2543 -13.2543
   -13.2429 -13.2429 -13.2365 -13.2365 -13.2152 -13.2152 -13.2120 -13.2120
    -4.5097  -4.5097  -4.4770  -4.4770   0.7877   0.7877   1.1849   1.1849
     4.1895   4.1895   4.6392   4.6392   5.1250   5.1250   5.8027   5.8027
     6.2115   6.2115   7.2155   7.2155   9.1371   9.1371  10.5487  10.5487
    11.4200  11.4200  11.8566  11.8566  12.1416  12.1416  12.7096  12.7096
    13.9737  13.9737  15.5455  15.5455  17.1857  17.1857  17.8098  17.8098
    18.2747  18.2747  19.3073  19.3073  19.5295  19.5295  19.9018  19.9018
    20.3152  20.3152  21.2389  21.2389  21.2699  21.2699  21.7612  21.7612
    22.1597  22.1597  22.9651  22.9651

          k = 0.5000 0.2194 0.0000 (  9124 PWs)   bands (ev):

   -39.3309 -39.3309 -39.3309 -39.3309 -39.3295 -39.3295 -39.3293 -39.3293
   -39.3009 -39.3009 -39.3007 -39.3007 -39.2970 -39.2970 -39.2969 -39.2969
   -39.2877 -39.2877 -39.2877 -39.2877 -13.2966 -13.2966 -13.2929 -13.2929
   -13.2722 -13.2722 -13.2676 -13.2676 -13.2597 -13.2597 -13.2541 -13.2541
   -13.2428 -13.2428 -13.2361 -13.2361 -13.2153 -13.2153 -13.2119 -13.2119
    -4.4972  -4.4972  -4.4666  -4.4666   0.8311   0.8311   1.2032   1.2032
     4.0756   4.0756   4.5624   4.5624   5.0362   5.0362   5.7222   5.7222
     6.1230   6.1230   7.1687   7.1687   9.2773   9.2773  10.7618  10.7618
    11.5949  11.5949  11.9653  11.9653  12.1592  12.1592  12.9456  12.9456
    13.9103  13.9103  15.4125  15.4125  17.1927  17.1927  17.9459  17.9459
    18.4396  18.4396  19.3314  19.3314  19.5384  19.5384  19.8430  19.8430
    20.3796  20.3796  21.0539  21.0539  21.2494  21.2494  21.6249  21.6249
    22.2631  22.2631  23.0351  23.0351

          k = 0.5000 0.2414 0.0000 (  9108 PWs)   bands (ev):

   -39.3309 -39.3309 -39.3307 -39.3307 -39.3294 -39.3294 -39.3292 -39.3292
   -39.3008 -39.3008 -39.3007 -39.3007 -39.2970 -39.2970 -39.2968 -39.2968
   -39.2877 -39.2877 -39.2875 -39.2875 -13.2971 -13.2971 -13.2932 -13.2932
   -13.2723 -13.2723 -13.2676 -13.2676 -13.2595 -13.2595 -13.2539 -13.2539
   -13.2428 -13.2428 -13.2357 -13.2357 -13.2154 -13.2154 -13.2118 -13.2118
    -4.4845  -4.4845  -4.4562  -4.4562   0.8765   0.8765   1.2213   1.2213
     3.9657   3.9657   4.4886   4.4886   4.9427   4.9427   5.6514   5.6514
     6.0420   6.0420   7.1161   7.1161   9.4300   9.4300  10.9589  10.9589
    11.7242  11.7242  12.0329  12.0329  12.2647  12.2647  13.1811  13.1811
    13.8711  13.8711  15.2966  15.2966  17.1762  17.1762  18.0617  18.0617
    18.6368  18.6368  19.3290  19.3290  19.5124  19.5124  19.7927  19.7927
    20.4459  20.4459  20.8632  20.8632  21.1899  21.1899  21.5225  21.5225
    22.4196  22.4196  22.9964  22.9964

          k = 0.5000 0.2633 0.0000 (  9126 PWs)   bands (ev):

   -39.3310 -39.3310 -39.3308 -39.3308 -39.3294 -39.3294 -39.3292 -39.3292
   -39.3009 -39.3009 -39.3007 -39.3007 -39.2970 -39.2970 -39.2969 -39.2969
   -39.2878 -39.2878 -39.2875 -39.2875 -13.2976 -13.2976 -13.2936 -13.2936
   -13.2724 -13.2724 -13.2675 -13.2675 -13.2594 -13.2594 -13.2537 -13.2537
   -13.2427 -13.2427 -13.2354 -13.2354 -13.2156 -13.2156 -13.2117 -13.2117
    -4.4720  -4.4720  -4.4462  -4.4462   0.9232   0.9232   1.2384   1.2384
     3.8631   3.8631   4.4163   4.4163   4.8508   4.8508   5.5812   5.5812
     5.9775   5.9775   7.0614   7.0614   9.5884   9.5884  11.1187  11.1187
    11.8063  11.8063  12.1143  12.1143  12.4149  12.4149  13.4068  13.4068
    13.8609  13.8609  15.2031  15.2031  17.1483  17.1483  18.1532  18.1532
    18.8180  18.8180  19.2859  19.2859  19.4382  19.4382  19.8116  19.8116
    20.5093  20.5093  20.7125  20.7125  21.1073  21.1073  21.4630  21.4630
    22.5381  22.5381  22.8866  22.8866

          k = 0.5000 0.2853 0.0000 (  9138 PWs)   bands (ev):

   -39.3310 -39.3310 -39.3309 -39.3309 -39.3295 -39.3295 -39.3292 -39.3292
   -39.3009 -39.3009 -39.3007 -39.3007 -39.2971 -39.2971 -39.2969 -39.2969
   -39.2878 -39.2878 -39.2875 -39.2875 -13.2981 -13.2981 -13.2939 -13.2939
   -13.2725 -13.2725 -13.2675 -13.2675 -13.2592 -13.2592 -13.2536 -13.2536
   -13.2426 -13.2426 -13.2350 -13.2350 -13.2157 -13.2157 -13.2116 -13.2116
    -4.4599  -4.4599  -4.4367  -4.4367   0.9701   0.9701   1.2541   1.2541
     3.7702   3.7702   4.3441   4.3441   4.7678   4.7678   5.5037   5.5037
     5.9359   5.9359   7.0069   7.0069   9.7480   9.7480  11.2152  11.2152
    11.8848  11.8848  12.2183  12.2183  12.5680  12.5680  13.6163  13.6163
    13.8841  13.8841  15.1364  15.1364  17.1153  17.1153  18.2146  18.2146
    18.8861  18.8861  19.1893  19.1893  19.4275  19.4275  19.9027  19.9027
    20.5398  20.5398  20.6387  20.6387  21.0324  21.0324  21.4402  21.4402
    22.5063  22.5063  22.8230  22.8230

          k = 0.5000 0.3072 0.0000 (  9142 PWs)   bands (ev):

   -39.3311 -39.3311 -39.3310 -39.3310 -39.3294 -39.3294 -39.3293 -39.3293
   -39.3008 -39.3008 -39.3006 -39.3006 -39.2971 -39.2971 -39.2970 -39.2970
   -39.2878 -39.2878 -39.2876 -39.2876 -13.2986 -13.2986 -13.2942 -13.2942
   -13.2726 -13.2726 -13.2675 -13.2675 -13.2591 -13.2591 -13.2535 -13.2535
   -13.2425 -13.2425 -13.2347 -13.2347 -13.2158 -13.2158 -13.2116 -13.2116
    -4.4485  -4.4485  -4.4280  -4.4280   1.0159   1.0159   1.2678   1.2678
     3.6885   3.6885   4.2715   4.2715   4.6998   4.6998   5.4180   5.4180
     5.9168   5.9168   6.9543   6.9543   9.9052   9.9052  11.2400  11.2400
    11.9904  11.9904  12.3206  12.3206  12.7113  12.7113  13.8036  13.8036
    13.9424  13.9424  15.0986  15.0986  17.0821  17.0821  18.2246  18.2246
    18.7800  18.7800  19.0992  19.0992  19.5346  19.5346  20.0426  20.0426
    20.4977  20.4977  20.6763  20.6763  20.9851  20.9851  21.4485  21.4485
    22.3762  22.3762  22.6879  22.6879

          k = 0.5000 0.3292 0.0000 (  9130 PWs)   bands (ev):

   -39.3310 -39.3310 -39.3309 -39.3309 -39.3294 -39.3294 -39.3292 -39.3292
   -39.3008 -39.3008 -39.3006 -39.3006 -39.2971 -39.2971 -39.2969 -39.2969
   -39.2878 -39.2878 -39.2876 -39.2876 -13.2990 -13.2990 -13.2945 -13.2945
   -13.2727 -13.2727 -13.2675 -13.2675 -13.2590 -13.2590 -13.2534 -13.2534
   -13.2424 -13.2424 -13.2345 -13.2345 -13.2158 -13.2158 -13.2115 -13.2115
    -4.4381  -4.4381  -4.4204  -4.4204   1.0594   1.0594   1.2790   1.2790
     3.6189   3.6189   4.1998   4.1998   4.6502   4.6502   5.3287   5.3287
     5.9144   5.9144   6.9051   6.9051  10.0578  10.0578  11.2123  11.2123
    12.1100  12.1100  12.4058  12.4058  12.8436  12.8436  13.9610  13.9610
    14.0356  14.0356  15.0881  15.0881  17.0545  17.0545  18.1599  18.1599
    18.5812  18.5812  19.0831  19.0831  19.6670  19.6670  20.2037  20.2037
    20.4621  20.4621  20.7222  20.7222  20.9953  20.9953  21.4840  21.4840
    22.2290  22.2290  22.4563  22.4563

          k = 0.5000 0.3511 0.0000 (  9146 PWs)   bands (ev):

   -39.3310 -39.3310 -39.3310 -39.3310 -39.3294 -39.3294 -39.3293 -39.3293
   -39.3008 -39.3008 -39.3006 -39.3006 -39.2971 -39.2971 -39.2969 -39.2969
   -39.2878 -39.2878 -39.2876 -39.2876 -13.2994 -13.2994 -13.2947 -13.2947
   -13.2727 -13.2727 -13.2675 -13.2675 -13.2589 -13.2589 -13.2533 -13.2533
   -13.2423 -13.2423 -13.2342 -13.2342 -13.2159 -13.2159 -13.2115 -13.2115
    -4.4289  -4.4289  -4.4140  -4.4140   1.0990   1.0990   1.2874   1.2874
     3.5622   3.5622   4.1323   4.1323   4.6186   4.6186   5.2422   5.2422
     5.9222   5.9222   6.8609   6.8609  10.2041  10.2041  11.1541  11.1541
    12.2214  12.2214  12.4665  12.4665  12.9670  12.9670  14.0857  14.0857
    14.1539  14.1539  15.0980  15.0980  17.0389  17.0389  18.0298  18.0298
    18.3613  18.3613  19.1393  19.1393  19.7827  19.7827  20.3461  20.3461
    20.4478  20.4478  20.7308  20.7308  21.1010  21.1010  21.5416  21.5416
    22.0796  22.0796  22.2118  22.2118

          k = 0.5000 0.3730 0.0000 (  9154 PWs)   bands (ev):

   -39.3311 -39.3311 -39.3309 -39.3309 -39.3295 -39.3295 -39.3293 -39.3293
   -39.3008 -39.3008 -39.3007 -39.3007 -39.2971 -39.2971 -39.2970 -39.2970
   -39.2878 -39.2878 -39.2878 -39.2878 -13.2997 -13.2997 -13.2949 -13.2949
   -13.2728 -13.2728 -13.2675 -13.2675 -13.2588 -13.2588 -13.2533 -13.2533
   -13.2422 -13.2422 -13.2341 -13.2341 -13.2160 -13.2160 -13.2114 -13.2114
    -4.4212  -4.4212  -4.4092  -4.4092   1.1331   1.1331   1.2928   1.2928
     3.5185   3.5185   4.0735   4.0735   4.6026   4.6026   5.1647   5.1647
     5.9345   5.9345   6.8233   6.8233  10.3422  10.3422  11.0788  11.0788
    12.3135  12.3135  12.5017  12.5017  13.0790  13.0790  14.1928  14.1928
    14.2663  14.2663  15.1182  15.1182  17.0423  17.0423  17.8706  17.8706
    18.1533  18.1533  19.2383  19.2383  19.8711  19.8711  20.4228  20.4228
    20.4763  20.4763  20.7148  20.7148  21.2719  21.2719  21.6160  21.6160
    21.8826  21.8826  22.0713  22.0713

          k = 0.5000 0.3950 0.0000 (  9134 PWs)   bands (ev):

   -39.3310 -39.3310 -39.3309 -39.3309 -39.3294 -39.3294 -39.3293 -39.3293
   -39.3006 -39.3006 -39.3006 -39.3006 -39.2970 -39.2970 -39.2969 -39.2969
   -39.2877 -39.2877 -39.2877 -39.2877 -13.2999 -13.2999 -13.2950 -13.2950
   -13.2728 -13.2728 -13.2675 -13.2675 -13.2587 -13.2587 -13.2532 -13.2532
   -13.2422 -13.2422 -13.2339 -13.2339 -13.2160 -13.2160 -13.2114 -13.2114
    -4.4154  -4.4154  -4.4059  -4.4059   1.1599   1.1599   1.2956   1.2956
     3.4876   3.4876   4.0279   4.0279   4.5975   4.5975   5.1023   5.1023
     5.9468   5.9468   6.7944   6.7944  10.4691  10.4691  10.9947  10.9947
    12.3845  12.3845  12.5142  12.5142  13.1707  13.1707  14.2833  14.2833
    14.3540  14.3540  15.1381  15.1381  17.0684  17.0684  17.7136  17.7136
    17.9820  17.9820  19.3489  19.3489  19.9249  19.9249  20.4439  20.4439
    20.5396  20.5396  20.6957  20.6957  21.4112  21.4112  21.6742  21.6742
    21.7188  21.7188  22.0655  22.0655

          k = 0.5000 0.4169 0.0000 (  9130 PWs)   bands (ev):

   -39.3310 -39.3310 -39.3309 -39.3309 -39.3293 -39.3293 -39.3292 -39.3292
   -39.3007 -39.3007 -39.3006 -39.3006 -39.2970 -39.2970 -39.2969 -39.2969
   -39.2876 -39.2876 -39.2876 -39.2876 -13.3000 -13.3000 -13.2951 -13.2951
   -13.2728 -13.2728 -13.2675 -13.2675 -13.2587 -13.2587 -13.2532 -13.2532
   -13.2421 -13.2421 -13.2338 -13.2338 -13.2160 -13.2160 -13.2114 -13.2114
    -4.4116  -4.4116  -4.4040  -4.4040   1.1774   1.1774   1.2964   1.2964
     3.4693   3.4693   3.9990   3.9990   4.5980   4.5980   5.0610   5.0610
     5.9558   5.9558   6.7760   6.7760  10.5758  10.5758  10.9129  10.9129
    12.4356  12.4356  12.5093  12.5093  13.2315  13.2315  14.3461  14.3461
    14.4091  14.4091  15.1512  15.1512  17.1103  17.1103  17.5857  17.5857
    17.8696  17.8696  19.4397  19.4397  19.9438  19.9438  20.4649  20.4649
    20.5837  20.5837  20.6814  20.6814  21.4524  21.4524  21.5253  21.5253
    21.8426  21.8426  22.1448  22.1448

          k = 0.5000 0.4389 0.0000 (  9136 PWs)   bands (ev):

   -39.3311 -39.3311 -39.3309 -39.3309 -39.3293 -39.3293 -39.3292 -39.3292
   -39.3008 -39.3008 -39.3006 -39.3006 -39.2971 -39.2971 -39.2969 -39.2969
   -39.2877 -39.2877 -39.2875 -39.2875 -13.3000 -13.3000 -13.2952 -13.2952
   -13.2728 -13.2728 -13.2675 -13.2675 -13.2587 -13.2587 -13.2532 -13.2532
   -13.2421 -13.2421 -13.2338 -13.2338 -13.2160 -13.2160 -13.2114 -13.2114
    -4.4102  -4.4102  -4.4035  -4.4035   1.1836   1.1836   1.2965   1.2965
     3.4633   3.4633   3.9890   3.9890   4.5989   4.5989   5.0464   5.0464
     5.9590   5.9590   6.7698   6.7698  10.6270  10.6270  10.8700  10.8700
    12.4598  12.4598  12.4999  12.4999  13.2528  13.2528  14.3689  14.3689
    14.4277  14.4277  15.1555  15.1555  17.1350  17.1350  17.5308  17.5308
    17.8307  17.8307  19.4762  19.4762  19.9454  19.9454  20.4753  20.4753
    20.6005  20.6005  20.6755  20.6755  21.4505  21.4505  21.4741  21.4741
    21.9028  21.9028  22.1776  22.1776

          k = 0.5000 0.4389 0.0088 (  9152 PWs)   bands (ev):

   -39.3312 -39.3312 -39.3309 -39.3309 -39.3293 -39.3293 -39.3293 -39.3293
   -39.3008 -39.3008 -39.3007 -39.3007 -39.2971 -39.2971 -39.2969 -39.2969
   -39.2877 -39.2877 -39.2877 -39.2877 -13.3000 -13.3000 -13.2952 -13.2952
   -13.2728 -13.2728 -13.2675 -13.2675 -13.2587 -13.2587 -13.2532 -13.2532
   -13.2421 -13.2421 -13.2338 -13.2338 -13.2160 -13.2160 -13.2114 -13.2114
    -4.4102  -4.4102  -4.4035  -4.4035   1.1837   1.1837   1.2962   1.2962
     3.4643   3.4643   3.9898   3.9898   4.5963   4.5963   5.0444   5.0444
     5.9625   5.9625   6.7704   6.7704  10.6250  10.6250  10.8683  10.8683
    12.4582  12.4582  12.4986  12.4986  13.2590  13.2590  14.3697  14.3697
    14.4280  14.4280  15.1581  15.1581  17.1303  17.1303  17.5306  17.5306
    17.8333  17.8333  19.4709  19.4709  19.9407  19.9407  20.4616  20.4616
    20.6017  20.6017  20.6759  20.6759  21.4523  21.4523  21.4862  21.4862
    21.9067  21.9067  22.1693  22.1693

          k = 0.5000 0.4389 0.0177 (  9156 PWs)   bands (ev):

   -39.3312 -39.3312 -39.3310 -39.3310 -39.3293 -39.3293 -39.3292 -39.3292
   -39.3009 -39.3009 -39.3009 -39.3009 -39.2971 -39.2971 -39.2970 -39.2970
   -39.2877 -39.2877 -39.2877 -39.2877 -13.3000 -13.3000 -13.2952 -13.2952
   -13.2728 -13.2728 -13.2675 -13.2675 -13.2587 -13.2587 -13.2533 -13.2533
   -13.2421 -13.2421 -13.2339 -13.2339 -13.2160 -13.2160 -13.2114 -13.2114
    -4.4102  -4.4102  -4.4035  -4.4035   1.1841   1.1841   1.2956   1.2956
     3.4674   3.4674   3.9921   3.9921   4.5885   4.5885   5.0382   5.0382
     5.9727   5.9727   6.7723   6.7723  10.6192  10.6192  10.8632  10.8632
    12.4539  12.4539  12.4949  12.4949  13.2774  13.2774  14.3723  14.3723
    14.4287  14.4287  15.1661  15.1661  17.1166  17.1166  17.5300  17.5300
    17.8410  17.8410  19.4549  19.4549  19.9273  19.9273  20.4243  20.4243
    20.6041  20.6041  20.6772  20.6772  21.4573  21.4573  21.5198  21.5198
    21.9185  21.9185  22.1486  22.1486

          k = 0.5000 0.4389 0.0265 (  9156 PWs)   bands (ev):

   -39.3312 -39.3312 -39.3310 -39.3310 -39.3293 -39.3293 -39.3292 -39.3292
   -39.3009 -39.3009 -39.3009 -39.3009 -39.2971 -39.2971 -39.2970 -39.2970
   -39.2877 -39.2877 -39.2877 -39.2877 -13.3000 -13.3000 -13.2952 -13.2952
   -13.2728 -13.2728 -13.2676 -13.2676 -13.2586 -13.2586 -13.2533 -13.2533
   -13.2420 -13.2420 -13.2339 -13.2339 -13.2160 -13.2160 -13.2114 -13.2114
    -4.4101  -4.4101  -4.4036  -4.4036   1.1847   1.1847   1.2945   1.2945
     3.4726   3.4726   3.9958   3.9958   4.5759   4.5759   5.0281   5.0281
     5.9894   5.9894   6.7752   6.7752  10.6097  10.6097  10.8547  10.8547
    12.4472  12.4472  12.4890  12.4890  13.3072  13.3072  14.3765  14.3765
    14.4296  14.4296  15.1791  15.1791  17.0949  17.0949  17.5288  17.5288
    17.8530  17.8530  19.4279  19.4279  19.9062  19.9062  20.3709  20.3709
    20.6064  20.6064  20.6791  20.6791  21.4642  21.4642  21.5676  21.5676
    21.9387  21.9387  22.1245  22.1245

          k = 0.5000 0.4389 0.0354 (  9160 PWs)   bands (ev):

   -39.3312 -39.3312 -39.3310 -39.3310 -39.3293 -39.3293 -39.3293 -39.3293
   -39.3009 -39.3009 -39.3009 -39.3009 -39.2972 -39.2972 -39.2970 -39.2970
   -39.2877 -39.2877 -39.2877 -39.2877 -13.2999 -13.2999 -13.2953 -13.2953
   -13.2727 -13.2727 -13.2677 -13.2677 -13.2585 -13.2585 -13.2534 -13.2534
   -13.2419 -13.2419 -13.2340 -13.2340 -13.2159 -13.2159 -13.2115 -13.2115
    -4.4101  -4.4101  -4.4037  -4.4037   1.1857   1.1857   1.2929   1.2929
     3.4799   3.4799   4.0008   4.0008   4.5592   4.5592   5.0143   5.0143
     6.0120   6.0120   6.7790   6.7790  10.5971  10.5971  10.8430  10.8430
    12.4387  12.4387  12.4811  12.4811  13.3472  13.3472  14.3826  14.3826
    14.4305  14.4305  15.1967  15.1967  17.0666  17.0666  17.5271  17.5271
    17.8685  17.8685  19.3897  19.3897  19.8791  19.8791  20.3086  20.3086
    20.6082  20.6082  20.6813  20.6813  21.4713  21.4713  21.6201  21.6201
    21.9675  21.9675  22.1055  22.1055

          k = 0.5000 0.4389 0.0442 (  9156 PWs)   bands (ev):

   -39.3312 -39.3312 -39.3310 -39.3310 -39.3293 -39.3293 -39.3293 -39.3293
   -39.3009 -39.3009 -39.3008 -39.3008 -39.2972 -39.2972 -39.2970 -39.2970
   -39.2877 -39.2877 -39.2876 -39.2876 -13.2999 -13.2999 -13.2954 -13.2954
   -13.2727 -13.2727 -13.2678 -13.2678 -13.2584 -13.2584 -13.2535 -13.2535
   -13.2417 -13.2417 -13.2341 -13.2341 -13.2158 -13.2158 -13.2115 -13.2115
    -4.4100  -4.4100  -4.4038  -4.4038   1.1868   1.1868   1.2910   1.2910
     3.4891   3.4891   4.0069   4.0069   4.5391   4.5391   4.9968   4.9968
     6.0399   6.0399   6.7834   6.7834  10.5819  10.5819  10.8282  10.8282
    12.4291  12.4291  12.4715  12.4715  13.3963  13.3963  14.3906  14.3906
    14.4311  14.4311  15.2180  15.2180  17.0333  17.0333  17.5246  17.5246
    17.8864  17.8864  19.3401  19.3401  19.8479  19.8479  20.2431  20.2431
    20.6097  20.6097  20.6835  20.6835  21.4774  21.4774  21.6668  21.6668
    22.0047  22.0047  22.0999  22.0999

          k = 0.5000 0.4389 0.0531 (  9148 PWs)   bands (ev):

   -39.3311 -39.3311 -39.3310 -39.3310 -39.3293 -39.3293 -39.3292 -39.3292
   -39.3008 -39.3008 -39.3008 -39.3008 -39.2971 -39.2971 -39.2970 -39.2970
   -39.2876 -39.2876 -39.2876 -39.2876 -13.2998 -13.2998 -13.2954 -13.2954
   -13.2726 -13.2726 -13.2679 -13.2679 -13.2584 -13.2584 -13.2536 -13.2536
   -13.2416 -13.2416 -13.2343 -13.2343 -13.2157 -13.2157 -13.2116 -13.2116
    -4.4098  -4.4098  -4.4039  -4.4039   1.1883   1.1883   1.2887   1.2887
     3.5004   3.5004   4.0136   4.0136   4.5166   4.5166   4.9761   4.9761
     6.0723   6.0723   6.7879   6.7879  10.5647  10.5647  10.8106  10.8106
    12.4189  12.4189  12.4607  12.4607  13.4531  13.4531  14.4006  14.4006
    14.4310  14.4310  15.2421  15.2421  16.9968  16.9968  17.5212  17.5212
    17.9058  17.9058  19.2794  19.2794  19.8145  19.8145  20.1784  20.1784
    20.6112  20.6112  20.6854  20.6854  21.4815  21.4815  21.6987  21.6987
    22.0497  22.0497  22.1145  22.1145

          k = 0.5000 0.4389 0.0619 (  9152 PWs)   bands (ev):

   -39.3311 -39.3311 -39.3310 -39.3310 -39.3293 -39.3293 -39.3293 -39.3293
   -39.3008 -39.3008 -39.3008 -39.3008 -39.2971 -39.2971 -39.2970 -39.2970
   -39.2877 -39.2877 -39.2876 -39.2876 -13.2997 -13.2997 -13.2955 -13.2955
   -13.2725 -13.2725 -13.2680 -13.2680 -13.2582 -13.2582 -13.2537 -13.2537
   -13.2414 -13.2414 -13.2344 -13.2344 -13.2156 -13.2156 -13.2117 -13.2117
    -4.4097  -4.4097  -4.4040  -4.4040   1.1900   1.1900   1.2860   1.2860
     3.5137   3.5137   4.0206   4.0206   4.4927   4.4927   4.9524   4.9524
     6.1087   6.1087   6.7921   6.7921  10.5462  10.5462  10.7903  10.7903
    12.4088  12.4088  12.4491  12.4491  13.5161  13.5161  14.4128  14.4128
    14.4300  14.4300  15.2677  15.2677  16.9591  16.9591  17.5166  17.5166
    17.9260  17.9260  19.2085  19.2085  19.7807  19.7807  20.1170  20.1170
    20.6128  20.6128  20.6869  20.6869  21.4834  21.4834  21.7114  21.7114
    22.1011  22.1011  22.1519  22.1519

          k = 0.5000 0.4389 0.0707 (  9152 PWs)   bands (ev):

   -39.3311 -39.3311 -39.3310 -39.3310 -39.3293 -39.3293 -39.3293 -39.3293
   -39.3008 -39.3008 -39.3008 -39.3008 -39.2971 -39.2971 -39.2970 -39.2970
   -39.2877 -39.2877 -39.2877 -39.2877 -13.2996 -13.2996 -13.2956 -13.2956
   -13.2724 -13.2724 -13.2682 -13.2682 -13.2581 -13.2581 -13.2538 -13.2538
   -13.2412 -13.2412 -13.2346 -13.2346 -13.2155 -13.2155 -13.2118 -13.2118
    -4.4096  -4.4096  -4.4041  -4.4041   1.1920   1.1920   1.2830   1.2830
     3.5289   3.5289   4.0271   4.0271   4.4686   4.4686   4.9261   4.9261
     6.1481   6.1481   6.7956   6.7956  10.5273  10.5273  10.7677  10.7677
    12.3989  12.3989  12.4370  12.4370  13.5840  13.5840  14.4276  14.4276
    14.4279  14.4279  15.2929  15.2929  16.9225  16.9225  17.5105  17.5105
    17.9464  17.9464  19.1288  19.1288  19.7477  19.7477  20.0600  20.0600
    20.6146  20.6146  20.6880  20.6880  21.4834  21.4834  21.7079  21.7079
    22.1575  22.1575  22.2076  22.2076

          k = 0.5000 0.4389 0.0796 (  9156 PWs)   bands (ev):

   -39.3311 -39.3311 -39.3310 -39.3310 -39.3293 -39.3293 -39.3293 -39.3293
   -39.3008 -39.3008 -39.3008 -39.3008 -39.2971 -39.2971 -39.2970 -39.2970
   -39.2877 -39.2877 -39.2877 -39.2877 -13.2995 -13.2995 -13.2958 -13.2958
   -13.2723 -13.2723 -13.2683 -13.2683 -13.2580 -13.2580 -13.2540 -13.2540
   -13.2409 -13.2409 -13.2348 -13.2348 -13.2154 -13.2154 -13.2119 -13.2119
    -4.4094  -4.4094  -4.4043  -4.4043   1.1942   1.1942   1.2797   1.2797
     3.5460   3.5460   4.0323   4.0323   4.4457   4.4457   4.8975   4.8975
     6.1899   6.1899   6.7980   6.7980  10.5086  10.5086  10.7431  10.7431
    12.3895  12.3895  12.4248  12.4248  13.6554  13.6554  14.4244  14.4244
    14.4452  14.4452  15.3157  15.3157  16.8890  16.8890  17.5024  17.5024
    17.9666  17.9666  19.0423  19.0423  19.7169  19.7169  20.0078  20.0078
    20.6167  20.6167  20.6885  20.6885  21.4820  21.4820  21.6941  21.6941
    22.2174  22.2174  22.2746  22.2746

          k = 0.5000 0.4389 0.0884 (  9148 PWs)   bands (ev):

   -39.3310 -39.3310 -39.3310 -39.3310 -39.3293 -39.3293 -39.3293 -39.3293
   -39.3007 -39.3007 -39.3007 -39.3007 -39.2970 -39.2970 -39.2970 -39.2970
   -39.2877 -39.2877 -39.2877 -39.2877 -13.2993 -13.2993 -13.2959 -13.2959
   -13.2722 -13.2722 -13.2685 -13.2685 -13.2578 -13.2578 -13.2541 -13.2541
   -13.2407 -13.2407 -13.2350 -13.2350 -13.2152 -13.2152 -13.2120 -13.2120
    -4.4092  -4.4092  -4.4045  -4.4045   1.1966   1.1966   1.2761   1.2761
     3.5649   3.5649   4.0352   4.0352   4.4256   4.4256   4.8670   4.8670
     6.2336   6.2336   6.7987   6.7987  10.4908  10.4908  10.7170  10.7170
    12.3808  12.3808  12.4129  12.4129  13.7289  13.7289  14.4195  14.4195
    14.4663  14.4663  15.3338  15.3338  16.8612  16.8612  17.4919  17.4919
    17.9863  17.9863  18.9511  18.9511  19.6892  19.6892  19.9601  19.9601
    20.6192  20.6192  20.6885  20.6885  21.4797  21.4797  21.6749  21.6749
    22.2796  22.2796  22.3476  22.3476

          k = 0.5000 0.4389 0.0973 (  9152 PWs)   bands (ev):

   -39.3310 -39.3310 -39.3309 -39.3309 -39.3294 -39.3294 -39.3293 -39.3293
   -39.3008 -39.3008 -39.3008 -39.3008 -39.2970 -39.2970 -39.2969 -39.2969
   -39.2878 -39.2878 -39.2878 -39.2878 -13.2992 -13.2992 -13.2960 -13.2960
   -13.2721 -13.2721 -13.2687 -13.2687 -13.2577 -13.2577 -13.2543 -13.2543
   -13.2404 -13.2404 -13.2352 -13.2352 -13.2151 -13.2151 -13.2121 -13.2121
    -4.4090  -4.4090  -4.4047  -4.4047   1.1993   1.1993   1.2723   1.2723
     3.5856   3.5856   4.0344   4.0344   4.4098   4.4098   4.8349   4.8349
     6.2783   6.2783   6.7973   6.7973  10.4747  10.4747  10.6896  10.6896
    12.3729  12.3729  12.4014  12.4014  13.8028  13.8028  14.4131  14.4131
    14.4914  14.4914  15.3448  15.3448  16.8415  16.8415  17.4785  17.4785
    18.0056  18.0056  18.8576  18.8576  19.6653  19.6653  19.9163  19.9163
    20.6220  20.6220  20.6879  20.6879  21.4771  21.4771  21.6534  21.6534
    22.3431  22.3431  22.4227  22.4227

          k = 0.5000 0.4389 0.1061 (  9144 PWs)   bands (ev):

   -39.3309 -39.3309 -39.3309 -39.3309 -39.3293 -39.3293 -39.3293 -39.3293
   -39.3008 -39.3008 -39.3008 -39.3008 -39.2969 -39.2969 -39.2969 -39.2969
   -39.2877 -39.2877 -39.2877 -39.2877 -13.2991 -13.2991 -13.2962 -13.2962
   -13.2720 -13.2720 -13.2689 -13.2689 -13.2575 -13.2575 -13.2545 -13.2545
   -13.2401 -13.2401 -13.2354 -13.2354 -13.2149 -13.2149 -13.2122 -13.2122
    -4.4088  -4.4088  -4.4049  -4.4049   1.2023   1.2023   1.2682   1.2682
     3.6080   3.6080   4.0289   4.0289   4.3998   4.3998   4.8016   4.8016
     6.3236   6.3236   6.7935   6.7935  10.4608  10.4608  10.6615  10.6615
    12.3659  12.3659  12.3908  12.3908  13.8757  13.8757  14.4051  14.4051
    14.5214  14.5214  15.3463  15.3463  16.8320  16.8320  17.4613  17.4613
    18.0244  18.0244  18.7641  18.7641  19.6456  19.6456  19.8759  19.8759
    20.6252  20.6252  20.6868  20.6868  21.4747  21.4747  21.6313  21.6313
    22.4071  22.4071  22.4978  22.4978

          k = 0.5000 0.4389 0.1150 (  9144 PWs)   bands (ev):

   -39.3310 -39.3310 -39.3309 -39.3309 -39.3293 -39.3293 -39.3293 -39.3293
   -39.3008 -39.3008 -39.3008 -39.3008 -39.2969 -39.2969 -39.2969 -39.2969
   -39.2877 -39.2877 -39.2877 -39.2877 -13.2989 -13.2989 -13.2963 -13.2963
   -13.2718 -13.2718 -13.2691 -13.2691 -13.2573 -13.2573 -13.2547 -13.2547
   -13.2399 -13.2399 -13.2357 -13.2357 -13.2147 -13.2147 -13.2123 -13.2123
    -4.4086  -4.4086  -4.4051  -4.4051   1.2054   1.2054   1.2640   1.2640
     3.6320   3.6320   4.0180   4.0180   4.3966   4.3966   4.7673   4.7673
     6.3689   6.3689   6.7870   6.7870  10.4495  10.4495  10.6332  10.6332
    12.3597  12.3597  12.3810  12.3810  13.9458  13.9458  14.3955  14.3955
    14.5571  14.5571  15.3366  15.3366  16.8342  16.8342  17.4397  17.4397
    18.0430  18.0430  18.6727  18.6727  19.6304  19.6304  19.8386  19.8386
    20.6288  20.6288  20.6851  20.6851  21.4729  21.4729  21.6096  21.6096
    22.4709  22.4709  22.5712  22.5712

          k = 0.5000 0.4389 0.1238 (  9140 PWs)   bands (ev):

   -39.3309 -39.3309 -39.3309 -39.3309 -39.3293 -39.3293 -39.3293 -39.3293
   -39.3008 -39.3008 -39.3008 -39.3008 -39.2969 -39.2969 -39.2969 -39.2969
   -39.2878 -39.2878 -39.2877 -39.2877 -13.2987 -13.2987 -13.2965 -13.2965
   -13.2716 -13.2716 -13.2693 -13.2693 -13.2572 -13.2572 -13.2549 -13.2549
   -13.2396 -13.2396 -13.2359 -13.2359 -13.2146 -13.2146 -13.2125 -13.2125
    -4.4084  -4.4084  -4.4053  -4.4053   1.2088   1.2088   1.2597   1.2597
     3.6576   3.6576   4.0015   4.0015   4.4004   4.4004   4.7325   4.7325
     6.4137   6.4137   6.7773   6.7773  10.4414  10.4414  10.6051  10.6051
    12.3545  12.3545  12.3722  12.3722  14.0113  14.0113  14.3843  14.3843
    14.5994  14.5994  15.3149  15.3149  16.8489  16.8489  17.4128  17.4128
    18.0617  18.0617  18.5853  18.5853  19.6200  19.6200  19.8039  19.8039
    20.6328  20.6328  20.6828  20.6828  21.4721  21.4721  21.5889  21.5889
    22.5341  22.5341  22.6416  22.6416

          k = 0.5000 0.4389 0.1327 (  9124 PWs)   bands (ev):

   -39.3309 -39.3309 -39.3308 -39.3308 -39.3293 -39.3293 -39.3292 -39.3292
   -39.3008 -39.3008 -39.3008 -39.3008 -39.2968 -39.2968 -39.2968 -39.2968
   -39.2876 -39.2876 -39.2876 -39.2876 -13.2986 -13.2986 -13.2967 -13.2967
   -13.2715 -13.2715 -13.2695 -13.2695 -13.2570 -13.2570 -13.2550 -13.2550
   -13.2392 -13.2392 -13.2362 -13.2362 -13.2144 -13.2144 -13.2126 -13.2126
    -4.4081  -4.4081  -4.4056  -4.4056   1.2124   1.2124   1.2553   1.2553
     3.6845   3.6845   3.9802   3.9802   4.4107   4.4107   4.6974   4.6974
     6.4576   6.4576   6.7644   6.7644  10.4366  10.4366  10.5777  10.5777
    12.3502  12.3502  12.3645  12.3645  14.0711  14.0711  14.3713  14.3713
    14.6488  14.6488  15.2811  15.2811  16.8758  16.8758  17.3802  17.3802
    18.0810  18.0810  18.5039  18.5039  19.6142  19.6142  19.7718  19.7718
    20.6370  20.6370  20.6801  20.6801  21.4725  21.4725  21.5695  21.5695
    22.5960  22.5960  22.7071  22.7071

          k = 0.5000 0.4389 0.1415 (  9128 PWs)   bands (ev):

   -39.3309 -39.3309 -39.3308 -39.3308 -39.3293 -39.3293 -39.3292 -39.3292
   -39.3008 -39.3008 -39.3008 -39.3008 -39.2968 -39.2968 -39.2968 -39.2968
   -39.2876 -39.2876 -39.2876 -39.2876 -13.2984 -13.2984 -13.2969 -13.2969
   -13.2713 -13.2713 -13.2697 -13.2697 -13.2568 -13.2568 -13.2552 -13.2552
   -13.2389 -13.2389 -13.2365 -13.2365 -13.2142 -13.2142 -13.2128 -13.2128
    -4.4079  -4.4079  -4.4058  -4.4058   1.2161   1.2161   1.2508   1.2508
     3.7128   3.7128   3.9550   3.9550   4.4267   4.4267   4.6623   4.6623
     6.5001   6.5001   6.7481   6.7481  10.4355  10.4355  10.5515  10.5515
    12.3469  12.3469  12.3580  12.3580  14.1241  14.1241  14.3564  14.3564
    14.7054  14.7054  15.2360  15.2360  16.9136  16.9136  17.3413  17.3413
    18.1015  18.1015  18.4296  18.4296  19.6131  19.6131  19.7422  19.7422
    20.6415  20.6415  20.6768  20.6768  21.4743  21.4743  21.5517  21.5517
    22.6560  22.6560  22.7655  22.7655

          k = 0.5000 0.4389 0.1503 (  9124 PWs)   bands (ev):

   -39.3309 -39.3309 -39.3308 -39.3308 -39.3292 -39.3292 -39.3292 -39.3292
   -39.3008 -39.3008 -39.3008 -39.3008 -39.2968 -39.2968 -39.2968 -39.2968
   -39.2876 -39.2876 -39.2876 -39.2876 -13.2982 -13.2982 -13.2970 -13.2970
   -13.2711 -13.2711 -13.2699 -13.2699 -13.2566 -13.2566 -13.2554 -13.2554
   -13.2386 -13.2386 -13.2368 -13.2368 -13.2140 -13.2140 -13.2129 -13.2129
    -4.4076  -4.4076  -4.4061  -4.4061   1.2201   1.2201   1.2462   1.2462
     3.7422   3.7422   3.9270   3.9270   4.4473   4.4473   4.6276   4.6276
     6.5407   6.5407   6.7283   6.7283  10.4382  10.4382  10.5271  10.5271
    12.3445  12.3445  12.3527  12.3527  14.1702  14.1702  14.3395  14.3395
    14.7684  14.7684  15.1814  15.1814  16.9605  16.9605  17.2961  17.2961
    18.1242  18.1242  18.3636  18.3636  19.6164  19.6164  19.7150  19.7150
    20.6461  20.6461  20.6732  20.6732  21.4777  21.4777  21.5357  21.5357
    22.7129  22.7129  22.8130  22.8130

          k = 0.5000 0.4389 0.1592 (  9120 PWs)   bands (ev):

   -39.3308 -39.3308 -39.3308 -39.3308 -39.3292 -39.3292 -39.3292 -39.3292
   -39.3008 -39.3008 -39.3007 -39.3007 -39.2968 -39.2968 -39.2968 -39.2968
   -39.2876 -39.2876 -39.2876 -39.2876 -13.2980 -13.2980 -13.2972 -13.2972
   -13.2709 -13.2709 -13.2701 -13.2701 -13.2564 -13.2564 -13.2556 -13.2556
   -13.2383 -13.2383 -13.2371 -13.2371 -13.2138 -13.2138 -13.2131 -13.2131
    -4.4074  -4.4074  -4.4063  -4.4063   1.2242   1.2242   1.2417   1.2417
     3.7724   3.7724   3.8971   3.8971   4.4718   4.4718   4.5935   4.5935
     6.5792   6.5792   6.7050   6.7050  10.4446  10.4446  10.5048  10.5048
    12.3432  12.3432  12.3485  12.3485  14.2099  14.2099  14.3203  14.3203
    14.8364  14.8364  15.1190  15.1190  17.0141  17.0141  17.2451  17.2451
    18.1499  18.1499  18.3060  18.3060  19.6239  19.6239  19.6906  19.6906
    20.6508  20.6508  20.6692  20.6692  21.4828  21.4828  21.5214  21.5214
    22.7650  22.7650  22.8444  22.8444

          k = 0.5000 0.4389 0.1680 (  9104 PWs)   bands (ev):

   -39.3308 -39.3308 -39.3308 -39.3308 -39.3292 -39.3292 -39.3291 -39.3291
   -39.3007 -39.3007 -39.3007 -39.3007 -39.2967 -39.2967 -39.2967 -39.2967
   -39.2875 -39.2875 -39.2875 -39.2875 -13.2978 -13.2978 -13.2974 -13.2974
   -13.2707 -13.2707 -13.2703 -13.2703 -13.2562 -13.2562 -13.2558 -13.2558
   -13.2380 -13.2380 -13.2374 -13.2374 -13.2136 -13.2136 -13.2133 -13.2133
    -4.4071  -4.4071  -4.4066  -4.4066   1.2284   1.2284   1.2372   1.2372
     3.8034   3.8034   3.8662   3.8662   4.4991   4.4991   4.5605   4.5605
     6.6151   6.6151   6.6782   6.6782  10.4546  10.4546  10.4850  10.4850
    12.3429  12.3429  12.3455  12.3455  14.2439  14.2439  14.2983  14.2983
    14.9077  14.9077  15.0512  15.0512  17.0718  17.0718  17.1896  17.1896
    18.1797  18.1797  18.2567  18.2567  19.6354  19.6354  19.6690  19.6690
    20.6556  20.6556  20.6648  20.6648  21.4896  21.4896  21.5089  21.5089
    22.8094  22.8094  22.8543  22.8543

          k = 0.5000 0.4389 0.1769 (  9104 PWs)   bands (ev):

   -39.3308 -39.3308 -39.3308 -39.3308 -39.3292 -39.3292 -39.3292 -39.3292
   -39.3006 -39.3006 -39.3006 -39.3006 -39.2968 -39.2968 -39.2968 -39.2968
   -39.2875 -39.2875 -39.2875 -39.2875 -13.2976 -13.2976 -13.2976 -13.2976
   -13.2705 -13.2705 -13.2705 -13.2705 -13.2560 -13.2560 -13.2560 -13.2560
   -13.2377 -13.2377 -13.2377 -13.2377 -13.2135 -13.2135 -13.2135 -13.2135
    -4.4068  -4.4068  -4.4068  -4.4068   1.2328   1.2328   1.2328   1.2328
     3.8348   3.8348   3.8348   3.8348   4.5289   4.5289   4.5289   4.5289
     6.6482   6.6482   6.6482   6.6482  10.4682  10.4682  10.4682  10.4682
    12.3436  12.3436  12.3436  12.3436  14.2731  14.2731  14.2731  14.2731
    14.9800  14.9800  14.9800  14.9800  17.1311  17.1311  17.1311  17.1311
    18.2149  18.2149  18.2149  18.2149  19.6505  19.6505  19.6505  19.6505
    20.6603  20.6603  20.6603  20.6603  21.4984  21.4984  21.4984  21.4984
    22.8412  22.8412  22.8412  22.8412

          k = 0.4750 0.4169 0.1769 (  9124 PWs)   bands (ev):

   -39.3310 -39.3310 -39.3308 -39.3308 -39.3293 -39.3293 -39.3293 -39.3293
   -39.3007 -39.3007 -39.3006 -39.3006 -39.2969 -39.2969 -39.2968 -39.2968
   -39.2876 -39.2876 -39.2876 -39.2876 -13.2978 -13.2978 -13.2972 -13.2972
   -13.2709 -13.2709 -13.2703 -13.2703 -13.2565 -13.2565 -13.2556 -13.2556
   -13.2383 -13.2383 -13.2371 -13.2371 -13.2140 -13.2140 -13.2131 -13.2131
    -4.4225  -4.4225  -4.3988  -4.3988   1.1811   1.1811   1.2785   1.2785
     3.7931   3.7931   3.8740   3.8740   4.5139   4.5139   4.6116   4.6116
     6.6205   6.6205   6.6692   6.6692  10.4246  10.4246  10.5306  10.5306
    12.2814  12.2814  12.3454  12.3454  14.1959  14.1959  14.2643  14.2643
    14.9578  14.9578  15.0062  15.0062  17.0830  17.0830  17.1733  17.1733
    18.2305  18.2305  18.2951  18.2951  19.5559  19.5559  19.6878  19.6878
    20.4828  20.4828  20.6313  20.6313  21.6229  21.6229  21.7100  21.7100
    22.5297  22.5297  22.9079  22.9079

          k = 0.4500 0.3950 0.1769 (  9130 PWs)   bands (ev):

   -39.3309 -39.3309 -39.3308 -39.3308 -39.3295 -39.3295 -39.3293 -39.3293
   -39.3008 -39.3008 -39.3006 -39.3006 -39.2969 -39.2969 -39.2968 -39.2968
   -39.2877 -39.2877 -39.2877 -39.2877 -13.2977 -13.2977 -13.2966 -13.2966
   -13.2715 -13.2715 -13.2701 -13.2701 -13.2569 -13.2569 -13.2552 -13.2552
   -13.2389 -13.2389 -13.2365 -13.2365 -13.2145 -13.2145 -13.2127 -13.2127
    -4.4497  -4.4497  -4.3941  -4.3941   1.1252   1.1252   1.3178   1.3178
     3.7397   3.7397   3.9364   3.9364   4.5452   4.5452   4.7627   4.7627
     6.5739   6.5739   6.6987   6.6987  10.3985  10.3985  10.6085  10.6085
    12.1250  12.1250  12.3326  12.3326  13.9905  13.9905  14.2280  14.2280
    14.9438  14.9438  15.0272  15.0272  17.0213  17.0213  17.2373  17.2373
    18.2756  18.2756  18.4827  18.4827  19.3670  19.3670  19.6270  19.6270
    20.2883  20.2883  20.6305  20.6305  21.8199  21.8199  22.0217  22.0217
    22.2824  22.2824  22.8820  22.8820

          k = 0.4250 0.3730 0.1769 (  9140 PWs)   bands (ev):

   -39.3310 -39.3310 -39.3308 -39.3308 -39.3295 -39.3295 -39.3294 -39.3294
   -39.3008 -39.3008 -39.3006 -39.3006 -39.2970 -39.2970 -39.2968 -39.2968
   -39.2878 -39.2878 -39.2877 -39.2877 -13.2973 -13.2973 -13.2957 -13.2957
   -13.2721 -13.2721 -13.2701 -13.2701 -13.2574 -13.2574 -13.2548 -13.2548
   -13.2396 -13.2396 -13.2360 -13.2360 -13.2152 -13.2152 -13.2125 -13.2125
    -4.4898  -4.4898  -4.3905  -4.3905   1.0671   1.0671   1.3522   1.3522
     3.6928   3.6928   4.0266   4.0266   4.6119   4.6119   4.9596   4.9596
     6.5094   6.5094   6.7439   6.7439  10.3841  10.3841  10.6926  10.6926
    11.8976  11.8976  12.3138  12.3138  13.6913  13.6913  14.1670  14.1670
    14.9281  14.9281  15.0483  15.0483  16.9644  16.9644  17.3218  17.3218
    18.3050  18.3050  18.6814  18.6814  19.1140  19.1140  19.4340  19.4340
    20.3020  20.3020  20.7039  20.7039  21.6806  21.6806  22.2159  22.2159
    22.4071  22.4071  22.7417  22.7417

          k = 0.4000 0.3511 0.1769 (  9144 PWs)   bands (ev):

   -39.3310 -39.3310 -39.3308 -39.3308 -39.3295 -39.3295 -39.3294 -39.3294
   -39.3009 -39.3009 -39.3006 -39.3006 -39.2971 -39.2971 -39.2968 -39.2968
   -39.2879 -39.2879 -39.2877 -39.2877 -13.2968 -13.2968 -13.2946 -13.2946
   -13.2728 -13.2728 -13.2703 -13.2703 -13.2578 -13.2578 -13.2544 -13.2544
   -13.2404 -13.2404 -13.2354 -13.2354 -13.2159 -13.2159 -13.2124 -13.2124
    -4.5424  -4.5424  -4.3870  -4.3870   1.0089   1.0089   1.3850   1.3850
     3.6661   3.6661   4.1367   4.1367   4.7115   4.7115   5.1788   5.1788
     6.4370   6.4370   6.8078   6.8078  10.3717  10.3717  10.7676  10.7676
    11.6353  11.6353  12.2940  12.2940  13.3376  13.3376  14.0821  14.0821
    14.8993  14.8993  15.0871  15.0871  16.9163  16.9163  17.3924  17.3924
    18.2359  18.2359  18.6676  18.6676  19.0476  19.0476  19.2580  19.2580
    20.4135  20.4135  20.7604  20.7604  21.5687  21.5687  22.1508  22.1508
    22.5108  22.5108  22.6202  22.6202

          k = 0.3750 0.3292 0.1769 (  9140 PWs)   bands (ev):

   -39.3311 -39.3311 -39.3309 -39.3309 -39.3294 -39.3294 -39.3294 -39.3294
   -39.3008 -39.3008 -39.3006 -39.3006 -39.2971 -39.2971 -39.2969 -39.2969
   -39.2878 -39.2878 -39.2877 -39.2877 -13.2960 -13.2960 -13.2933 -13.2933
   -13.2737 -13.2737 -13.2706 -13.2706 -13.2582 -13.2582 -13.2541 -13.2541
   -13.2411 -13.2411 -13.2348 -13.2348 -13.2166 -13.2166 -13.2123 -13.2123
    -4.6058  -4.6058  -4.3836  -4.3836   0.9528   0.9528   1.4208   1.4208
     3.6649   3.6649   4.2556   4.2556   4.8399   4.8399   5.4008   5.4008
     6.3723   6.3723   6.8924   6.8924  10.3441  10.3441  10.8146  10.8146
    11.3782  11.3782  12.2794  12.2794  12.9641  12.9641  13.9747  13.9747
    14.8624  14.8624  15.1533  15.1533  16.8666  16.8666  17.3678  17.3678
    18.0487  18.0487  18.4806  18.4806  19.1022  19.1022  19.2673  19.2673
    20.3823  20.3823  20.8856  20.8856  21.5426  21.5426  22.1124  22.1124
    22.4010  22.4010  22.5534  22.5534

          k = 0.3500 0.3072 0.1769 (  9146 PWs)   bands (ev):

   -39.3311 -39.3311 -39.3309 -39.3309 -39.3295 -39.3295 -39.3294 -39.3294
   -39.3009 -39.3009 -39.3007 -39.3007 -39.2972 -39.2972 -39.2969 -39.2969
   -39.2878 -39.2878 -39.2877 -39.2877 -13.2951 -13.2951 -13.2919 -13.2919
   -13.2747 -13.2747 -13.2712 -13.2712 -13.2585 -13.2585 -13.2538 -13.2538
   -13.2419 -13.2419 -13.2341 -13.2341 -13.2173 -13.2173 -13.2124 -13.2124
    -4.6779  -4.6779  -4.3803  -4.3803   0.9013   0.9013   1.4643   1.4643
     3.6891   3.6891   4.3747   4.3747   4.9823   4.9823   5.6109   5.6109
     6.3353   6.3353   6.9976   6.9976  10.2767  10.2767  10.8213  10.8213
    11.1632  11.1632  12.2749  12.2749  12.6028  12.6028  13.8466  13.8466
    14.8288  14.8288  15.2507  15.2507  16.7962  16.7962  17.1714  17.1714
    17.8694  17.8694  18.2728  18.2728  19.1954  19.1954  19.3666  19.3666
    20.1934  20.1934  21.0277  21.0277  21.5506  21.5506  22.1175  22.1175
    22.3992  22.3992  22.4885  22.4885

          k = 0.3250 0.2853 0.1769 (  9144 PWs)   bands (ev):

   -39.3312 -39.3312 -39.3310 -39.3310 -39.3295 -39.3295 -39.3294 -39.3294
   -39.3010 -39.3010 -39.3007 -39.3007 -39.2972 -39.2972 -39.2970 -39.2970
   -39.2878 -39.2878 -39.2877 -39.2877 -13.2942 -13.2942 -13.2904 -13.2904
   -13.2758 -13.2758 -13.2718 -13.2718 -13.2587 -13.2587 -13.2535 -13.2535
   -13.2427 -13.2427 -13.2333 -13.2333 -13.2180 -13.2180 -13.2125 -13.2125
    -4.7561  -4.7561  -4.3775  -4.3775   0.8568   0.8568   1.5190   1.5190
     3.7364   3.7364   4.4888   4.4888   5.1086   5.1086   5.8078   5.8078
     6.3430   6.3430   7.1180   7.1180  10.1590  10.1590  10.7881  10.7881
    11.0034  11.0034  12.2632  12.2632  12.3026  12.3026  13.6999  13.6999
    14.8026  14.8026  15.3843  15.3843  16.6664  16.6664  16.8921  16.8921
    17.6617  17.6617  18.1222  18.1222  19.3062  19.3062  19.4956  19.4956
    19.9610  19.9610  21.0068  21.0068  21.6643  21.6643  22.0688  22.0688
    22.3503  22.3503  22.6005  22.6005

          k = 0.3000 0.2633 0.1769 (  9134 PWs)   bands (ev):

   -39.3311 -39.3311 -39.3310 -39.3310 -39.3295 -39.3295 -39.3294 -39.3294
   -39.3009 -39.3009 -39.3007 -39.3007 -39.2972 -39.2972 -39.2969 -39.2969
   -39.2878 -39.2878 -39.2877 -39.2877 -13.2931 -13.2931 -13.2890 -13.2890
   -13.2769 -13.2769 -13.2726 -13.2726 -13.2588 -13.2588 -13.2534 -13.2534
   -13.2435 -13.2435 -13.2325 -13.2325 -13.2187 -13.2187 -13.2127 -13.2127
    -4.8382  -4.8382  -4.3753  -4.3753   0.8220   0.8220   1.5876   1.5876
     3.8030   3.8030   4.5930   4.5930   5.1903   5.1903   6.0066   6.0066
     6.3951   6.3951   7.2382   7.2382  10.0263  10.0263  10.6758  10.6758
    10.9237  10.9237  12.0229  12.0229  12.3037  12.3037  13.5371  13.5371
    14.7783  14.7783  15.5574  15.5574  16.4187  16.4187  16.6715  16.6715
    17.4140  17.4140  18.0280  18.0280  19.3228  19.3228  19.6114  19.6114
    19.8294  19.8294  20.9032  20.9032  21.7160  21.7160  22.0139  22.0139
    22.2912  22.2912  22.7667  22.7667

          k = 0.2750 0.2414 0.1769 (  9124 PWs)   bands (ev):

   -39.3310 -39.3310 -39.3309 -39.3309 -39.3296 -39.3296 -39.3294 -39.3294
   -39.3008 -39.3008 -39.3006 -39.3006 -39.2971 -39.2971 -39.2969 -39.2969
   -39.2878 -39.2878 -39.2877 -39.2877 -13.2922 -13.2922 -13.2876 -13.2876
   -13.2779 -13.2779 -13.2736 -13.2736 -13.2588 -13.2588 -13.2535 -13.2535
   -13.2442 -13.2442 -13.2316 -13.2316 -13.2194 -13.2194 -13.2129 -13.2129
    -4.9218  -4.9218  -4.3741  -4.3741   0.7991   0.7991   1.6712   1.6712
     3.8844   3.8844   4.6779   4.6779   5.2332   5.2332   6.2034   6.2034
     6.4790   6.4790   7.3357   7.3357   9.9308   9.9308  10.4850  10.4850
    10.9192  10.9192  11.8332  11.8332  12.3246  12.3246  13.3632  13.3632
    14.7436  14.7436  15.7582  15.7582  16.1303  16.1303  16.4822  16.4822
    17.1871  17.1871  17.9468  17.9468  19.2138  19.2138  19.4935  19.4935
    20.0430  20.0430  20.7261  20.7261  21.6647  21.6647  22.0262  22.0262
    22.2807  22.2807  22.8367  22.8367

          k = 0.2500 0.2194 0.1769 (  9108 PWs)   bands (ev):

   -39.3310 -39.3310 -39.3308 -39.3308 -39.3295 -39.3295 -39.3294 -39.3294
   -39.3008 -39.3008 -39.3006 -39.3006 -39.2970 -39.2970 -39.2968 -39.2968
   -39.2878 -39.2878 -39.2877 -39.2877 -13.2915 -13.2915 -13.2864 -13.2864
   -13.2786 -13.2786 -13.2745 -13.2745 -13.2586 -13.2586 -13.2537 -13.2537
   -13.2448 -13.2448 -13.2306 -13.2306 -13.2200 -13.2200 -13.2131 -13.2131
    -5.0047  -5.0047  -4.3740  -4.3740   0.7897   0.7897   1.7701   1.7701
     3.9748   3.9748   4.7297   4.7297   5.2743   5.2743   6.3369   6.3369
     6.6058   6.6058   7.3971   7.3971   9.8791   9.8791  10.3214  10.3214
    10.9382  10.9382  11.6962  11.6962  12.3433  12.3433  13.1876  13.1876
    14.6870  14.6870  15.7809  15.7809  16.0142  16.0142  16.3401  16.3401
    17.0128  17.0128  17.8550  17.8550  19.0155  19.0155  19.4092  19.4092
    20.2846  20.2846  20.4711  20.4711  21.6100  21.6100  22.0762  22.0762
    22.3089  22.3089  22.8303  22.8303

          k = 0.2250 0.1975 0.1769 (  9112 PWs)   bands (ev):

   -39.3311 -39.3311 -39.3308 -39.3308 -39.3295 -39.3295 -39.3294 -39.3294
   -39.3009 -39.3009 -39.3006 -39.3006 -39.2971 -39.2971 -39.2968 -39.2968
   -39.2878 -39.2878 -39.2877 -39.2877 -13.2911 -13.2911 -13.2854 -13.2854
   -13.2790 -13.2790 -13.2755 -13.2755 -13.2583 -13.2583 -13.2541 -13.2541
   -13.2454 -13.2454 -13.2297 -13.2297 -13.2205 -13.2205 -13.2134 -13.2134
    -5.0849  -5.0849  -4.3749  -4.3749   0.7947   0.7947   1.8834   1.8834
     4.0657   4.0657   4.7436   4.7436   5.3439   5.3439   6.3621   6.3621
     6.7559   6.7559   7.4369   7.4369   9.8046   9.8046  10.3103  10.3103
    10.9635  10.9635  11.5978  11.5978  12.3519  12.3519  13.0275  13.0275
    14.6040  14.6040  15.5322  15.5322  15.9563  15.9563  16.4570  16.4570
    16.9078  16.9078  17.7421  17.7421  18.8070  18.8070  19.3530  19.3530
    20.1376  20.1376  20.5032  20.5032  21.5603  21.5603  22.1035  22.1035
    22.3022  22.3022  22.8558  22.8558

          k = 0.2000 0.1756 0.1769 (  9116 PWs)   bands (ev):

   -39.3311 -39.3311 -39.3309 -39.3309 -39.3296 -39.3296 -39.3295 -39.3295
   -39.3009 -39.3009 -39.3006 -39.3006 -39.2971 -39.2971 -39.2969 -39.2969
   -39.2878 -39.2878 -39.2877 -39.2877 -13.2912 -13.2912 -13.2845 -13.2845
   -13.2789 -13.2789 -13.2764 -13.2764 -13.2580 -13.2580 -13.2546 -13.2546
   -13.2458 -13.2458 -13.2287 -13.2287 -13.2209 -13.2209 -13.2137 -13.2137
    -5.1608  -5.1608  -4.3769  -4.3769   0.8138   0.8138   2.0096   2.0096
     4.1441   4.1441   4.7390   4.7390   5.4432   5.4432   6.3020   6.3020
     6.8560   6.8560   7.4786   7.4786   9.7291   9.7291  10.4389  10.4389
    10.9961  10.9961  11.5319  11.5319  12.3421  12.3421  12.9076  12.9076
    14.5012  14.5012  15.2780  15.2780  15.8163  15.8163  16.5986  16.5986
    16.9724  16.9724  17.6163  17.6163  18.6005  18.6005  19.3144  19.3144
    19.8500  19.8500  20.5701  20.5701  21.4892  21.4892  21.9731  21.9731
    22.1930  22.1930  22.7869  22.7869

          k = 0.1750 0.1536 0.1769 (  9106 PWs)   bands (ev):

   -39.3310 -39.3310 -39.3309 -39.3309 -39.3296 -39.3296 -39.3295 -39.3295
   -39.3008 -39.3008 -39.3005 -39.3005 -39.2970 -39.2970 -39.2969 -39.2969
   -39.2879 -39.2879 -39.2877 -39.2877 -13.2918 -13.2918 -13.2837 -13.2837
   -13.2789 -13.2789 -13.2769 -13.2769 -13.2577 -13.2577 -13.2552 -13.2552
   -13.2462 -13.2462 -13.2279 -13.2279 -13.2212 -13.2212 -13.2140 -13.2140
    -5.2309  -5.2309  -4.3797  -4.3797   0.8461   0.8461   2.1463   2.1463
     4.1919   4.1919   4.7476   4.7476   5.5571   5.5571   6.1824   6.1824
     6.8801   6.8801   7.5140   7.5140   9.7416   9.7416  10.5857  10.5857
    11.0360  11.0360  11.5108  11.5108  12.3235  12.3235  12.8444  12.8444
    14.3903  14.3903  15.0449  15.0449  15.6989  15.6989  16.5671  16.5671
    17.2120  17.2120  17.5315  17.5315  18.3837  18.3837  19.2760  19.2760
    19.6204  19.6204  20.4702  20.4702  21.3866  21.3866  21.6622  21.6622
    22.0186  22.0186  22.6222  22.6222

          k = 0.1500 0.1317 0.1769 (  9104 PWs)   bands (ev):

   -39.3310 -39.3310 -39.3308 -39.3308 -39.3297 -39.3297 -39.3296 -39.3296
   -39.3009 -39.3009 -39.3005 -39.3005 -39.2970 -39.2970 -39.2968 -39.2968
   -39.2879 -39.2879 -39.2876 -39.2876 -13.2927 -13.2927 -13.2830 -13.2830
   -13.2793 -13.2793 -13.2767 -13.2767 -13.2575 -13.2575 -13.2556 -13.2556
   -13.2465 -13.2465 -13.2273 -13.2273 -13.2213 -13.2213 -13.2143 -13.2143
    -5.2939  -5.2939  -4.3832  -4.3832   0.8892   0.8892   2.2902   2.2902
     4.1969   4.1969   4.7903   4.7903   5.6618   5.6618   6.0423   6.0423
     6.8340   6.8340   7.5274   7.5274   9.8620   9.8620  10.6816  10.6816
    11.0460  11.0460  11.5548  11.5548  12.3517  12.3517  12.8239  12.8239
    14.2812  14.2812  14.8550  14.8550  15.6150  15.6150  16.4874  16.4874
    17.2346  17.2346  17.6963  17.6963  18.1630  18.1630  19.2196  19.2196
    19.4323  19.4323  20.2718  20.2718  21.1733  21.1733  21.3542  21.3542
    21.9217  21.9217  22.4029  22.4029

          k = 0.1250 0.1097 0.1769 (  9110 PWs)   bands (ev):

   -39.3310 -39.3310 -39.3308 -39.3308 -39.3298 -39.3298 -39.3296 -39.3296
   -39.3008 -39.3008 -39.3005 -39.3005 -39.2971 -39.2971 -39.2968 -39.2968
   -39.2880 -39.2880 -39.2877 -39.2877 -13.2937 -13.2937 -13.2824 -13.2824
   -13.2798 -13.2798 -13.2761 -13.2761 -13.2576 -13.2576 -13.2558 -13.2558
   -13.2468 -13.2468 -13.2268 -13.2268 -13.2212 -13.2212 -13.2146 -13.2146
    -5.3488  -5.3488  -4.3870  -4.3870   0.9396   0.9396   2.4365   2.4365
     4.1658   4.1658   4.8628   4.8628   5.6913   5.6913   5.9648   5.9648
     6.7293   6.7293   7.5292   7.5292  10.0445  10.0445  10.7362  10.7362
    11.0118  11.0118  11.6155  11.6155  12.4940  12.4940  12.8164  12.8164
    14.1789  14.1789  14.7310  14.7310  15.5689  15.5689  16.3896  16.3896
    17.1008  17.1008  17.8507  17.8507  18.0566  18.0566  19.1174  19.1174
    19.2333  19.2333  20.1636  20.1636  20.7372  20.7372  21.2703  21.2703
    21.9005  21.9005  22.1508  22.1508

          k = 0.1000 0.0878 0.1769 (  9110 PWs)   bands (ev):

   -39.3310 -39.3310 -39.3308 -39.3308 -39.3298 -39.3298 -39.3296 -39.3296
   -39.3009 -39.3009 -39.3004 -39.3004 -39.2970 -39.2970 -39.2968 -39.2968
   -39.2880 -39.2880 -39.2877 -39.2877 -13.2946 -13.2946 -13.2822 -13.2822
   -13.2801 -13.2801 -13.2755 -13.2755 -13.2579 -13.2579 -13.2556 -13.2556
   -13.2470 -13.2470 -13.2266 -13.2266 -13.2210 -13.2210 -13.2148 -13.2148
    -5.3947  -5.3947  -4.3907  -4.3907   0.9931   0.9931   2.5786   2.5786
     4.1161   4.1161   4.9472   4.9472   5.5937   5.5937   6.0127   6.0127
     6.5906   6.5906   7.5319   7.5319  10.2110  10.2110  10.7364  10.7364
    11.0382  11.0382  11.6407  11.6407  12.7259  12.7259  12.8091  12.8091
    14.0869  14.0869  14.6902  14.6902  15.5676  15.5676  16.2784  16.2784
    16.9202  16.9202  17.7095  17.7095  18.1610  18.1610  18.8359  18.8359
    19.1728  19.1728  20.1608  20.1608  20.4251  20.4251  21.2272  21.2272
    21.8536  21.8536  21.9729  21.9729

          k = 0.0750 0.0658 0.1769 (  9118 PWs)   bands (ev):

   -39.3310 -39.3310 -39.3309 -39.3309 -39.3299 -39.3299 -39.3295 -39.3295
   -39.3008 -39.3008 -39.3004 -39.3004 -39.2970 -39.2970 -39.2969 -39.2969
   -39.2881 -39.2881 -39.2878 -39.2878 -13.2954 -13.2954 -13.2823 -13.2823
   -13.2800 -13.2800 -13.2750 -13.2750 -13.2584 -13.2584 -13.2553 -13.2553
   -13.2472 -13.2472 -13.2265 -13.2265 -13.2208 -13.2208 -13.2150 -13.2150
    -5.4311  -5.4311  -4.3940  -4.3940   1.0439   1.0439   2.7081   2.7081
     4.0623   4.0623   5.0275   5.0275   5.4710   5.4710   6.0854   6.0854
     6.4542   6.4542   7.5370   7.5370  10.3096  10.3096  10.6596  10.6596
    11.2057  11.2057  11.6437  11.6437  12.7516  12.7516  13.0066  13.0066
    14.0116  14.0116  14.7370  14.7370  15.6164  15.6164  16.1583  16.1583
    16.7125  16.7125  17.5385  17.5385  18.1250  18.1250  18.6444  18.6444
    19.0015  19.0015  20.1431  20.1431  20.4880  20.4880  21.2017  21.2017
    21.6464  21.6464  22.0228  22.0228

          k = 0.0500 0.0439 0.1769 (  9122 PWs)   bands (ev):

   -39.3310 -39.3310 -39.3309 -39.3309 -39.3300 -39.3300 -39.3296 -39.3296
   -39.3008 -39.3008 -39.3003 -39.3003 -39.2970 -39.2970 -39.2969 -39.2969
   -39.2881 -39.2881 -39.2879 -39.2879 -13.2961 -13.2961 -13.2826 -13.2826
   -13.2797 -13.2797 -13.2746 -13.2746 -13.2587 -13.2587 -13.2550 -13.2550
   -13.2474 -13.2474 -13.2265 -13.2265 -13.2205 -13.2205 -13.2152 -13.2152
    -5.4574  -5.4574  -4.3966  -4.3966   1.0862   1.0862   2.8142   2.8142
     4.0149   4.0149   5.0923   5.0923   5.3715   5.3715   6.1213   6.1213
     6.3641   6.3641   7.5419   7.5419  10.3545  10.3545  10.5692  10.5692
    11.4242  11.4242  11.6432  11.6432  12.7005  12.7005  13.2148  13.2148
    13.9590  13.9590  14.8554  14.8554  15.7098  15.7098  16.0407  16.0407
    16.5063  16.5063  17.3474  17.3474  18.0097  18.0097  18.5501  18.5501
    18.7410  18.7410  20.2131  20.2131  20.7287  20.7287  21.1863  21.1863
    21.4873  21.4873  22.1030  22.1030

          k = 0.0250 0.0219 0.1769 (  9124 PWs)   bands (ev):

   -39.3309 -39.3309 -39.3309 -39.3309 -39.3300 -39.3300 -39.3296 -39.3296
   -39.3008 -39.3008 -39.3004 -39.3004 -39.2970 -39.2970 -39.2969 -39.2969
   -39.2882 -39.2882 -39.2879 -39.2879 -13.2965 -13.2965 -13.2828 -13.2828
   -13.2795 -13.2795 -13.2744 -13.2744 -13.2590 -13.2590 -13.2548 -13.2548
   -13.2475 -13.2475 -13.2265 -13.2265 -13.2203 -13.2203 -13.2153 -13.2153
    -5.4733  -5.4733  -4.3982  -4.3982   1.1144   1.1144   2.8847   2.8847
     3.9824   3.9824   5.1342   5.1342   5.3081   5.3081   6.1058   6.1058
     6.3423   6.3423   7.5449   7.5449  10.3768  10.3768  10.4999  10.4999
    11.5847  11.5847  11.6614  11.6614  12.6488  12.6488  13.3413  13.3413
    13.9299  13.9299  14.9914  14.9914  15.8137  15.8137  15.9615  15.9615
    16.3265  16.3265  17.1829  17.1829  17.9255  17.9255  18.3835  18.3835
    18.6469  18.6469  20.2905  20.2905  20.9509  20.9509  21.1649  21.1649
    21.4615  21.4615  22.0669  22.0669

          k = 0.0000 0.0000 0.1769 (  9114 PWs)   bands (ev):

   -39.3310 -39.3310 -39.3309 -39.3309 -39.3299 -39.3299 -39.3295 -39.3295
   -39.3008 -39.3008 -39.3003 -39.3003 -39.2970 -39.2970 -39.2969 -39.2969
   -39.2881 -39.2881 -39.2878 -39.2878 -13.2966 -13.2966 -13.2829 -13.2829
   -13.2794 -13.2794 -13.2743 -13.2743 -13.2590 -13.2590 -13.2548 -13.2548
   -13.2475 -13.2475 -13.2265 -13.2265 -13.2202 -13.2202 -13.2153 -13.2153
    -5.4787  -5.4787  -4.3988  -4.3988   1.1243   1.1243   2.9096   2.9096
     3.9707   3.9707   5.1488   5.1488   5.2863   5.2863   6.0909   6.0909
     6.3440   6.3440   7.5459   7.5459  10.3867  10.3867  10.4715  10.4715
    11.6132  11.6132  11.7032  11.7032  12.6255  12.6255  13.3824  13.3824
    13.9210  13.9210  15.0547  15.0547  15.8445  15.8445  15.9666  15.9666
    16.2339  16.2339  17.1183  17.1183  17.8919  17.8919  18.3010  18.3010
    18.6366  18.6366  20.3211  20.3211  21.0227  21.0227  21.1476  21.1476
    21.5240  21.5240  21.9842  21.9842

          k = 0.0000 0.0000 0.1680 (  9112 PWs)   bands (ev):

   -39.3310 -39.3309 -39.3308 -39.3308 -39.3300 -39.3300 -39.3296 -39.3295
   -39.3008 -39.3006 -39.3003 -39.3002 -39.2970 -39.2969 -39.2969 -39.2968
   -39.2882 -39.2881 -39.2879 -39.2879 -13.2970 -13.2963 -13.2831 -13.2827
   -13.2795 -13.2793 -13.2744 -13.2742 -13.2591 -13.2590 -13.2550 -13.2545
   -13.2476 -13.2475 -13.2265 -13.2265 -13.2203 -13.2202 -13.2155 -13.2150
    -5.4885  -5.4686  -4.4127  -4.3851   1.0959   1.1539   2.8933   2.9250
     3.9250   4.0166   5.1349   5.1630   5.2756   5.2923   6.0740   6.1151
     6.3245   6.3631   7.5270   7.5644  10.3365  10.4110  10.4663  10.4978
    11.5698  11.6524  11.6759  11.7318  12.6120  12.6471  13.3450  13.4187
    13.8917  13.9524  15.0272  15.0822  15.8001  15.8896  15.9048  16.0328
    16.2153  16.2542  17.0948  17.1406  17.8698  17.9043  18.2849  18.3217
    18.6268  18.6482  20.1907  20.4361  20.9237  21.1047  21.1233  21.1664
    21.5309  21.5322  21.9356  22.0683

          k = 0.0000 0.0000 0.1592 (  9112 PWs)   bands (ev):

   -39.3310 -39.3309 -39.3309 -39.3308 -39.3300 -39.3300 -39.3296 -39.3295
   -39.3008 -39.3006 -39.3003 -39.3002 -39.2970 -39.2969 -39.2969 -39.2968
   -39.2882 -39.2881 -39.2879 -39.2878 -13.2973 -13.2959 -13.2832 -13.2826
   -13.2796 -13.2792 -13.2745 -13.2741 -13.2591 -13.2589 -13.2552 -13.2543
   -13.2476 -13.2474 -13.2265 -13.2265 -13.2203 -13.2202 -13.2158 -13.2148
    -5.4980  -5.4584  -4.4268  -4.3717   1.0688   1.1846   2.8760   2.9394
     3.8799   4.0626   5.1216   5.1776   5.2607   5.2933   6.0638   6.1467
     6.3047   6.3816   7.5077   7.5822  10.2713  10.4166  10.4712  10.5379
    11.5245  11.6500  11.6852  11.7616  12.6090  12.6744  13.3065  13.4537
    13.8654  13.9853  15.0003  15.1093  15.7566  15.8490  15.9352  16.1015
    16.1993  16.2757  17.0704  17.1610  17.8401  17.9052  18.2740  18.3462
    18.6156  18.6644  20.0514  20.5213  20.8264  21.0615  21.1567  21.2253
    21.5391  21.5537  21.9374  22.1761

          k = 0.0000 0.0000 0.1503 (  9108 PWs)   bands (ev):

   -39.3309 -39.3309 -39.3309 -39.3308 -39.3300 -39.3300 -39.3296 -39.3295
   -39.3008 -39.3006 -39.3003 -39.3002 -39.2970 -39.2969 -39.2969 -39.2968
   -39.2882 -39.2880 -39.2879 -39.2878 -13.2976 -13.2955 -13.2834 -13.2824
   -13.2797 -13.2791 -13.2746 -13.2741 -13.2592 -13.2589 -13.2554 -13.2540
   -13.2477 -13.2473 -13.2265 -13.2265 -13.2203 -13.2201 -13.2160 -13.2146
    -5.5071  -5.4480  -4.4410  -4.3587   1.0430   1.2163   2.8575   2.9529
     3.8355   4.1084   5.1088   5.1926   5.2421   5.2896   6.0598   6.1855
     6.2846   6.3996   7.4882   7.5993  10.1974  10.4172  10.4805  10.5784
    11.4788  11.6253  11.7096  11.7926  12.6184  12.7050  13.2669  13.4874
    13.8426  14.0191  14.9744  15.1349  15.7142  15.8007  15.9810  16.1595
    16.1981  16.2981  17.0459  17.1790  17.8050  17.8941  18.2693  18.3738
    18.6002  18.6874  19.9065  20.5527  20.7307  21.0520  21.1272  21.3283
    21.5366  21.5808  21.9921  22.1256

          k = 0.0000 0.0000 0.1415 (  9116 PWs)   bands (ev):

   -39.3310 -39.3309 -39.3309 -39.3309 -39.3300 -39.3300 -39.3296 -39.3295
   -39.3008 -39.3006 -39.3004 -39.3002 -39.2970 -39.2970 -39.2969 -39.2968
   -39.2882 -39.2881 -39.2879 -39.2878 -13.2979 -13.2951 -13.2836 -13.2823
   -13.2798 -13.2790 -13.2747 -13.2740 -13.2593 -13.2589 -13.2557 -13.2538
   -13.2477 -13.2473 -13.2266 -13.2265 -13.2203 -13.2201 -13.2163 -13.2144
    -5.5159  -5.4375  -4.4553  -4.3461   1.0185   1.2490   2.8378   2.9656
     3.7922   4.1539   5.0965   5.2078   5.2209   5.2814   6.0609   6.2311
     6.2644   6.4170   7.4686   7.6156  10.1169  10.4174  10.4922  10.6149
    11.4339  11.6020  11.7244  11.8248  12.6410  12.7371  13.2263  13.5196
    13.8241  14.0533  14.9495  15.1577  15.6731  15.7615  16.0268  16.1603
    16.2576  16.3214  17.0214  17.1939  17.7662  17.8717  18.2714  18.4038
    18.5786  18.7180  19.7580  20.5194  20.6366  21.0861  21.0915  21.4321
    21.5297  21.6084  21.9880  22.0844

          k = 0.0000 0.0000 0.1327 (  9114 PWs)   bands (ev):

   -39.3310 -39.3309 -39.3309 -39.3309 -39.3300 -39.3300 -39.3296 -39.3295
   -39.3008 -39.3006 -39.3003 -39.3003 -39.2970 -39.2970 -39.2970 -39.2969
   -39.2882 -39.2881 -39.2879 -39.2877 -13.2983 -13.2948 -13.2838 -13.2821
   -13.2798 -13.2789 -13.2748 -13.2739 -13.2593 -13.2588 -13.2559 -13.2536
   -13.2478 -13.2472 -13.2266 -13.2265 -13.2203 -13.2200 -13.2165 -13.2141
    -5.5244  -5.4270  -4.4694  -4.3340   0.9953   1.2825   2.8169   2.9775
     3.7503   4.1989   5.0849   5.1977   5.2232   5.2693   6.0661   6.2441
     6.2826   6.4336   7.4491   7.6310  10.0313  10.4184  10.5058  10.6465
    11.3906  11.5800  11.7295  11.8581  12.6764  12.7687  13.1849  13.5504
    13.8106  14.0874  14.9258  15.1764  15.6336  15.7335  16.0723  16.1495
    16.3311  16.3453  16.9975  17.2053  17.7253  17.8401  18.2809  18.4356
    18.5498  18.7558  19.6074  20.4416  20.5442  21.0387  21.1577  21.5288
    21.5359  21.6372  21.8542  22.1980

          k = 0.0000 0.0000 0.1238 (  9100 PWs)   bands (ev):

   -39.3310 -39.3309 -39.3308 -39.3308 -39.3299 -39.3299 -39.3296 -39.3294
   -39.3007 -39.3004 -39.3003 -39.3003 -39.2970 -39.2970 -39.2969 -39.2968
   -39.2881 -39.2881 -39.2877 -39.2876 -13.2985 -13.2944 -13.2840 -13.2820
   -13.2799 -13.2788 -13.2749 -13.2738 -13.2594 -13.2588 -13.2561 -13.2533
   -13.2478 -13.2471 -13.2266 -13.2265 -13.2203 -13.2200 -13.2168 -13.2139
    -5.5323  -5.4166  -4.4834  -4.3225   0.9736   1.3168   2.7947   2.9887
     3.7101   4.2432   5.0739   5.1736   5.2386   5.2540   6.0747   6.2239
     6.3394   6.4494   7.4298   7.6455   9.9415  10.4206  10.5209  10.6730
    11.3492  11.5594  11.7260  11.8926  12.7229  12.7985  13.1426  13.5797
    13.8026  14.1207  14.9035  15.1895  15.5958  15.7184  16.1173  16.1395
    16.3696  16.4048  16.9743  17.2129  17.6835  17.8024  18.2981  18.4686
    18.5131  18.7992  19.4561  20.3429  20.4532  20.9879  21.2185  21.5392
    21.6385  21.6753  21.7248  22.3234

          k = 0.0000 0.0000 0.1150 (  9094 PWs)   bands (ev):

   -39.3309 -39.3309 -39.3308 -39.3308 -39.3300 -39.3299 -39.3295 -39.3294
   -39.3006 -39.3004 -39.3003 -39.3002 -39.2970 -39.2969 -39.2969 -39.2968
   -39.2881 -39.2880 -39.2877 -39.2876 -13.2988 -13.2940 -13.2842 -13.2819
   -13.2800 -13.2787 -13.2750 -13.2738 -13.2595 -13.2588 -13.2562 -13.2531
   -13.2478 -13.2470 -13.2266 -13.2265 -13.2203 -13.2199 -13.2170 -13.2137
    -5.5399  -5.4062  -4.4972  -4.3115   0.9533   1.3516   2.7712   2.9992
     3.6718   4.2868   5.0635   5.1491   5.2358   5.2541   6.0857   6.2040
     6.4006   6.4644   7.4109   7.6589   9.8487  10.4244  10.5373  10.6944
    11.3099  11.5401  11.7157  11.9281  12.7778  12.8252  13.0997  13.6073
    13.8005  14.1530  14.8825  15.1962  15.5599  15.7173  16.1314  16.1615
    16.3942  16.4761  16.9522  17.2167  17.6417  17.7621  18.3234  18.4688
    18.5023  18.8464  19.3054  20.2362  20.3636  20.9361  21.2495  21.5619
    21.6004  21.7355  21.7380  22.4557

          k = 0.0000 0.0000 0.1061 (  9096 PWs)   bands (ev):

   -39.3309 -39.3309 -39.3308 -39.3308 -39.3300 -39.3299 -39.3296 -39.3294
   -39.3006 -39.3004 -39.3003 -39.3001 -39.2970 -39.2969 -39.2969 -39.2968
   -39.2881 -39.2880 -39.2878 -39.2876 -13.2991 -13.2936 -13.2844 -13.2817
   -13.2800 -13.2785 -13.2752 -13.2737 -13.2595 -13.2587 -13.2564 -13.2529
   -13.2479 -13.2470 -13.2267 -13.2265 -13.2203 -13.2199 -13.2172 -13.2135
    -5.5469  -5.3961  -4.5106  -4.3012   0.9344   1.3868   2.7465   3.0089
     3.6357   4.3294   5.0538   5.1249   5.2155   5.2694   6.0983   6.1843
     6.4653   6.4786   7.3926   7.6713   9.7538  10.4298  10.5549  10.7111
    11.2726  11.5223  11.7008  11.9646  12.8385  12.8481  13.0561  13.6333
    13.8044  14.1837  14.8629  15.1970  15.5260  15.7301  16.1255  16.2046
    16.4188  16.5426  16.9313  17.2168  17.6008  17.7234  18.3565  18.4172
    18.5362  18.8949  19.1569  20.1287  20.2751  20.8848  21.2415  21.4815
    21.5960  21.8239  21.8302  22.4334

          k = 0.0000 0.0000 0.0973 (  9094 PWs)   bands (ev):

   -39.3309 -39.3309 -39.3309 -39.3308 -39.3300 -39.3299 -39.3296 -39.3295
   -39.3006 -39.3004 -39.3004 -39.3001 -39.2970 -39.2969 -39.2969 -39.2967
   -39.2881 -39.2880 -39.2878 -39.2876 -13.2993 -13.2932 -13.2846 -13.2816
   -13.2801 -13.2784 -13.2753 -13.2737 -13.2596 -13.2587 -13.2566 -13.2527
   -13.2479 -13.2469 -13.2267 -13.2266 -13.2203 -13.2199 -13.2175 -13.2134
    -5.5535  -5.3862  -4.5235  -4.2916   0.9170   1.4221   2.7207   3.0179
     3.6021   4.3710   5.0448   5.1014   5.1933   5.2845   6.1119   6.1652
     6.4917   6.5326   7.3749   7.6826   9.6580  10.4367  10.5734  10.7231
    11.2373  11.5058  11.6830  12.0020  12.8667  12.9023  13.0120  13.6575
    13.8141  14.2126  14.8448  15.1931  15.4944  15.7552  16.1222  16.2464
    16.4432  16.6012  16.9116  17.2134  17.5614  17.6908  18.3590  18.3972
    18.5697  18.9414  19.0122  20.0254  20.1875  20.8351  21.2010  21.3687
    21.6397  21.9076  21.9343  22.4006

          k = 0.0000 0.0000 0.0884 (  9092 PWs)   bands (ev):

   -39.3309 -39.3309 -39.3309 -39.3308 -39.3299 -39.3298 -39.3296 -39.3294
   -39.3006 -39.3004 -39.3003 -39.3001 -39.2970 -39.2969 -39.2969 -39.2967
   -39.2880 -39.2880 -39.2877 -39.2875 -13.2996 -13.2929 -13.2848 -13.2815
   -13.2801 -13.2783 -13.2754 -13.2736 -13.2597 -13.2587 -13.2567 -13.2525
   -13.2479 -13.2468 -13.2267 -13.2266 -13.2203 -13.2198 -13.2177 -13.2132
    -5.5596  -5.3767  -4.5359  -4.2826   0.9010   1.4573   2.6940   3.0262
     3.5712   4.4115   5.0365   5.0792   5.1699   5.2992   6.1259   6.1466
     6.5039   6.6015   7.3581   7.6928   9.5625  10.4452  10.5926  10.7308
    11.2038  11.4908  11.6639  12.0403  12.8810  12.9667  12.9675  13.6799
    13.8290  14.2394  14.8281  15.1866  15.4650  15.7907  16.1216  16.2867
    16.4671  16.6487  16.8935  17.2071  17.5243  17.6688  18.2945  18.4450
    18.6024  18.8734  18.9815  19.9316  20.1005  20.7880  21.1382  21.2629
    21.6909  21.9583  22.0584  22.4001

          k = 0.0000 0.0000 0.0796 (  9084 PWs)   bands (ev):

   -39.3309 -39.3309 -39.3308 -39.3307 -39.3299 -39.3298 -39.3295 -39.3294
   -39.3006 -39.3004 -39.3003 -39.3000 -39.2971 -39.2970 -39.2968 -39.2966
   -39.2880 -39.2880 -39.2876 -39.2875 -13.2998 -13.2925 -13.2850 -13.2814
   -13.2802 -13.2782 -13.2755 -13.2736 -13.2597 -13.2587 -13.2569 -13.2523
   -13.2479 -13.2468 -13.2268 -13.2266 -13.2203 -13.2197 -13.2178 -13.2130
    -5.5651  -5.3677  -4.5475  -4.2744   0.8866   1.4921   2.6667   3.0337
     3.5431   4.4507   5.0290   5.0584   5.1455   5.3134   6.1290   6.1399
     6.5151   6.6711   7.3423   7.7020   9.4684  10.4551  10.6125  10.7344
    11.1721  11.4772  11.6448  12.0794  12.8913  12.9227  13.0297  13.7004
    13.8481  14.2638  14.8128  15.1793  15.4381  15.8341  16.1238  16.3250
    16.4903  16.6817  16.8768  17.1984  17.4901  17.6621  18.2238  18.4995
    18.6339  18.7428  19.0092  19.8538  20.0138  20.7440  21.0612  21.1646
    21.7472  21.9747  22.1901  22.4399

          k = 0.0000 0.0000 0.0707 (  9080 PWs)   bands (ev):

   -39.3310 -39.3308 -39.3308 -39.3306 -39.3299 -39.3299 -39.3295 -39.3294
   -39.3005 -39.3004 -39.3003 -39.3000 -39.2970 -39.2970 -39.2967 -39.2966
   -39.2880 -39.2880 -39.2876 -39.2875 -13.2999 -13.2922 -13.2852 -13.2814
   -13.2802 -13.2780 -13.2757 -13.2735 -13.2598 -13.2586 -13.2570 -13.2522
   -13.2479 -13.2467 -13.2268 -13.2266 -13.2203 -13.2197 -13.2180 -13.2129
    -5.5701  -5.3592  -4.5584  -4.2670   0.8736   1.5259   2.6391   3.0405
     3.5180   4.4885   5.0222   5.0394   5.1206   5.3269   6.1123   6.1534
     6.5252   6.7402   7.3276   7.7100   9.3770  10.4664  10.6329  10.7342
    11.1420  11.4650  11.6267  12.1191  12.8778  12.8981  13.0896  13.7189
    13.8703  14.2857  14.7991  15.1727  15.4138  15.8833  16.1291  16.3610
    16.5125  16.6982  16.8618  17.1879  17.4595  17.6735  18.1471  18.5599
    18.6230  18.6636  19.0172  19.7996  19.9271  20.7037  20.9750  21.0746
    21.8063  21.9635  22.3254  22.5133

          k = 0.0000 0.0000 0.0619 (  9091 PWs)   bands (ev):

   -39.3310 -39.3309 -39.3309 -39.3307 -39.3299 -39.3298 -39.3295 -39.3295
   -39.3005 -39.3004 -39.3003 -39.3001 -39.2971 -39.2970 -39.2968 -39.2966
   -39.2881 -39.2879 -39.2876 -39.2876 -13.3001 -13.2919 -13.2854 -13.2813
   -13.2803 -13.2779 -13.2758 -13.2735 -13.2599 -13.2586 -13.2571 -13.2520
   -13.2480 -13.2467 -13.2268 -13.2267 -13.2203 -13.2197 -13.2182 -13.2128
    -5.5745  -5.3514  -4.5684  -4.2604   0.8622   1.5585   2.6118   3.0466
     3.4958   4.5247   5.0162   5.0223   5.0954   5.3395   6.0968   6.1661
     6.5342   6.8076   7.3142   7.7170   9.2897  10.4789  10.6533  10.7306
    11.1135  11.4542  11.6100  12.1593  12.8330  12.9020  13.1450  13.7354
    13.8942  14.3050  14.7868  15.1675  15.3921  15.9361  16.1372  16.3945
    16.5334  16.6983  16.8485  17.1764  17.4335  17.7040  18.0642  18.5167
    18.6256  18.6911  18.9994  19.7754  19.8403  20.6674  20.8832  20.9936
    21.8658  21.9382  22.4620  22.6066

          k = 0.0000 0.0000 0.0531 (  9091 PWs)   bands (ev):

   -39.3310 -39.3309 -39.3309 -39.3307 -39.3299 -39.3298 -39.3295 -39.3295
   -39.3005 -39.3004 -39.3004 -39.3001 -39.2971 -39.2970 -39.2968 -39.2966
   -39.2881 -39.2879 -39.2876 -39.2876 -13.3003 -13.2916 -13.2856 -13.2812
   -13.2803 -13.2778 -13.2759 -13.2735 -13.2599 -13.2586 -13.2572 -13.2519
   -13.2480 -13.2466 -13.2269 -13.2267 -13.2203 -13.2196 -13.2183 -13.2127
    -5.5784  -5.3444  -4.5773  -4.2546   0.8522   1.5891   2.5855   3.0519
     3.4767   4.5589   5.0073   5.0110   5.0706   5.3510   6.0828   6.1776
     6.5420   6.8718   7.3021   7.7230   9.2082  10.4924  10.6736  10.7242
    11.0867  11.4448  11.5953  12.1997  12.7885  12.9038  13.1946  13.7499
    13.9184  14.3217  14.7761  15.1642  15.3731  15.9905  16.1483  16.4249
    16.5526  16.6842  16.8369  17.1645  17.4128  17.7518  17.9762  18.4255
    18.6958  18.7160  18.9550  19.7533  19.7824  20.6355  20.7882  20.9223
    21.9082  21.9235  22.5974  22.7101

          k = 0.0000 0.0000 0.0442 (  9099 PWs)   bands (ev):

   -39.3310 -39.3309 -39.3309 -39.3308 -39.3300 -39.3298 -39.3295 -39.3295
   -39.3005 -39.3004 -39.3004 -39.3003 -39.2972 -39.2971 -39.2968 -39.2967
   -39.2881 -39.2879 -39.2876 -39.2876 -13.3004 -13.2913 -13.2858 -13.2812
   -13.2804 -13.2777 -13.2760 -13.2735 -13.2600 -13.2586 -13.2573 -13.2518
   -13.2480 -13.2466 -13.2269 -13.2267 -13.2203 -13.2196 -13.2185 -13.2126
    -5.5816  -5.3383  -4.5850  -4.2497   0.8438   1.6171   2.5609   3.0564
     3.4606   4.5907   4.9944   5.0065   5.0465   5.3612   6.0705   6.1879
     6.5487   6.9314   7.2914   7.7280   9.1341  10.5065  10.6933  10.7154
    11.0619  11.4369  11.5828  12.2400  12.7447  12.9041  13.2376  13.7622
    13.9416  14.3358  14.7669  15.1627  15.3569  16.0441  16.1618  16.4518
    16.5697  16.6602  16.8270  17.1529  17.3988  17.8132  17.8852  18.3502
    18.7378  18.7698  18.8896  19.6661  19.8156  20.6080  20.6916  20.8611
    21.8786  21.9771  22.7294  22.8177

          k = 0.0000 0.0000 0.0354 (  9099 PWs)   bands (ev):

   -39.3310 -39.3310 -39.3309 -39.3308 -39.3300 -39.3297 -39.3295 -39.3294
   -39.3005 -39.3005 -39.3004 -39.3003 -39.2972 -39.2970 -39.2970 -39.2967
   -39.2881 -39.2879 -39.2876 -39.2875 -13.3005 -13.2911 -13.2859 -13.2811
   -13.2804 -13.2776 -13.2762 -13.2735 -13.2600 -13.2586 -13.2574 -13.2517
   -13.2480 -13.2466 -13.2269 -13.2267 -13.2203 -13.2196 -13.2186 -13.2125
    -5.5843  -5.3331  -4.5916  -4.2457   0.8369   1.6417   2.5389   3.0601
     3.4476   4.6195   4.9838   5.0029   5.0239   5.3699   6.0600   6.1965
     6.5542   6.9844   7.2822   7.7320   9.0694  10.5207  10.7050  10.7118
    11.0394  11.4304  11.5726  12.2795  12.7022  12.9035  13.2734  13.7723
    13.9625  14.3472  14.7593  15.1626  15.3436  16.0943  16.1772  16.4748
    16.5844  16.6307  16.8188  17.1421  17.3926  17.7946  17.8837  18.2902
    18.7563  18.8114  18.8467  19.5792  19.8679  20.5854  20.5951  20.8105
    21.8523  22.0244  22.8549  22.9253

          k = 0.0000 0.0000 0.0265 (  9109 PWs)   bands (ev):

   -39.3311 -39.3310 -39.3310 -39.3308 -39.3300 -39.3296 -39.3295 -39.3295
   -39.3006 -39.3005 -39.3004 -39.3004 -39.2972 -39.2970 -39.2970 -39.2967
   -39.2881 -39.2879 -39.2877 -39.2875 -13.3006 -13.2909 -13.2861 -13.2811
   -13.2804 -13.2775 -13.2763 -13.2734 -13.2600 -13.2586 -13.2574 -13.2516
   -13.2480 -13.2465 -13.2269 -13.2268 -13.2203 -13.2196 -13.2187 -13.2125
    -5.5864  -5.3290  -4.5967  -4.2425   0.8316   1.6621   2.5204   3.0630
     3.4374   4.6444   4.9755   5.0000   5.0038   5.3769   6.0515   6.2034
     6.5585   7.0289   7.2745   7.7351   9.0160  10.5344  10.6940  10.7282
    11.0201  11.4254  11.5647  12.3173  12.6622  12.9025  13.3016  13.7802
    13.9800  14.3561  14.7533  15.1633  15.3332  16.1382  16.1931  16.4934
    16.5962  16.6004  16.8125  17.1330  17.3955  17.7086  17.9581  18.2447
    18.7288  18.7710  18.9249  19.4934  19.9324  20.5002  20.5676  20.7708
    21.8306  22.0637  22.9695  23.0280

          k = 0.0000 0.0000 0.0177 (  9093 PWs)   bands (ev):

   -39.3310 -39.3309 -39.3309 -39.3308 -39.3300 -39.3295 -39.3295 -39.3294
   -39.3006 -39.3005 -39.3004 -39.3002 -39.2970 -39.2970 -39.2970 -39.2967
   -39.2881 -39.2878 -39.2877 -39.2875 -13.3006 -13.2907 -13.2862 -13.2811
   -13.2804 -13.2774 -13.2764 -13.2734 -13.2600 -13.2586 -13.2575 -13.2515
   -13.2480 -13.2465 -13.2270 -13.2268 -13.2202 -13.2196 -13.2187 -13.2124
    -5.5879  -5.3260  -4.6005  -4.2402   0.8277   1.6775   2.5064   3.0651
     3.4302   4.6641   4.9695   4.9876   4.9980   5.3821   6.0454   6.2084
     6.5616   7.0629   7.2686   7.7373   8.9761  10.5464  10.6838  10.7415
    11.0047  11.4218  11.5592  12.3511  12.6268  12.9016  13.3218  13.7859
    13.9931  14.3624  14.7490  15.1644  15.3258  16.1727  16.2078  16.5071
    16.5737  16.6049  16.8080  17.1259  17.4082  17.6318  18.0291  18.2127
    18.6510  18.7818  19.0020  19.4111  20.0033  20.4095  20.5548  20.7424
    21.8146  22.0931  23.0661  23.1185

          k = 0.0000 0.0000 0.0088 (  9091 PWs)   bands (ev):

   -39.3310 -39.3309 -39.3308 -39.3308 -39.3300 -39.3295 -39.3294 -39.3294
   -39.3007 -39.3005 -39.3004 -39.3003 -39.2970 -39.2970 -39.2969 -39.2966
   -39.2881 -39.2878 -39.2877 -39.2875 -13.3006 -13.2906 -13.2862 -13.2810
   -13.2804 -13.2773 -13.2764 -13.2734 -13.2601 -13.2586 -13.2575 -13.2515
   -13.2480 -13.2465 -13.2270 -13.2268 -13.2202 -13.2196 -13.2188 -13.2124
    -5.5889  -5.3241  -4.6028  -4.2389   0.8254   1.6870   2.4976   3.0663
     3.4259   4.6768   4.9659   4.9768   4.9968   5.3852   6.0416   6.2115
     6.5635   7.0844   7.2648   7.7386   8.9514  10.5550  10.6762  10.7503
    10.9947  11.4196  11.5558  12.3765  12.6004  12.9009  13.3340  13.7893
    14.0013  14.3662  14.7464  15.1653  15.3213  16.1949  16.2184  16.5155
    16.5552  16.6103  16.8053  17.1215  17.4286  17.5708  18.0847  18.1937
    18.5911  18.7883  19.0704  19.3397  20.0713  20.3303  20.5471  20.7253
    21.8048  22.1112  23.1336  23.1846

          k = 0.0000 0.0000 0.0000 (  9087 PWs)   bands (ev):

   -39.3310 -39.3309 -39.3308 -39.3307 -39.3300 -39.3296 -39.3294 -39.3294
   -39.3007 -39.3005 -39.3003 -39.3003 -39.2970 -39.2969 -39.2969 -39.2965
   -39.2882 -39.2878 -39.2877 -39.2874 -13.3006 -13.2906 -13.2863 -13.2810
   -13.2804 -13.2773 -13.2764 -13.2734 -13.2601 -13.2586 -13.2575 -13.2515
   -13.2480 -13.2465 -13.2270 -13.2268 -13.2202 -13.2196 -13.2188 -13.2124
    -5.5892  -5.3235  -4.6035  -4.2384   0.8247   1.6903   2.4946   3.0667
     3.4245   4.6813   4.9647   4.9730   4.9964   5.3863   6.0404   6.2125
     6.5641   7.0918   7.2634   7.7390   8.9430  10.5581  10.6733  10.7534
    10.9912  11.4189  11.5547  12.3864  12.5901  12.9007  13.3381  13.7905
    14.0041  14.3674  14.7455  15.1656  15.3198  16.2026  16.2223  16.5184
    16.5485  16.6121  16.8044  17.1200  17.4425  17.5431  18.1069  18.1874
    18.5673  18.7905  19.1037  19.3054  20.1069  20.2911  20.5445  20.7195
    21.8015  22.1174  23.1584  23.2098

     Writing all to output data dir ./bulk/snse.save/

     init_run     :      1.57s CPU      1.96s WALL (       1 calls)
     electrons    :   4714.53s CPU   5551.36s WALL (       1 calls)

     Called by init_run:
     wfcinit      :      0.00s CPU      0.00s WALL (       1 calls)
     wfcinit:atom :      0.45s CPU      1.21s WALL (     101 calls)
     wfcinit:wfcr :     89.53s CPU    108.34s WALL (     101 calls)
     potinit      :      0.32s CPU      0.44s WALL (       1 calls)
     hinit0       :      0.76s CPU      0.67s WALL (       1 calls)

     Called by electrons:
     c_bands      :   4714.52s CPU   5551.34s WALL (       1 calls)
     v_of_rho     :      0.04s CPU      0.04s WALL (       1 calls)
     v_h          :      0.00s CPU      0.00s WALL (       1 calls)
     v_xc         :      0.04s CPU      0.04s WALL (       1 calls)
     newd         :      0.39s CPU      0.75s WALL (       1 calls)
     PAW_pot      :      0.13s CPU      0.12s WALL (       1 calls)

     Called by c_bands:
     init_us_2    :      0.14s CPU      0.15s WALL (     101 calls)
     init_us_2:cp :      0.14s CPU      0.15s WALL (     101 calls)
     cegterg      :   4593.84s CPU   5409.07s WALL (     244 calls)

     Called by sum_band:

     Called by *egterg:
     cdiaghg      :    732.56s CPU    639.17s WALL (    4186 calls)
     cegterg:over :   1514.48s CPU   1722.64s WALL (    4085 calls)
     cegterg:upda :    151.95s CPU    271.32s WALL (    4085 calls)
     cegterg:last :    203.70s CPU    297.14s WALL (    1972 calls)
     h_psi        :    959.59s CPU   1296.03s WALL (    4430 calls)
     s_psi        :     97.30s CPU    143.11s WALL (    4430 calls)
     g_psi        :      1.09s CPU      0.64s WALL (    4085 calls)

     Called by h_psi:
     h_psi:calbec :    587.49s CPU    668.63s WALL (    4430 calls)
     vloc_psi     :    185.46s CPU    190.12s WALL (    4430 calls)
     add_vuspsi   :    175.99s CPU    398.49s WALL (    4430 calls)

     General routines
     calbec       :    587.44s CPU    668.49s WALL (    4430 calls)
     fft          :      0.31s CPU      0.28s WALL (      13 calls)
     ffts         :      0.13s CPU      0.12s WALL (       1 calls)
     fftw         :    179.28s CPU    183.67s WALL (  397416 calls)
     interpolate  :      0.14s CPU      0.12s WALL (       1 calls)
     davcio       :      3.24s CPU      9.28s WALL (     202 calls)

     Parallel routines

     PAW routines
     PAW_pot      :      0.13s CPU      0.12s WALL (       1 calls)

     PWSCF        :      1h19m CPU      1h35m WALL


   This run was terminated on:   7:38:59  25Jun2025            

=------------------------------------------------------------------------------=
   JOB DONE.
=------------------------------------------------------------------------------=
