ANIMSTEPS   24
CRYSTAL
PRIMVEC
    4.126250941    0.000000000    0.000000000
    0.000000000    4.700907440    0.000000000
    0.000000000    0.000000000   26.671082942
PRIMCOORD    1
      8   1
   Sn     3.09469   1.77015   7.21781   0.00860   0.00000  -0.00000
   Sn     1.03156   4.12060  10.27887  -0.00659   0.00000   0.00000
   Sn     1.03156   2.93076   4.44665  -0.00858   0.00000   0.00000
   Sn     3.09469   0.58031   1.38558   0.00657   0.00000  -0.00000
   Se     1.03156   2.39362   1.73279  -0.04514   0.00000  -0.00000
   Se     1.03156   4.65774   7.56502  -0.05334   0.00000  -0.00000
   Se     3.09469   0.04316   4.09944   0.05325  -0.00000  -0.00000
   Se     3.09469   2.30729   9.93167   0.04524  -0.00000  -0.00000
PRIMCOORD    2
      8   1
   Sn     3.09469   1.77015   7.21781   0.00462   0.00000  -0.00000
   Sn     1.03156   4.12060  10.27887  -0.00744  -0.00000   0.00000
   Sn     1.03156   2.93076   4.44665   0.00463  -0.00000   0.00000
   Sn     3.09469   0.58031   1.38558  -0.00745   0.00000  -0.00000
   Se     1.03156   2.39362   1.73279   0.05174   0.00000   0.00000
   Se     1.03156   4.65774   7.56502  -0.04741  -0.00000   0.00000
   Se     3.09469   0.04316   4.09944  -0.04750  -0.00000   0.00000
   Se     3.09469   2.30729   9.93167   0.05163   0.00000   0.00000
PRIMCOORD    3
      8   1
   Sn     3.09469   1.77015   7.21781  -0.00347  -0.00000  -0.00000
   Sn     1.03156   4.12060  10.27887  -0.00339  -0.00000  -0.00000
   Sn     1.03156   2.93076   4.44665   0.00347  -0.00000  -0.00000
   Sn     3.09469   0.58031   1.38558   0.00338  -0.00000  -0.00000
   Se     1.03156   2.39362   1.73279  -0.05390  -0.00000  -0.00000
   Se     1.03156   4.65774   7.56502   0.04550   0.00000   0.00000
   Se     3.09469   0.04316   4.09944  -0.04550   0.00000  -0.00000
   Se     3.09469   2.30729   9.93167   0.05392  -0.00000   0.00000
PRIMCOORD    4
      8   1
   Sn     3.09469   1.77015   7.21781   0.00000  -0.00751  -0.00383
   Sn     1.03156   4.12060  10.27887   0.00000  -0.00257   0.00068
   Sn     1.03156   2.93076   4.44665  -0.00000  -0.01123   0.00346
   Sn     3.09469   0.58031   1.38558  -0.00000   0.00102  -0.00082
   Se     1.03156   2.39362   1.73279   0.00000  -0.03689  -0.00985
   Se     1.03156   4.65774   7.56502  -0.00000  -0.00497  -0.00493
   Se     3.09469   0.04316   4.09944   0.00000   0.08879   0.00715
   Se     3.09469   2.30729   9.93167  -0.00000  -0.01643   0.00842
PRIMCOORD    5
      8   1
   Sn     3.09469   1.77015   7.21781  -0.00000  -0.00035  -0.01445
   Sn     1.03156   4.12060  10.27887  -0.00000  -0.00384  -0.00134
   Sn     1.03156   2.93076   4.44665   0.00000   0.00308   0.01422
   Sn     3.09469   0.58031   1.38558  -0.00000  -0.00014  -0.00371
   Se     1.03156   2.39362   1.73279   0.00000   0.01538  -0.04431
   Se     1.03156   4.65774   7.56502   0.00000   0.00875  -0.04640
   Se     3.09469   0.04316   4.09944  -0.00000  -0.01251   0.04842
   Se     3.09469   2.30729   9.93167   0.00000  -0.00975   0.05023
PRIMCOORD    6
      8   1
   Sn     3.09469   1.77015   7.21781   0.00000  -0.00402   0.00233
   Sn     1.03156   4.12060  10.27887   0.00000   0.00704   0.00245
   Sn     1.03156   2.93076   4.44665   0.00000   0.00134  -0.00164
   Sn     3.09469   0.58031   1.38558   0.00000  -0.00444   0.00088
   Se     1.03156   2.39362   1.73279  -0.00000   0.06322  -0.00311
   Se     1.03156   4.65774   7.56502  -0.00000  -0.00532   0.01382
   Se     3.09469   0.04316   4.09944  -0.00000   0.01473  -0.01374
   Se     3.09469   2.30729   9.93167  -0.00000  -0.07251  -0.00302
PRIMCOORD    7
      8   1
   Sn     3.09469   1.77015   7.21781   0.00000   0.00313   0.01132
   Sn     1.03156   4.12060  10.27887   0.00000  -0.00098   0.00246
   Sn     1.03156   2.93076   4.44665   0.00000   0.00018   0.00341
   Sn     3.09469   0.58031   1.38558   0.00000   0.00690  -0.00745
   Se     1.03156   2.39362   1.73279  -0.00000  -0.02075   0.05130
   Se     1.03156   4.65774   7.56502  -0.00000   0.04735  -0.05353
   Se     3.09469   0.04316   4.09944  -0.00000  -0.00774  -0.01967
   Se     3.09469   2.30729   9.93167  -0.00000  -0.03273   0.00724
PRIMCOORD    8
      8   1
   Sn     3.09469   1.77015   7.21781   0.00000   0.00545   0.00219
   Sn     1.03156   4.12060  10.27887   0.00000   0.00541   0.00291
   Sn     1.03156   2.93076   4.44665   0.00000   0.00817   0.01680
   Sn     3.09469   0.58031   1.38558   0.00000  -0.00009   0.01173
   Se     1.03156   2.39362   1.73279  -0.00000  -0.01856  -0.03502
   Se     1.03156   4.65774   7.56502  -0.00000   0.00030   0.01022
   Se     3.09469   0.04316   4.09944  -0.00000  -0.00821  -0.07355
   Se     3.09469   2.30729   9.93167  -0.00000  -0.00200   0.04780
PRIMCOORD    9
      8   1
   Sn     3.09469   1.77015   7.21781   0.02564  -0.00000  -0.00000
   Sn     1.03156   4.12060  10.27887   0.02959   0.00000  -0.00000
   Sn     1.03156   2.93076   4.44665   0.02564  -0.00000  -0.00000
   Sn     3.09469   0.58031   1.38558   0.02956  -0.00000  -0.00000
   Se     1.03156   2.39362   1.73279  -0.03820  -0.00000  -0.00000
   Se     1.03156   4.65774   7.56502  -0.04482   0.00000   0.00000
   Se     3.09469   0.04316   4.09944  -0.04483  -0.00000   0.00000
   Se     3.09469   2.30729   9.93167  -0.03818   0.00000  -0.00000
PRIMCOORD   10
      8   1
   Sn     3.09469   1.77015   7.21781  -0.00000  -0.00511  -0.01960
   Sn     1.03156   4.12060  10.27887  -0.00000   0.01685  -0.00684
   Sn     1.03156   2.93076   4.44665  -0.00000   0.00267  -0.01772
   Sn     3.09469   0.58031   1.38558  -0.00000   0.00704   0.00247
   Se     1.03156   2.39362   1.73279   0.00000  -0.03581  -0.01534
   Se     1.03156   4.65774   7.56502   0.00000   0.05327   0.05143
   Se     3.09469   0.04316   4.09944   0.00000  -0.01838   0.02353
   Se     3.09469   2.30729   9.93167   0.00000  -0.03132   0.00304
PRIMCOORD   11
      8   1
   Sn     3.09469   1.77015   7.21781   0.00000  -0.00057  -0.02227
   Sn     1.03156   4.12060  10.27887   0.00000  -0.00281  -0.03363
   Sn     1.03156   2.93076   4.44665   0.00000  -0.00326  -0.00512
   Sn     3.09469   0.58031   1.38558   0.00000   0.00146  -0.03067
   Se     1.03156   2.39362   1.73279  -0.00000   0.01173   0.05107
   Se     1.03156   4.65774   7.56502   0.00000  -0.01797   0.02671
   Se     3.09469   0.04316   4.09944  -0.00000   0.00498   0.00094
   Se     3.09469   2.30729   9.93167  -0.00000   0.00906   0.05912
PRIMCOORD   12
      8   1
   Sn     3.09469   1.77015   7.21781  -0.00000   0.02465   0.00808
   Sn     1.03156   4.12060  10.27887  -0.00000   0.01740   0.00201
   Sn     1.03156   2.93076   4.44665   0.00000   0.02346  -0.01258
   Sn     3.09469   0.58031   1.38558   0.00000   0.03532  -0.00313
   Se     1.03156   2.39362   1.73279   0.00000  -0.03577   0.00275
   Se     1.03156   4.65774   7.56502   0.00000  -0.06267  -0.00865
   Se     3.09469   0.04316   4.09944  -0.00000  -0.01739   0.01359
   Se     3.09469   2.30729   9.93167   0.00000  -0.03575   0.00076
PRIMCOORD   13
      8   1
   Sn     3.09469   1.77015   7.21781   0.00000   0.02042  -0.06226
   Sn     1.03156   4.12060  10.27887   0.00000  -0.01501   0.03096
   Sn     1.03156   2.93076   4.44665   0.00000  -0.00693   0.05365
   Sn     3.09469   0.58031   1.38558   0.00000   0.01619  -0.01373
   Se     1.03156   2.39362   1.73279  -0.00000  -0.00321   0.01145
   Se     1.03156   4.65774   7.56502   0.00000  -0.00406   0.00940
   Se     3.09469   0.04316   4.09944   0.00000  -0.00572  -0.00656
   Se     3.09469   2.30729   9.93167   0.00000  -0.00906  -0.02723
PRIMCOORD   14
      8   1
   Sn     3.09469   1.77015   7.21781  -0.00000  -0.04811   0.00452
   Sn     1.03156   4.12060  10.27887  -0.00000   0.03091  -0.04109
   Sn     1.03156   2.93076   4.44665  -0.00000  -0.02580   0.03778
   Sn     3.09469   0.58031   1.38558  -0.00000   0.04716   0.01637
   Se     1.03156   2.39362   1.73279   0.00000   0.00471  -0.00113
   Se     1.03156   4.65774   7.56502  -0.00000  -0.00584  -0.00728
   Se     3.09469   0.04316   4.09944  -0.00000  -0.00835  -0.00257
   Se     3.09469   2.30729   9.93167  -0.00000   0.00323  -0.01546
PRIMCOORD   15
      8   1
   Sn     3.09469   1.77015   7.21781   0.01218  -0.03281   0.00503
   Sn     1.03156   4.12060  10.27887   0.01218  -0.03281   0.00503
   Sn     1.03156   2.93076   4.44665   0.01218  -0.03281   0.00503
   Sn     3.09469   0.58031   1.38558   0.01218  -0.03281   0.00503
   Se     1.03156   2.39362   1.73279   0.01218  -0.03281   0.00503
   Se     1.03156   4.65774   7.56502   0.01218  -0.03281   0.00503
   Se     3.09469   0.04316   4.09944   0.01218  -0.03281   0.00503
   Se     3.09469   2.30729   9.93167   0.01218  -0.03281   0.00503
PRIMCOORD   16
      8   1
   Sn     3.09469   1.77015   7.21781   0.03048   0.01317   0.01214
   Sn     1.03156   4.12060  10.27887   0.03048   0.01317   0.01214
   Sn     1.03156   2.93076   4.44665   0.03048   0.01317   0.01214
   Sn     3.09469   0.58031   1.38558   0.03048   0.01317   0.01214
   Se     1.03156   2.39362   1.73279   0.03048   0.01317   0.01214
   Se     1.03156   4.65774   7.56502   0.03048   0.01317   0.01214
   Se     3.09469   0.04316   4.09944   0.03048   0.01317   0.01214
   Se     3.09469   2.30729   9.93167   0.03048   0.01317   0.01214
PRIMCOORD   17
      8   1
   Sn     3.09469   1.77015   7.21781   0.01314  -0.00016  -0.03282
   Sn     1.03156   4.12060  10.27887   0.01314  -0.00016  -0.03282
   Sn     1.03156   2.93076   4.44665   0.01314  -0.00016  -0.03282
   Sn     3.09469   0.58031   1.38558   0.01314  -0.00016  -0.03282
   Se     1.03156   2.39362   1.73279   0.01314  -0.00016  -0.03282
   Se     1.03156   4.65774   7.56502   0.01314  -0.00016  -0.03282
   Se     3.09469   0.04316   4.09944   0.01314  -0.00016  -0.03282
   Se     3.09469   2.30729   9.93167   0.01314  -0.00016  -0.03282
PRIMCOORD   18
      8   1
   Sn     3.09469   1.77015   7.21781  -0.05842  -0.00000   0.00000
   Sn     1.03156   4.12060  10.27887   0.03668  -0.00000   0.00000
   Sn     1.03156   2.93076   4.44665   0.05824  -0.00000   0.00000
   Sn     3.09469   0.58031   1.38558  -0.03653  -0.00000   0.00000
   Se     1.03156   2.39362   1.73279  -0.00899  -0.00000   0.00000
   Se     1.03156   4.65774   7.56502  -0.01329  -0.00000   0.00000
   Se     3.09469   0.04316   4.09944   0.01328  -0.00000   0.00000
   Se     3.09469   2.30729   9.93167   0.00904  -0.00000   0.00000
PRIMCOORD   19
      8   1
   Sn     3.09469   1.77015   7.21781   0.00000   0.01065   0.00309
   Sn     1.03156   4.12060  10.27887   0.00000  -0.04059   0.01985
   Sn     1.03156   2.93076   4.44665   0.00000  -0.04709  -0.03665
   Sn     3.09469   0.58031   1.38558   0.00000   0.05756   0.01023
   Se     1.03156   2.39362   1.73279   0.00000   0.01687  -0.00881
   Se     1.03156   4.65774   7.56502   0.00000   0.00871   0.00482
   Se     3.09469   0.04316   4.09944   0.00000  -0.00137  -0.00814
   Se     3.09469   2.30729   9.93167   0.00000   0.00508   0.01736
PRIMCOORD   20
      8   1
   Sn     3.09469   1.77015   7.21781  -0.05045  -0.00000  -0.00000
   Sn     1.03156   4.12060  10.27887   0.04778   0.00000   0.00000
   Sn     1.03156   2.93076   4.44665  -0.05115   0.00000  -0.00000
   Sn     3.09469   0.58031   1.38558   0.04711  -0.00000  -0.00000
   Se     1.03156   2.39362   1.73279   0.01130  -0.00000  -0.00000
   Se     1.03156   4.65774   7.56502  -0.00625  -0.00000  -0.00000
   Se     3.09469   0.04316   4.09944  -0.00633  -0.00000  -0.00000
   Se     3.09469   2.30729   9.93167   0.01137  -0.00000  -0.00000
PRIMCOORD   21
      8   1
   Sn     3.09469   1.77015   7.21781  -0.03782  -0.00000   0.00000
   Sn     1.03156   4.12060  10.27887  -0.05919  -0.00000  -0.00000
   Sn     1.03156   2.93076   4.44665   0.03715  -0.00000   0.00000
   Sn     3.09469   0.58031   1.38558   0.05985  -0.00000   0.00000
   Se     1.03156   2.39362   1.73279   0.00642  -0.00000   0.00000
   Se     1.03156   4.65774   7.56502  -0.00348  -0.00000   0.00000
   Se     3.09469   0.04316   4.09944   0.00338  -0.00000  -0.00000
   Se     3.09469   2.30729   9.93167  -0.00629  -0.00000  -0.00000
PRIMCOORD   22
      8   1
   Sn     3.09469   1.77015   7.21781  -0.00000   0.01826  -0.00440
   Sn     1.03156   4.12060  10.27887   0.00000  -0.05662  -0.05162
   Sn     1.03156   2.93076   4.44665  -0.00000   0.03403   0.01113
   Sn     3.09469   0.58031   1.38558  -0.00000   0.00488   0.04548
   Se     1.03156   2.39362   1.73279  -0.00000  -0.00122   0.00347
   Se     1.03156   4.65774   7.56502  -0.00000   0.00654   0.00374
   Se     3.09469   0.04316   4.09944  -0.00000   0.00563   0.00398
   Se     3.09469   2.30729   9.93167  -0.00000  -0.01177  -0.01206
PRIMCOORD   23
      8   1
   Sn     3.09469   1.77015   7.21781  -0.00000  -0.06402  -0.00711
   Sn     1.03156   4.12060  10.27887  -0.00000  -0.02600   0.02979
   Sn     1.03156   2.93076   4.44665   0.00000   0.05702  -0.01057
   Sn     3.09469   0.58031   1.38558   0.00000   0.02400  -0.01450
   Se     1.03156   2.39362   1.73279  -0.00000   0.00290   0.00329
   Se     1.03156   4.65774   7.56502   0.00000   0.00012   0.00213
   Se     3.09469   0.04316   4.09944   0.00000   0.00379  -0.00605
   Se     3.09469   2.30729   9.93167   0.00000   0.00670   0.00423
PRIMCOORD   24
      8   1
   Sn     3.09469   1.77015   7.21781  -0.00000   0.01167   0.04891
   Sn     1.03156   4.12060  10.27887  -0.00000  -0.02583  -0.01309
   Sn     1.03156   2.93076   4.44665   0.00000   0.00146   0.03066
   Sn     3.09469   0.58031   1.38558   0.00000   0.01175  -0.06166
   Se     1.03156   2.39362   1.73279  -0.00000  -0.00456  -0.02636
   Se     1.03156   4.65774   7.56502   0.00000   0.01470   0.02459
   Se     3.09469   0.04316   4.09944   0.00000  -0.00214   0.00597
   Se     3.09469   2.30729   9.93167   0.00000  -0.00658  -0.01146
