
     Program PWSCF v.7.0 starts on  1Jul2025 at 13:57: 8 

     This program is part of the open-source Quantum ESPRESSO suite
     for quantum simulation of materials; please cite
         "P. Giannozzi et al., J. Phys.:Condens. Matter 21 395502 (2009);
         "P. Giannozzi et al., J. Phys.:Condens. Matter 29 465901 (2017);
         "P. Giannozzi et al., J. Chem. Phys. 152 154105 (2020);
          URL http://www.quantum-espresso.org", 
     in publications or presentations arising from this work. More details at
     http://www.quantum-espresso.org/quote

     Parallel version (MPI), running on     8 processors

     MPI processes distributed on     1 nodes
     R & G space division:  proc/nbgrp/npool/nimage =       8
     196 MiB available memory on the printing compute node when the environment starts

     Waiting for input...
     Reading input from standard input

     Current dimensions of program PWSCF are:
     Max number of different atomic species (ntypx) = 10
     Max number of k-points (npk) =  40000
     Max angular momentum in pseudopotentials (lmaxx) =  4
     file Na.pbe-spn-kjpaw_psl.1.0.0.UPF: wavefunction(s)  2P renormalized
     file K.pbe-spn-kjpaw_psl.1.0.0.UPF: wavefunction(s)  3S renormalized
     file Nb.pbe-spn-kjpaw_psl.1.0.0.UPF: wavefunction(s)  4S 4P 4D renormalized
     file O.pbe-n-kjpaw_psl.1.0.0.UPF: wavefunction(s)  2S 2P renormalized

     IMPORTANT: XC functional enforced from input :
     Exchange-correlation= PBE
                           (   1   4   3   4   0   0   0)
     Any further DFT definition will be discarded
     Please, verify this is what you really want


     Subspace diagonalization in iterative solution of the eigenvalue problem:
     a serial algorithm will be used


     Parallelization info
     --------------------
     sticks:   dense  smooth     PW     G-vecs:    dense   smooth      PW
     Min         381     192     54                38031    13440    2046
     Max         382     194     55                38036    13441    2049
     Sum        3051    1541    435               304259   107521   16375

     Using Slab Decomposition



     bravais-lattice index     =            0
     lattice parameter (alat)  =      10.6907  a.u.
     unit-cell volume          =    1712.7995 (a.u.)^3
     number of atoms/cell      =            8
     number of atomic types    =            4
     number of electrons       =        68.00
     number of Kohn-Sham states=          150
     kinetic-energy cutoff     =      60.0000  Ry
     charge density cutoff     =     480.0000  Ry
     scf convergence threshold =      1.0E-08
     mixing beta               =       0.3000
     number of iterations used =            8  plain     mixing
     Exchange-correlation= PBE
                           (   1   4   3   4   0   0   0)

     celldm(1)=  10.690748  celldm(2)=   0.000000  celldm(3)=   0.000000
     celldm(4)=   0.000000  celldm(5)=   0.000000  celldm(6)=   0.000000

     crystal axes: (cart. coord. in units of alat)
               a(1) = (   1.000000   0.000000   0.000000 )  
               a(2) = (   0.000000   0.699114   0.000000 )  
               a(3) = (   0.000000   0.000000   2.005091 )  

     reciprocal axes: (cart. coord. in units 2 pi/alat)
               b(1) = (  1.000000  0.000000  0.000000 )  
               b(2) = (  0.000000  1.430381  0.000000 )  
               b(3) = (  0.000000  0.000000  0.498731 )  


     PseudoPot. # 1 for Na read from file:
     ./Na.pbe-spn-kjpaw_psl.1.0.0.UPF
     MD5 check sum: a82f105a5f7021ecaf4aa9bcfccd4b7e
     Pseudo is Projector augmented-wave + core cor, Zval =  9.0
     Generated using &quot;atomic&quot; code by A. Dal Corso  v.6.3
     Shape of augmentation charge: PSQ
     Using radial grid of 1121 points,  4 beta functions with: 
                l(1) =   0
                l(2) =   0
                l(3) =   1
                l(4) =   1
     Q(r) pseudized with 0 coefficients 


     PseudoPot. # 2 for K  read from file:
     ./K.pbe-spn-kjpaw_psl.1.0.0.UPF
     MD5 check sum: 4d6d205d441aa786ee943e360887f9d3
     Pseudo is Projector augmented-wave + core cor, Zval =  9.0
     Generated using &quot;atomic&quot; code by A. Dal Corso  v.6.2.2
     Shape of augmentation charge: PSQ
     Using radial grid of 1165 points,  6 beta functions with: 
                l(1) =   0
                l(2) =   0
                l(3) =   1
                l(4) =   1
                l(5) =   2
                l(6) =   2
     Q(r) pseudized with 0 coefficients 


     PseudoPot. # 3 for Nb read from file:
     ./Nb.pbe-spn-kjpaw_psl.1.0.0.UPF
     MD5 check sum: c567b91cc01260b7c3f193c7d0d1bddf
     Pseudo is Projector augmented-wave + core cor, Zval = 13.0
     Generated using &quot;atomic&quot; code by A. Dal Corso  v.6.2.2
     Shape of augmentation charge: PSQ
     Using radial grid of 1227 points,  6 beta functions with: 
                l(1) =   0
                l(2) =   0
                l(3) =   1
                l(4) =   1
                l(5) =   2
                l(6) =   2
     Q(r) pseudized with 0 coefficients 


     PseudoPot. # 4 for O  read from file:
     ./O.pbe-n-kjpaw_psl.1.0.0.UPF
     MD5 check sum: 4e4cceb3cdb67d4aed6b67df50fa8bd1
     Pseudo is Projector augmented-wave + core cor, Zval =  6.0
     Generated using &quot;atomic&quot; code by A. Dal Corso  v.6.3
     Shape of augmentation charge: PSQ
     Using radial grid of 1095 points,  4 beta functions with: 
                l(1) =   0
                l(2) =   0
                l(3) =   1
                l(4) =   1
     Q(r) pseudized with 0 coefficients 


     atomic species   valence    mass     pseudopotential
        Na             9.00    22.99000     Na( 1.00)
        K              9.00    39.09800     K ( 1.00)
        Nb            13.00    92.90600     Nb( 1.00)
        O              6.00    15.99900     O ( 1.00)

     No symmetry found


                                    s                        frac. trans.

      isym =  1     identity                                     

 cryst.   s( 1) = (     1          0          0      )
                  (     0          1          0      )
                  (     0          0          1      )

 cart.    s( 1) = (  1.0000000  0.0000000  0.0000000 )
                  (  0.0000000  1.0000000  0.0000000 )
                  (  0.0000000  0.0000000  1.0000000 )


   Cartesian axes

     site n.     atom                  positions (alat units)
         1           Nb  tau(   1) = (   0.0000000   0.3496369   0.5012988  )
         2           O   tau(   2) = (   0.2488820   0.3496369   0.2184787  )
         3           O   tau(   3) = (   0.0000000   0.0000000   0.4624120  )
         4           Na  tau(   4) = (   0.0000000   0.0000000   0.0079542  )
         5           Nb  tau(   5) = (   0.0000000   0.3496369   1.5038983  )
         6           O   tau(   6) = (   0.2488820   0.3496369   1.2210762  )
         7           O   tau(   7) = (   0.0000000   0.0000000   1.4650095  )
         8           K   tau(   8) = (   0.0000000   0.0000000   0.9865127  )

   Crystallographic axes

     site n.     atom                  positions (cryst. coord.)
         1           Nb  tau(   1) = (  0.0000000  0.5001140  0.2500130  )
         2           O   tau(   2) = (  0.2488820  0.5001140  0.1089620  )
         3           O   tau(   3) = (  0.0000000  0.0000000  0.2306190  )
         4           Na  tau(   4) = (  0.0000000  0.0000000  0.0039670  )
         5           Nb  tau(   5) = (  0.0000000  0.5001140  0.7500400  )
         6           O   tau(   6) = (  0.2488820  0.5001140  0.6089880  )
         7           O   tau(   7) = (  0.0000000  0.0000000  0.7306450  )
         8           K   tau(   8) = (  0.0000000  0.0000000  0.4920040  )

     number of k points=   112
                       cart. coord. in units 2pi/alat
        k(    1) = (   0.0000000   0.0000000   0.0000000), wk =   0.0092593
        k(    2) = (   0.0000000   0.0000000   0.0831218), wk =   0.0185185
        k(    3) = (   0.0000000   0.0000000   0.1662435), wk =   0.0185185
        k(    4) = (   0.0000000   0.0000000  -0.2493653), wk =   0.0092593
        k(    5) = (   0.0000000   0.2383968   0.0000000), wk =   0.0185185
        k(    6) = (   0.0000000   0.2383968   0.0831218), wk =   0.0185185
        k(    7) = (   0.0000000   0.2383968   0.1662435), wk =   0.0185185
        k(    8) = (   0.0000000   0.2383968  -0.2493653), wk =   0.0185185
        k(    9) = (   0.0000000   0.4767937   0.0000000), wk =   0.0185185
        k(   10) = (   0.0000000   0.4767937   0.0831218), wk =   0.0185185
        k(   11) = (   0.0000000   0.4767937   0.1662435), wk =   0.0185185
        k(   12) = (   0.0000000   0.4767937  -0.2493653), wk =   0.0185185
        k(   13) = (   0.0000000  -0.7151905   0.0000000), wk =   0.0092593
        k(   14) = (   0.0000000  -0.7151905   0.0831218), wk =   0.0185185
        k(   15) = (   0.0000000  -0.7151905   0.1662435), wk =   0.0185185
        k(   16) = (   0.0000000  -0.7151905  -0.2493653), wk =   0.0092593
        k(   17) = (   0.1666667   0.0000000   0.0000000), wk =   0.0185185
        k(   18) = (   0.1666667   0.0000000   0.0831218), wk =   0.0185185
        k(   19) = (   0.1666667   0.0000000   0.1662435), wk =   0.0185185
        k(   20) = (   0.1666667   0.0000000  -0.2493653), wk =   0.0185185
        k(   21) = (   0.1666667   0.2383968   0.0000000), wk =   0.0185185
        k(   22) = (   0.1666667   0.2383968   0.0831218), wk =   0.0185185
        k(   23) = (   0.1666667   0.2383968   0.1662435), wk =   0.0185185
        k(   24) = (   0.1666667   0.2383968  -0.2493653), wk =   0.0185185
        k(   25) = (   0.1666667   0.4767937   0.0000000), wk =   0.0185185
        k(   26) = (   0.1666667   0.4767937   0.0831218), wk =   0.0185185
        k(   27) = (   0.1666667   0.4767937   0.1662435), wk =   0.0185185
        k(   28) = (   0.1666667   0.4767937  -0.2493653), wk =   0.0185185
        k(   29) = (   0.1666667  -0.7151905   0.0000000), wk =   0.0185185
        k(   30) = (   0.1666667  -0.7151905   0.0831218), wk =   0.0185185
        k(   31) = (   0.1666667  -0.7151905   0.1662435), wk =   0.0185185
        k(   32) = (   0.1666667  -0.7151905  -0.2493653), wk =   0.0185185
        k(   33) = (   0.3333333   0.0000000   0.0000000), wk =   0.0185185
        k(   34) = (   0.3333333   0.0000000   0.0831218), wk =   0.0185185
        k(   35) = (   0.3333333   0.0000000   0.1662435), wk =   0.0185185
        k(   36) = (   0.3333333   0.0000000  -0.2493653), wk =   0.0185185
        k(   37) = (   0.3333333   0.2383968   0.0000000), wk =   0.0185185
        k(   38) = (   0.3333333   0.2383968   0.0831218), wk =   0.0185185
        k(   39) = (   0.3333333   0.2383968   0.1662435), wk =   0.0185185
        k(   40) = (   0.3333333   0.2383968  -0.2493653), wk =   0.0185185
        k(   41) = (   0.3333333   0.4767937   0.0000000), wk =   0.0185185
        k(   42) = (   0.3333333   0.4767937   0.0831218), wk =   0.0185185
        k(   43) = (   0.3333333   0.4767937   0.1662435), wk =   0.0185185
        k(   44) = (   0.3333333   0.4767937  -0.2493653), wk =   0.0185185
        k(   45) = (   0.3333333  -0.7151905   0.0000000), wk =   0.0185185
        k(   46) = (   0.3333333  -0.7151905   0.0831218), wk =   0.0185185
        k(   47) = (   0.3333333  -0.7151905   0.1662435), wk =   0.0185185
        k(   48) = (   0.3333333  -0.7151905  -0.2493653), wk =   0.0185185
        k(   49) = (  -0.5000000   0.0000000   0.0000000), wk =   0.0092593
        k(   50) = (  -0.5000000   0.0000000   0.0831218), wk =   0.0185185
        k(   51) = (  -0.5000000   0.0000000   0.1662435), wk =   0.0185185
        k(   52) = (  -0.5000000   0.0000000  -0.2493653), wk =   0.0092593
        k(   53) = (  -0.5000000   0.2383968   0.0000000), wk =   0.0185185
        k(   54) = (  -0.5000000   0.2383968   0.0831218), wk =   0.0185185
        k(   55) = (  -0.5000000   0.2383968   0.1662435), wk =   0.0185185
        k(   56) = (  -0.5000000   0.2383968  -0.2493653), wk =   0.0185185
        k(   57) = (  -0.5000000   0.4767937   0.0000000), wk =   0.0185185
        k(   58) = (  -0.5000000   0.4767937   0.0831218), wk =   0.0185185
        k(   59) = (  -0.5000000   0.4767937   0.1662435), wk =   0.0185185
        k(   60) = (  -0.5000000   0.4767937  -0.2493653), wk =   0.0185185
        k(   61) = (  -0.5000000  -0.7151905   0.0000000), wk =   0.0092593
        k(   62) = (  -0.5000000  -0.7151905   0.0831218), wk =   0.0185185
        k(   63) = (  -0.5000000  -0.7151905   0.1662435), wk =   0.0185185
        k(   64) = (  -0.5000000  -0.7151905  -0.2493653), wk =   0.0092593
        k(   65) = (   0.0000000  -0.2383968   0.0831218), wk =   0.0185185
        k(   66) = (   0.0000000  -0.2383968   0.1662435), wk =   0.0185185
        k(   67) = (   0.0000000  -0.4767937   0.0831218), wk =   0.0185185
        k(   68) = (   0.0000000  -0.4767937   0.1662435), wk =   0.0185185
        k(   69) = (  -0.1666667   0.0000000   0.0831218), wk =   0.0185185
        k(   70) = (  -0.1666667   0.0000000   0.1662435), wk =   0.0185185
        k(   71) = (  -0.1666667   0.2383968   0.0000000), wk =   0.0185185
        k(   72) = (  -0.1666667  -0.2383968   0.0831218), wk =   0.0185185
        k(   73) = (  -0.1666667   0.2383968  -0.0831218), wk =   0.0185185
        k(   74) = (   0.1666667  -0.2383968  -0.0831218), wk =   0.0185185
        k(   75) = (  -0.1666667  -0.2383968   0.1662435), wk =   0.0185185
        k(   76) = (  -0.1666667   0.2383968  -0.1662435), wk =   0.0185185
        k(   77) = (   0.1666667  -0.2383968  -0.1662435), wk =   0.0185185
        k(   78) = (  -0.1666667   0.2383968   0.2493653), wk =   0.0185185
        k(   79) = (  -0.1666667   0.4767937   0.0000000), wk =   0.0185185
        k(   80) = (  -0.1666667  -0.4767937   0.0831218), wk =   0.0185185
        k(   81) = (  -0.1666667   0.4767937  -0.0831218), wk =   0.0185185
        k(   82) = (   0.1666667  -0.4767937  -0.0831218), wk =   0.0185185
        k(   83) = (  -0.1666667  -0.4767937   0.1662435), wk =   0.0185185
        k(   84) = (  -0.1666667   0.4767937  -0.1662435), wk =   0.0185185
        k(   85) = (   0.1666667  -0.4767937  -0.1662435), wk =   0.0185185
        k(   86) = (  -0.1666667   0.4767937   0.2493653), wk =   0.0185185
        k(   87) = (  -0.1666667   0.7151905   0.0831218), wk =   0.0185185
        k(   88) = (  -0.1666667   0.7151905   0.1662435), wk =   0.0185185
        k(   89) = (  -0.3333333   0.0000000   0.0831218), wk =   0.0185185
        k(   90) = (  -0.3333333   0.0000000   0.1662435), wk =   0.0185185
        k(   91) = (  -0.3333333   0.2383968   0.0000000), wk =   0.0185185
        k(   92) = (  -0.3333333  -0.2383968   0.0831218), wk =   0.0185185
        k(   93) = (  -0.3333333   0.2383968  -0.0831218), wk =   0.0185185
        k(   94) = (   0.3333333  -0.2383968  -0.0831218), wk =   0.0185185
        k(   95) = (  -0.3333333  -0.2383968   0.1662435), wk =   0.0185185
        k(   96) = (  -0.3333333   0.2383968  -0.1662435), wk =   0.0185185
        k(   97) = (   0.3333333  -0.2383968  -0.1662435), wk =   0.0185185
        k(   98) = (  -0.3333333   0.2383968   0.2493653), wk =   0.0185185
        k(   99) = (  -0.3333333   0.4767937   0.0000000), wk =   0.0185185
        k(  100) = (  -0.3333333  -0.4767937   0.0831218), wk =   0.0185185
        k(  101) = (  -0.3333333   0.4767937  -0.0831218), wk =   0.0185185
        k(  102) = (   0.3333333  -0.4767937  -0.0831218), wk =   0.0185185
        k(  103) = (  -0.3333333  -0.4767937   0.1662435), wk =   0.0185185
        k(  104) = (  -0.3333333   0.4767937  -0.1662435), wk =   0.0185185
        k(  105) = (   0.3333333  -0.4767937  -0.1662435), wk =   0.0185185
        k(  106) = (  -0.3333333   0.4767937   0.2493653), wk =   0.0185185
        k(  107) = (  -0.3333333   0.7151905   0.0831218), wk =   0.0185185
        k(  108) = (  -0.3333333   0.7151905   0.1662435), wk =   0.0185185
        k(  109) = (   0.5000000  -0.2383968   0.0831218), wk =   0.0185185
        k(  110) = (   0.5000000  -0.2383968   0.1662435), wk =   0.0185185
        k(  111) = (   0.5000000  -0.4767937   0.0831218), wk =   0.0185185
        k(  112) = (   0.5000000  -0.4767937   0.1662435), wk =   0.0185185

                       cryst. coord.
        k(    1) = (   0.0000000   0.0000000   0.0000000), wk =   0.0092593
        k(    2) = (   0.0000000   0.0000000   0.1666667), wk =   0.0185185
        k(    3) = (   0.0000000   0.0000000   0.3333333), wk =   0.0185185
        k(    4) = (   0.0000000   0.0000000  -0.5000000), wk =   0.0092593
        k(    5) = (   0.0000000   0.1666667   0.0000000), wk =   0.0185185
        k(    6) = (   0.0000000   0.1666667   0.1666667), wk =   0.0185185
        k(    7) = (   0.0000000   0.1666667   0.3333333), wk =   0.0185185
        k(    8) = (   0.0000000   0.1666667  -0.5000000), wk =   0.0185185
        k(    9) = (   0.0000000   0.3333333   0.0000000), wk =   0.0185185
        k(   10) = (   0.0000000   0.3333333   0.1666667), wk =   0.0185185
        k(   11) = (   0.0000000   0.3333333   0.3333333), wk =   0.0185185
        k(   12) = (   0.0000000   0.3333333  -0.5000000), wk =   0.0185185
        k(   13) = (   0.0000000  -0.5000000   0.0000000), wk =   0.0092593
        k(   14) = (   0.0000000  -0.5000000   0.1666667), wk =   0.0185185
        k(   15) = (   0.0000000  -0.5000000   0.3333333), wk =   0.0185185
        k(   16) = (   0.0000000  -0.5000000  -0.5000000), wk =   0.0092593
        k(   17) = (   0.1666667   0.0000000   0.0000000), wk =   0.0185185
        k(   18) = (   0.1666667   0.0000000   0.1666667), wk =   0.0185185
        k(   19) = (   0.1666667   0.0000000   0.3333333), wk =   0.0185185
        k(   20) = (   0.1666667   0.0000000  -0.5000000), wk =   0.0185185
        k(   21) = (   0.1666667   0.1666667   0.0000000), wk =   0.0185185
        k(   22) = (   0.1666667   0.1666667   0.1666667), wk =   0.0185185
        k(   23) = (   0.1666667   0.1666667   0.3333333), wk =   0.0185185
        k(   24) = (   0.1666667   0.1666667  -0.5000000), wk =   0.0185185
        k(   25) = (   0.1666667   0.3333333   0.0000000), wk =   0.0185185
        k(   26) = (   0.1666667   0.3333333   0.1666667), wk =   0.0185185
        k(   27) = (   0.1666667   0.3333333   0.3333333), wk =   0.0185185
        k(   28) = (   0.1666667   0.3333333  -0.5000000), wk =   0.0185185
        k(   29) = (   0.1666667  -0.5000000   0.0000000), wk =   0.0185185
        k(   30) = (   0.1666667  -0.5000000   0.1666667), wk =   0.0185185
        k(   31) = (   0.1666667  -0.5000000   0.3333333), wk =   0.0185185
        k(   32) = (   0.1666667  -0.5000000  -0.5000000), wk =   0.0185185
        k(   33) = (   0.3333333   0.0000000   0.0000000), wk =   0.0185185
        k(   34) = (   0.3333333   0.0000000   0.1666667), wk =   0.0185185
        k(   35) = (   0.3333333   0.0000000   0.3333333), wk =   0.0185185
        k(   36) = (   0.3333333   0.0000000  -0.5000000), wk =   0.0185185
        k(   37) = (   0.3333333   0.1666667   0.0000000), wk =   0.0185185
        k(   38) = (   0.3333333   0.1666667   0.1666667), wk =   0.0185185
        k(   39) = (   0.3333333   0.1666667   0.3333333), wk =   0.0185185
        k(   40) = (   0.3333333   0.1666667  -0.5000000), wk =   0.0185185
        k(   41) = (   0.3333333   0.3333333   0.0000000), wk =   0.0185185
        k(   42) = (   0.3333333   0.3333333   0.1666667), wk =   0.0185185
        k(   43) = (   0.3333333   0.3333333   0.3333333), wk =   0.0185185
        k(   44) = (   0.3333333   0.3333333  -0.5000000), wk =   0.0185185
        k(   45) = (   0.3333333  -0.5000000   0.0000000), wk =   0.0185185
        k(   46) = (   0.3333333  -0.5000000   0.1666667), wk =   0.0185185
        k(   47) = (   0.3333333  -0.5000000   0.3333333), wk =   0.0185185
        k(   48) = (   0.3333333  -0.5000000  -0.5000000), wk =   0.0185185
        k(   49) = (  -0.5000000   0.0000000   0.0000000), wk =   0.0092593
        k(   50) = (  -0.5000000   0.0000000   0.1666667), wk =   0.0185185
        k(   51) = (  -0.5000000   0.0000000   0.3333333), wk =   0.0185185
        k(   52) = (  -0.5000000   0.0000000  -0.5000000), wk =   0.0092593
        k(   53) = (  -0.5000000   0.1666667   0.0000000), wk =   0.0185185
        k(   54) = (  -0.5000000   0.1666667   0.1666667), wk =   0.0185185
        k(   55) = (  -0.5000000   0.1666667   0.3333333), wk =   0.0185185
        k(   56) = (  -0.5000000   0.1666667  -0.5000000), wk =   0.0185185
        k(   57) = (  -0.5000000   0.3333333   0.0000000), wk =   0.0185185
        k(   58) = (  -0.5000000   0.3333333   0.1666667), wk =   0.0185185
        k(   59) = (  -0.5000000   0.3333333   0.3333333), wk =   0.0185185
        k(   60) = (  -0.5000000   0.3333333  -0.5000000), wk =   0.0185185
        k(   61) = (  -0.5000000  -0.5000000   0.0000000), wk =   0.0092593
        k(   62) = (  -0.5000000  -0.5000000   0.1666667), wk =   0.0185185
        k(   63) = (  -0.5000000  -0.5000000   0.3333333), wk =   0.0185185
        k(   64) = (  -0.5000000  -0.5000000  -0.5000000), wk =   0.0092593
        k(   65) = (   0.0000000  -0.1666667   0.1666667), wk =   0.0185185
        k(   66) = (   0.0000000  -0.1666667   0.3333333), wk =   0.0185185
        k(   67) = (   0.0000000  -0.3333333   0.1666667), wk =   0.0185185
        k(   68) = (   0.0000000  -0.3333333   0.3333333), wk =   0.0185185
        k(   69) = (  -0.1666667   0.0000000   0.1666667), wk =   0.0185185
        k(   70) = (  -0.1666667   0.0000000   0.3333333), wk =   0.0185185
        k(   71) = (  -0.1666667   0.1666667   0.0000000), wk =   0.0185185
        k(   72) = (  -0.1666667  -0.1666667   0.1666667), wk =   0.0185185
        k(   73) = (  -0.1666667   0.1666667  -0.1666667), wk =   0.0185185
        k(   74) = (   0.1666667  -0.1666667  -0.1666667), wk =   0.0185185
        k(   75) = (  -0.1666667  -0.1666667   0.3333333), wk =   0.0185185
        k(   76) = (  -0.1666667   0.1666667  -0.3333333), wk =   0.0185185
        k(   77) = (   0.1666667  -0.1666667  -0.3333333), wk =   0.0185185
        k(   78) = (  -0.1666667   0.1666667   0.5000000), wk =   0.0185185
        k(   79) = (  -0.1666667   0.3333333   0.0000000), wk =   0.0185185
        k(   80) = (  -0.1666667  -0.3333333   0.1666667), wk =   0.0185185
        k(   81) = (  -0.1666667   0.3333333  -0.1666667), wk =   0.0185185
        k(   82) = (   0.1666667  -0.3333333  -0.1666667), wk =   0.0185185
        k(   83) = (  -0.1666667  -0.3333333   0.3333333), wk =   0.0185185
        k(   84) = (  -0.1666667   0.3333333  -0.3333333), wk =   0.0185185
        k(   85) = (   0.1666667  -0.3333333  -0.3333333), wk =   0.0185185
        k(   86) = (  -0.1666667   0.3333333   0.5000000), wk =   0.0185185
        k(   87) = (  -0.1666667   0.5000000   0.1666667), wk =   0.0185185
        k(   88) = (  -0.1666667   0.5000000   0.3333333), wk =   0.0185185
        k(   89) = (  -0.3333333   0.0000000   0.1666667), wk =   0.0185185
        k(   90) = (  -0.3333333   0.0000000   0.3333333), wk =   0.0185185
        k(   91) = (  -0.3333333   0.1666667   0.0000000), wk =   0.0185185
        k(   92) = (  -0.3333333  -0.1666667   0.1666667), wk =   0.0185185
        k(   93) = (  -0.3333333   0.1666667  -0.1666667), wk =   0.0185185
        k(   94) = (   0.3333333  -0.1666667  -0.1666667), wk =   0.0185185
        k(   95) = (  -0.3333333  -0.1666667   0.3333333), wk =   0.0185185
        k(   96) = (  -0.3333333   0.1666667  -0.3333333), wk =   0.0185185
        k(   97) = (   0.3333333  -0.1666667  -0.3333333), wk =   0.0185185
        k(   98) = (  -0.3333333   0.1666667   0.5000000), wk =   0.0185185
        k(   99) = (  -0.3333333   0.3333333   0.0000000), wk =   0.0185185
        k(  100) = (  -0.3333333  -0.3333333   0.1666667), wk =   0.0185185
        k(  101) = (  -0.3333333   0.3333333  -0.1666667), wk =   0.0185185
        k(  102) = (   0.3333333  -0.3333333  -0.1666667), wk =   0.0185185
        k(  103) = (  -0.3333333  -0.3333333   0.3333333), wk =   0.0185185
        k(  104) = (  -0.3333333   0.3333333  -0.3333333), wk =   0.0185185
        k(  105) = (   0.3333333  -0.3333333  -0.3333333), wk =   0.0185185
        k(  106) = (  -0.3333333   0.3333333   0.5000000), wk =   0.0185185
        k(  107) = (  -0.3333333   0.5000000   0.1666667), wk =   0.0185185
        k(  108) = (  -0.3333333   0.5000000   0.3333333), wk =   0.0185185
        k(  109) = (   0.5000000  -0.1666667   0.1666667), wk =   0.0185185
        k(  110) = (   0.5000000  -0.1666667   0.3333333), wk =   0.0185185
        k(  111) = (   0.5000000  -0.3333333   0.1666667), wk =   0.0185185
        k(  112) = (   0.5000000  -0.3333333   0.3333333), wk =   0.0185185

     Dense  grid:   304259 G-vectors     FFT dimensions: (  75,  54, 150)

     Smooth grid:   107521 G-vectors     FFT dimensions: (  54,  40, 108)

     Dynamical RAM for                 wfc:       3.85 MB

     Dynamical RAM for     wfc (w. buffer):     434.51 MB

     Dynamical RAM for           str. fact:       2.32 MB

     Dynamical RAM for           local pot:       0.00 MB

     Dynamical RAM for          nlocal pot:       2.41 MB

     Dynamical RAM for                qrad:       7.03 MB

     Dynamical RAM for          rho,v,vnew:       3.50 MB

     Dynamical RAM for               rhoin:       1.17 MB

     Dynamical RAM for            rho*nmix:       9.29 MB

     Dynamical RAM for           G-vectors:       2.28 MB

     Dynamical RAM for          h,s,v(r/c):       4.12 MB

     Dynamical RAM for          <psi|beta>:       0.22 MB

     Dynamical RAM for                 psi:       7.69 MB

     Dynamical RAM for                hpsi:       7.69 MB

     Dynamical RAM for                spsi:       7.69 MB

     Dynamical RAM for      wfcinit/wfcrot:       8.21 MB

     Dynamical RAM for           addusdens:     110.27 MB

     Dynamical RAM for          addusforce:     114.06 MB

     Dynamical RAM for         addusstress:     116.66 MB

     Estimated static dynamical RAM per process >     459.06 MB

     Estimated max dynamical RAM per process >     585.00 MB

     Estimated total dynamical RAM >       4.57 GB

     Initial potential from superposition of free atoms

     starting charge      67.9723, renormalised to      68.0000
     Starting wfcs are   55 randomized atomic wfcs +   95 random wfcs
