
     Program PWSCF v.7.0 starts on  1Jul2025 at  7:15:14 

     This program is part of the open-source Quantum ESPRESSO suite
     for quantum simulation of materials; please cite
         "P. Giannozzi et al., J. Phys.:Condens. Matter 21 395502 (2009);
         "P. Giannozzi et al., J. Phys.:Condens. Matter 29 465901 (2017);
         "P. Giannozzi et al., J. Chem. Phys. 152 154105 (2020);
          URL http://www.quantum-espresso.org", 
     in publications or presentations arising from this work. More details at
     http://www.quantum-espresso.org/quote

     Parallel version (MPI), running on     8 processors

     MPI processes distributed on     1 nodes
     R & G space division:  proc/nbgrp/npool/nimage =       8
     6646 MiB available memory on the printing compute node when the environment starts

     Waiting for input...
     Reading input from standard input

     Current dimensions of program PWSCF are:
     Max number of different atomic species (ntypx) = 10
     Max number of k-points (npk) =  40000
     Max angular momentum in pseudopotentials (lmaxx) =  4
     file Sn.pbe-dn-kjpaw_psl.1.0.0.UPF: wavefunction(s)  5S 5P 4D renormalized
     file Se.pbe-dn-kjpaw_psl.1.0.0.UPF: wavefunction(s)  4S 4P 3D renormalized

     IMPORTANT: XC functional enforced from input :
     Exchange-correlation= PBE
                           (   1   4   3   4   0   0   0)
     Any further DFT definition will be discarded
     Please, verify this is what you really want

     Message from routine setup:
     using ibrav=0 with symmetry is DISCOURAGED, use correct ibrav instead

     Subspace diagonalization in iterative solution of the eigenvalue problem:
     a serial algorithm will be used


     Parallelization info
     --------------------
     sticks:   dense  smooth     PW     G-vecs:    dense   smooth      PW
     Min         276     137     40                58964    20847    3250
     Max         277     138     41                58981    20862    3265
     Sum        2209    1101    323               471737   166827   26041

     Using Slab Decomposition



     bravais-lattice index     =            0
     lattice parameter (alat)  =       7.7975  a.u.
     unit-cell volume          =    3491.1989 (a.u.)^3
     number of atoms/cell      =            8
     number of atomic types    =            2
     number of electrons       =       120.00
     number of Kohn-Sham states=          100
     kinetic-energy cutoff     =      50.0000  Ry
     charge density cutoff     =     400.0000  Ry
     scf convergence threshold =      1.0E-08
     mixing beta               =       0.3000
     number of iterations used =            8  plain     mixing
     Exchange-correlation= PBE
                           (   1   4   3   4   0   0   0)

     celldm(1)=   7.797484  celldm(2)=   0.000000  celldm(3)=   0.000000
     celldm(4)=   0.000000  celldm(5)=   0.000000  celldm(6)=   0.000000

     crystal axes: (cart. coord. in units of alat)
               a(1) = (   1.000000   0.000000   0.000000 )  
               a(2) = (   0.000000   1.139268   0.000000 )  
               a(3) = (   0.000000   0.000000   6.463757 )  

     reciprocal axes: (cart. coord. in units 2 pi/alat)
               b(1) = (  1.000000  0.000000  0.000000 )  
               b(2) = (  0.000000  0.877756  0.000000 )  
               b(3) = (  0.000000  0.000000  0.154709 )  


     PseudoPot. # 1 for Sn read from file:
     ./Sn.pbe-dn-kjpaw_psl.1.0.0.UPF
     MD5 check sum: d69e53522d199ccc4f306ae57c56b55d
     Pseudo is Projector augmented-wave + core cor, Zval = 14.0
     Generated using &quot;atomic&quot; code by A. Dal Corso  v.6.3
     Shape of augmentation charge: PSQ
     Using radial grid of 1243 points,  6 beta functions with: 
                l(1) =   0
                l(2) =   0
                l(3) =   1
                l(4) =   1
                l(5) =   2
                l(6) =   2
     Q(r) pseudized with 0 coefficients 


     PseudoPot. # 2 for Se read from file:
     ./Se.pbe-dn-kjpaw_psl.1.0.0.UPF
     MD5 check sum: 4f8dd506ed2a5e2391ebbdbef81d58a8
     Pseudo is Projector augmented-wave + core cor, Zval = 16.0
     Generated using &quot;atomic&quot; code by A. Dal Corso  v.6.3
     Shape of augmentation charge: PSQ
     Using radial grid of 1211 points,  6 beta functions with: 
                l(1) =   0
                l(2) =   0
                l(3) =   1
                l(4) =   1
                l(5) =   2
                l(6) =   2
     Q(r) pseudized with 0 coefficients 


     atomic species   valence    mass     pseudopotential
        Sn            14.00   118.71000     Sn( 1.00)
        Se            16.00    78.96000     Se( 1.00)

      2 Sym. Ops. (no inversion) found ( 1 have fractional translation)


                                    s                        frac. trans.

      isym =  1     identity                                     

 cryst.   s( 1) = (     1          0          0      )
                  (     0          1          0      )
                  (     0          0          1      )

 cart.    s( 1) = (  1.0000000  0.0000000  0.0000000 )
                  (  0.0000000  1.0000000  0.0000000 )
                  (  0.0000000  0.0000000  1.0000000 )


      isym =  2     inv. 180 deg rotation - cart. axis [1,0,0]   

 cryst.   s( 2) = (    -1          0          0      )    f =(  0.5000000 )
                  (     0          1          0      )       (  0.0000000 )
                  (     0          0          1      )       (  0.0000000 )

 cart.    s( 2) = ( -1.0000000  0.0000000  0.0000000 )    f =(  0.5000000 )
                  (  0.0000000  1.0000000  0.0000000 )       (  0.0000000 )
                  (  0.0000000  0.0000000  1.0000000 )       (  0.0000000 )


   Cartesian axes

     site n.     atom                  positions (alat units)
         1           Sn  tau(   1) = (   0.7500000   0.4289964   1.7492424  )
         2           Sn  tau(   2) = (   0.2500000   0.9986306   2.4910929  )
         3           Sn  tau(   3) = (   0.2500000   0.7102720   1.0776478  )
         4           Sn  tau(   4) = (   0.7500000   0.1406378   0.3357974  )
         5           Se  tau(   5) = (   0.2500000   0.5800948   0.4199431  )
         6           Se  tau(   6) = (   0.2500000   1.1288079   1.8333882  )
         7           Se  tau(   7) = (   0.7500000   0.0104605   0.9935020  )
         8           Se  tau(   8) = (   0.7500000   0.5591737   2.4069472  )

   Crystallographic axes

     site n.     atom                  positions (cryst. coord.)
         1           Sn  tau(   1) = (  0.7500000  0.3765543  0.2706232  )
         2           Sn  tau(   2) = (  0.2500000  0.8765543  0.3853940  )
         3           Sn  tau(   3) = (  0.2500000  0.6234457  0.1667216  )
         4           Sn  tau(   4) = (  0.7500000  0.1234457  0.0519508  )
         5           Se  tau(   5) = (  0.2500000  0.5091818  0.0649689  )
         6           Se  tau(   6) = (  0.2500000  0.9908182  0.2836413  )
         7           Se  tau(   7) = (  0.7500000  0.0091818  0.1537035  )
         8           Se  tau(   8) = (  0.7500000  0.4908182  0.3723759  )

     number of k points=    16
                       cart. coord. in units 2pi/alat
        k(    1) = (   0.0000000   0.0000000   0.0000000), wk =   0.0555556
        k(    2) = (   0.0000000   0.1462927   0.0000000), wk =   0.1111111
        k(    3) = (   0.0000000   0.2925854   0.0000000), wk =   0.1111111
        k(    4) = (   0.0000000  -0.4388781   0.0000000), wk =   0.0555556
        k(    5) = (   0.1666667   0.0000000   0.0000000), wk =   0.1111111
        k(    6) = (   0.1666667   0.1462927   0.0000000), wk =   0.2222222
        k(    7) = (   0.1666667   0.2925854   0.0000000), wk =   0.2222222
        k(    8) = (   0.1666667  -0.4388781   0.0000000), wk =   0.1111111
        k(    9) = (   0.3333333   0.0000000   0.0000000), wk =   0.1111111
        k(   10) = (   0.3333333   0.1462927   0.0000000), wk =   0.2222222
        k(   11) = (   0.3333333   0.2925854   0.0000000), wk =   0.2222222
        k(   12) = (   0.3333333  -0.4388781   0.0000000), wk =   0.1111111
        k(   13) = (  -0.5000000   0.0000000   0.0000000), wk =   0.0555556
        k(   14) = (  -0.5000000   0.1462927   0.0000000), wk =   0.1111111
        k(   15) = (  -0.5000000   0.2925854   0.0000000), wk =   0.1111111
        k(   16) = (  -0.5000000  -0.4388781   0.0000000), wk =   0.0555556

                       cryst. coord.
        k(    1) = (   0.0000000   0.0000000   0.0000000), wk =   0.0555556
        k(    2) = (   0.0000000   0.1666667   0.0000000), wk =   0.1111111
        k(    3) = (   0.0000000   0.3333333   0.0000000), wk =   0.1111111
        k(    4) = (   0.0000000  -0.5000000   0.0000000), wk =   0.0555556
        k(    5) = (   0.1666667   0.0000000   0.0000000), wk =   0.1111111
        k(    6) = (   0.1666667   0.1666667   0.0000000), wk =   0.2222222
        k(    7) = (   0.1666667   0.3333333   0.0000000), wk =   0.2222222
        k(    8) = (   0.1666667  -0.5000000   0.0000000), wk =   0.1111111
        k(    9) = (   0.3333333   0.0000000   0.0000000), wk =   0.1111111
        k(   10) = (   0.3333333   0.1666667   0.0000000), wk =   0.2222222
        k(   11) = (   0.3333333   0.3333333   0.0000000), wk =   0.2222222
        k(   12) = (   0.3333333  -0.5000000   0.0000000), wk =   0.1111111
        k(   13) = (  -0.5000000   0.0000000   0.0000000), wk =   0.0555556
        k(   14) = (  -0.5000000   0.1666667   0.0000000), wk =   0.1111111
        k(   15) = (  -0.5000000   0.3333333   0.0000000), wk =   0.1111111
        k(   16) = (  -0.5000000  -0.5000000   0.0000000), wk =   0.0555556

     Dense  grid:   471737 G-vectors     FFT dimensions: (  50,  60, 324)

     Smooth grid:   166827 G-vectors     FFT dimensions: (  36,  40, 240)

     Dynamical RAM for                 wfc:       3.97 MB

     Dynamical RAM for     wfc (w. buffer):      67.57 MB

     Dynamical RAM for           str. fact:       1.80 MB

     Dynamical RAM for           local pot:       0.00 MB

     Dynamical RAM for          nlocal pot:       5.72 MB

     Dynamical RAM for                qrad:       3.21 MB

     Dynamical RAM for          rho,v,vnew:       5.51 MB

     Dynamical RAM for               rhoin:       1.84 MB

     Dynamical RAM for            rho*nmix:      14.40 MB

     Dynamical RAM for           G-vectors:       3.53 MB

     Dynamical RAM for          h,s,v(r/c):       1.83 MB

     Dynamical RAM for          <psi|beta>:       0.22 MB

     Dynamical RAM for                 psi:       7.95 MB

     Dynamical RAM for                hpsi:       7.95 MB

     Dynamical RAM for                spsi:       7.95 MB

     Dynamical RAM for      wfcinit/wfcrot:       8.18 MB

     Dynamical RAM for           addusdens:     170.95 MB

     Dynamical RAM for          addusforce:     176.82 MB

     Dynamical RAM for         addusstress:     180.85 MB

     Estimated static dynamical RAM per process >      96.58 MB

     Estimated max dynamical RAM per process >     291.83 MB

     Estimated total dynamical RAM >       2.28 GB

     Initial potential from superposition of free atoms

     starting charge     119.9942, renormalised to     120.0000

     negative rho (up, down):  1.010E-03 0.000E+00
     Starting wfcs are   72 randomized atomic wfcs +   28 random wfcs
     Checking if some PAW data can be deallocated... 
       PAW data deallocated on    4 nodes for type:  1
       PAW data deallocated on    4 nodes for type:  2

     total cpu time spent up to now is       24.1 secs

     Self-consistent Calculation

     iteration #  1     ecut=    50.00 Ry     beta= 0.30
     Davidson diagonalization with overlap

---- Real-time Memory Report at c_bands before calling an iterative solver
           230 MiB given to the printing process from OS
             0 MiB allocation reported by mallinfo(arena+hblkhd)
          5699 MiB available memory on the node where the printing process lives
------------------
     ethr =  1.00E-02,  avg # of iterations =  8.4

     Threshold (ethr) on eigenvalues was too large:
     Diagonalizing with lowered threshold

     Davidson diagonalization with overlap

---- Real-time Memory Report at c_bands before calling an iterative solver
           317 MiB given to the printing process from OS
             0 MiB allocation reported by mallinfo(arena+hblkhd)
          5570 MiB available memory on the node where the printing process lives
------------------
     ethr =  2.20E-04,  avg # of iterations =  5.5

     negative rho (up, down):  1.002E-03 0.000E+00

     total cpu time spent up to now is      320.9 secs

     total energy              =   -3375.63582706 Ry
     estimated scf accuracy    <       0.26103130 Ry

     iteration #  2     ecut=    50.00 Ry     beta= 0.30
     Davidson diagonalization with overlap

---- Real-time Memory Report at c_bands before calling an iterative solver
           321 MiB given to the printing process from OS
             0 MiB allocation reported by mallinfo(arena+hblkhd)
          5553 MiB available memory on the node where the printing process lives
------------------
     ethr =  2.18E-04,  avg # of iterations =  5.9

     negative rho (up, down):  9.996E-04 0.000E+00

     total cpu time spent up to now is      438.0 secs

     total energy              =   -3375.65893863 Ry
     estimated scf accuracy    <       0.04285792 Ry

     iteration #  3     ecut=    50.00 Ry     beta= 0.30
     Davidson diagonalization with overlap

---- Real-time Memory Report at c_bands before calling an iterative solver
           321 MiB given to the printing process from OS
             0 MiB allocation reported by mallinfo(arena+hblkhd)
          5539 MiB available memory on the node where the printing process lives
------------------
     ethr =  3.57E-05,  avg # of iterations =  9.4

     negative rho (up, down):  9.997E-04 0.000E+00

     total cpu time spent up to now is      610.2 secs

     total energy              =   -3375.66027191 Ry
     estimated scf accuracy    <       0.03751346 Ry

     iteration #  4     ecut=    50.00 Ry     beta= 0.30
     Davidson diagonalization with overlap

---- Real-time Memory Report at c_bands before calling an iterative solver
           322 MiB given to the printing process from OS
             0 MiB allocation reported by mallinfo(arena+hblkhd)
          5537 MiB available memory on the node where the printing process lives
------------------
     ethr =  3.13E-05,  avg # of iterations =  6.9

     negative rho (up, down):  1.030E-03 0.000E+00

     total cpu time spent up to now is      749.4 secs

     total energy              =   -3375.66409488 Ry
     estimated scf accuracy    <       0.00656240 Ry

     iteration #  5     ecut=    50.00 Ry     beta= 0.30
     Davidson diagonalization with overlap

---- Real-time Memory Report at c_bands before calling an iterative solver
           323 MiB given to the printing process from OS
             0 MiB allocation reported by mallinfo(arena+hblkhd)
          5531 MiB available memory on the node where the printing process lives
------------------
     ethr =  5.47E-06,  avg # of iterations =  9.5

     negative rho (up, down):  1.042E-03 0.000E+00

     total cpu time spent up to now is      925.3 secs

     total energy              =   -3375.66456047 Ry
     estimated scf accuracy    <       0.00049139 Ry

     iteration #  6     ecut=    50.00 Ry     beta= 0.30
     Davidson diagonalization with overlap

---- Real-time Memory Report at c_bands before calling an iterative solver
           323 MiB given to the printing process from OS
             0 MiB allocation reported by mallinfo(arena+hblkhd)
          5522 MiB available memory on the node where the printing process lives
------------------
     ethr =  4.09E-07,  avg # of iterations =  3.5

     negative rho (up, down):  1.041E-03 0.000E+00

     total cpu time spent up to now is     1012.4 secs

     total energy              =   -3375.66458616 Ry
     estimated scf accuracy    <       0.00006003 Ry

     iteration #  7     ecut=    50.00 Ry     beta= 0.30
     Davidson diagonalization with overlap

---- Real-time Memory Report at c_bands before calling an iterative solver
           324 MiB given to the printing process from OS
             0 MiB allocation reported by mallinfo(arena+hblkhd)
          5515 MiB available memory on the node where the printing process lives
------------------
     ethr =  5.00E-08,  avg # of iterations =  2.0

     negative rho (up, down):  1.037E-03 0.000E+00

     total cpu time spent up to now is     1075.6 secs

     total energy              =   -3375.66459487 Ry
     estimated scf accuracy    <       0.00000693 Ry

     iteration #  8     ecut=    50.00 Ry     beta= 0.30
     Davidson diagonalization with overlap

---- Real-time Memory Report at c_bands before calling an iterative solver
           325 MiB given to the printing process from OS
             0 MiB allocation reported by mallinfo(arena+hblkhd)
          5513 MiB available memory on the node where the printing process lives
------------------
     ethr =  5.77E-09,  avg # of iterations =  1.2

     negative rho (up, down):  1.035E-03 0.000E+00

     total cpu time spent up to now is     1128.9 secs

     total energy              =   -3375.66459628 Ry
     estimated scf accuracy    <       0.00000303 Ry

     iteration #  9     ecut=    50.00 Ry     beta= 0.30
     Davidson diagonalization with overlap

---- Real-time Memory Report at c_bands before calling an iterative solver
           325 MiB given to the printing process from OS
             0 MiB allocation reported by mallinfo(arena+hblkhd)
          5508 MiB available memory on the node where the printing process lives
------------------
     ethr =  2.53E-09,  avg # of iterations =  1.0

     negative rho (up, down):  1.033E-03 0.000E+00

     total cpu time spent up to now is     1176.6 secs

     total energy              =   -3375.66459680 Ry
     estimated scf accuracy    <       0.00000060 Ry

     iteration # 10     ecut=    50.00 Ry     beta= 0.30
     Davidson diagonalization with overlap

---- Real-time Memory Report at c_bands before calling an iterative solver
           326 MiB given to the printing process from OS
             0 MiB allocation reported by mallinfo(arena+hblkhd)
          5492 MiB available memory on the node where the printing process lives
------------------
     ethr =  4.99E-10,  avg # of iterations =  2.0

     negative rho (up, down):  1.031E-03 0.000E+00

     total cpu time spent up to now is     1241.6 secs

     total energy              =   -3375.66459690 Ry
     estimated scf accuracy    <       0.00000006 Ry

     iteration # 11     ecut=    50.00 Ry     beta= 0.30
     Davidson diagonalization with overlap

---- Real-time Memory Report at c_bands before calling an iterative solver
           327 MiB given to the printing process from OS
             0 MiB allocation reported by mallinfo(arena+hblkhd)
          5491 MiB available memory on the node where the printing process lives
------------------
     ethr =  5.01E-11,  avg # of iterations =  2.0

     negative rho (up, down):  1.031E-03 0.000E+00

     total cpu time spent up to now is     1307.0 secs

     total energy              =   -3375.66459692 Ry
     estimated scf accuracy    <       0.00000001 Ry

     iteration # 12     ecut=    50.00 Ry     beta= 0.30
     Davidson diagonalization with overlap

---- Real-time Memory Report at c_bands before calling an iterative solver
           327 MiB given to the printing process from OS
             0 MiB allocation reported by mallinfo(arena+hblkhd)
          5492 MiB available memory on the node where the printing process lives
------------------
     ethr =  1.13E-11,  avg # of iterations =  2.0

     negative rho (up, down):  1.029E-03 0.000E+00

     total cpu time spent up to now is     1371.7 secs

     End of self-consistent calculation

          k = 0.0000 0.0000 0.0000 ( 20835 PWs)   bands (ev):

   -46.3059 -46.3059 -46.3050 -46.3047 -46.2767 -46.2765 -46.2719 -46.2718
   -46.2635 -46.2633 -46.2187 -46.2186 -46.2174 -46.2173 -46.1816 -46.1814
   -46.1776 -46.1774 -46.1664 -46.1662 -20.2568 -20.2521 -20.2430 -20.2418
   -20.2405 -20.2370 -20.2336 -20.2332 -20.2166 -20.2159 -20.2112 -20.2050
   -20.2033 -20.1899 -20.1889 -20.1835 -20.1832 -20.1770 -20.1764 -20.1713
   -12.4648 -12.3178 -11.4153 -11.2471  -5.9329  -5.4646  -4.1264  -3.9054
    -3.2128  -2.4520  -2.0480  -1.8573  -1.7721  -1.6461  -0.7363  -0.7326
    -0.5114  -0.4870   0.5479   0.8059   2.1424   3.2644   3.6516   3.7555
     3.9862   4.2331   4.6662   4.9467   5.2005   5.2193   5.5607   5.7703
     6.0934   6.1558   6.6435   6.6610   7.1307   7.5292   7.8149   7.8755
     8.2123   8.5693   8.6919   8.7857   9.3672   9.4723   9.5343   9.7828
     9.8846  10.1092  10.2949  10.4773  10.5522  10.7452  11.2672  11.3274
    11.4841  11.7047  11.7503  11.8845

     occupation numbers 
     1.0000   1.0000   1.0000   1.0000   1.0000   1.0000   1.0000   1.0000
     1.0000   1.0000   1.0000   1.0000   1.0000   1.0000   1.0000   1.0000
     1.0000   1.0000   1.0000   1.0000   1.0000   1.0000   1.0000   1.0000
     1.0000   1.0000   1.0000   1.0000   1.0000   1.0000   1.0000   1.0000
     1.0000   1.0000   1.0000   1.0000   1.0000   1.0000   1.0000   1.0000
     1.0000   1.0000   1.0000   1.0000   1.0000   1.0000   1.0000   1.0000
     1.0000   1.0000   1.0000   1.0000   1.0000   1.0000   1.0000   1.0000
     1.0000   1.0000   1.0000   1.0000   0.0000   0.0000   0.0000   0.0000
     0.0000   0.0000   0.0000   0.0000   0.0000   0.0000   0.0000   0.0000
     0.0000   0.0000   0.0000   0.0000   0.0000   0.0000   0.0000   0.0000
     0.0000   0.0000   0.0000   0.0000   0.0000   0.0000   0.0000   0.0000
     0.0000   0.0000   0.0000   0.0000   0.0000   0.0000   0.0000   0.0000
     0.0000   0.0000   0.0000   0.0000

          k = 0.0000 0.1463 0.0000 ( 20856 PWs)   bands (ev):

   -46.3060 -46.3058 -46.3050 -46.3048 -46.2769 -46.2767 -46.2719 -46.2718
   -46.2635 -46.2633 -46.2187 -46.2186 -46.2174 -46.2174 -46.1817 -46.1816
   -46.1775 -46.1774 -46.1663 -46.1662 -20.2557 -20.2514 -20.2436 -20.2422
   -20.2412 -20.2371 -20.2342 -20.2337 -20.2148 -20.2141 -20.2111 -20.2047
   -20.2033 -20.1898 -20.1891 -20.1834 -20.1827 -20.1775 -20.1772 -20.1714
   -12.3738 -12.2293 -11.4374 -11.2851  -6.1808  -5.6376  -4.6988  -4.3608
    -3.0295  -2.0476  -1.7565  -1.7233  -1.5203  -1.3981  -0.6915  -0.4719
    -0.3203  -0.0888   0.3019   0.6421   2.3269   3.1913   3.4375   3.7220
     3.7609   4.0061   4.1818   4.7943   5.0861   5.3740   5.5293   5.6546
     5.8103   6.1040   6.1682   6.7338   7.0480   7.5035   7.7644   7.8299
     8.2347   8.5289   8.7463   8.8177   9.2513   9.6883   9.8062   9.8462
    10.0101  10.3407  10.3516  10.4848  10.6585  11.0244  11.0763  11.4355
    11.5164  11.6533  11.9150  12.2552

     occupation numbers 
     1.0000   1.0000   1.0000   1.0000   1.0000   1.0000   1.0000   1.0000
     1.0000   1.0000   1.0000   1.0000   1.0000   1.0000   1.0000   1.0000
     1.0000   1.0000   1.0000   1.0000   1.0000   1.0000   1.0000   1.0000
     1.0000   1.0000   1.0000   1.0000   1.0000   1.0000   1.0000   1.0000
     1.0000   1.0000   1.0000   1.0000   1.0000   1.0000   1.0000   1.0000
     1.0000   1.0000   1.0000   1.0000   1.0000   1.0000   1.0000   1.0000
     1.0000   1.0000   1.0000   1.0000   1.0000   1.0000   1.0000   1.0000
     1.0000   1.0000   1.0000   1.0000   0.0000   0.0000   0.0000   0.0000
     0.0000   0.0000   0.0000   0.0000   0.0000   0.0000   0.0000   0.0000
     0.0000   0.0000   0.0000   0.0000   0.0000   0.0000   0.0000   0.0000
     0.0000   0.0000   0.0000   0.0000   0.0000   0.0000   0.0000   0.0000
     0.0000   0.0000   0.0000   0.0000   0.0000   0.0000   0.0000   0.0000
     0.0000   0.0000   0.0000   0.0000

          k = 0.0000 0.2926 0.0000 ( 20868 PWs)   bands (ev):

   -46.3060 -46.3058 -46.3050 -46.3050 -46.2771 -46.2767 -46.2720 -46.2716
   -46.2635 -46.2634 -46.2187 -46.2187 -46.2175 -46.2175 -46.1818 -46.1817
   -46.1775 -46.1774 -46.1664 -46.1662 -20.2530 -20.2493 -20.2454 -20.2436
   -20.2425 -20.2373 -20.2354 -20.2350 -20.2108 -20.2105 -20.2100 -20.2046
   -20.2038 -20.1896 -20.1894 -20.1827 -20.1817 -20.1790 -20.1788 -20.1717
   -12.1334 -11.9909 -11.5411 -11.4251  -6.5029  -5.8745  -5.5667  -5.0969
    -2.5790  -1.4478  -1.3664  -1.3553  -1.1867  -0.7354  -0.6732  -0.5221
    -0.2758   0.2816   0.6166   0.8227   2.2786   2.6291   2.9437   3.3008
     3.5147   3.6350   4.1410   4.2231   4.5398   4.9147   5.1358   5.7254
     5.8710   6.0671   6.4496   7.0808   7.3386   7.8189   7.8465   7.9793
     8.2389   8.5071   8.7515   8.9383   9.1031   9.1358   9.2647   9.7394
    10.1439  10.3810  10.4009  10.7125  10.9837  11.0358  11.2768  11.4209
    11.7507  11.8523  12.3350  12.4087

     occupation numbers 
     1.0000   1.0000   1.0000   1.0000   1.0000   1.0000   1.0000   1.0000
     1.0000   1.0000   1.0000   1.0000   1.0000   1.0000   1.0000   1.0000
     1.0000   1.0000   1.0000   1.0000   1.0000   1.0000   1.0000   1.0000
     1.0000   1.0000   1.0000   1.0000   1.0000   1.0000   1.0000   1.0000
     1.0000   1.0000   1.0000   1.0000   1.0000   1.0000   1.0000   1.0000
     1.0000   1.0000   1.0000   1.0000   1.0000   1.0000   1.0000   1.0000
     1.0000   1.0000   1.0000   1.0000   1.0000   1.0000   1.0000   1.0000
     1.0000   1.0000   1.0000   1.0000   0.0000   0.0000   0.0000   0.0000
     0.0000   0.0000   0.0000   0.0000   0.0000   0.0000   0.0000   0.0000
     0.0000   0.0000   0.0000   0.0000   0.0000   0.0000   0.0000   0.0000
     0.0000   0.0000   0.0000   0.0000   0.0000   0.0000   0.0000   0.0000
     0.0000   0.0000   0.0000   0.0000   0.0000   0.0000   0.0000   0.0000
     0.0000   0.0000   0.0000   0.0000

          k = 0.0000-0.4389 0.0000 ( 20880 PWs)   bands (ev):

   -46.3062 -46.3059 -46.3051 -46.3050 -46.2771 -46.2767 -46.2721 -46.2717
   -46.2636 -46.2633 -46.2188 -46.2188 -46.2176 -46.2175 -46.1819 -46.1817
   -46.1775 -46.1775 -46.1664 -46.1662 -20.2507 -20.2473 -20.2471 -20.2455
   -20.2432 -20.2373 -20.2360 -20.2358 -20.2107 -20.2073 -20.2070 -20.2053
   -20.2052 -20.1895 -20.1895 -20.1814 -20.1810 -20.1804 -20.1801 -20.1718
   -11.9070 -11.7004 -11.6976 -11.6709  -6.5621  -5.9912  -5.8838  -5.5025
    -2.0211  -1.7816  -1.0186  -0.9147  -0.8223  -0.8137  -0.7958  -0.7577
     0.2483   0.4268   0.5870   0.8527   2.3739   2.5706   2.6682   2.8896
     3.3140   3.6848   3.9272   4.0362   4.0954   4.5958   4.6051   5.7247
     6.4353   6.6509   6.8753   6.9443   7.1566   7.4660   8.0147   8.3715
     8.6542   8.7540   8.8261   9.3923   9.5191   9.6004   9.6161   9.6971
     9.7217  10.0281  10.1966  10.2512  10.5634  10.7396  11.0836  11.3316
    11.3453  11.4187  11.4930  11.7067

     occupation numbers 
     1.0000   1.0000   1.0000   1.0000   1.0000   1.0000   1.0000   1.0000
     1.0000   1.0000   1.0000   1.0000   1.0000   1.0000   1.0000   1.0000
     1.0000   1.0000   1.0000   1.0000   1.0000   1.0000   1.0000   1.0000
     1.0000   1.0000   1.0000   1.0000   1.0000   1.0000   1.0000   1.0000
     1.0000   1.0000   1.0000   1.0000   1.0000   1.0000   1.0000   1.0000
     1.0000   1.0000   1.0000   1.0000   1.0000   1.0000   1.0000   1.0000
     1.0000   1.0000   1.0000   1.0000   1.0000   1.0000   1.0000   1.0000
     1.0000   1.0000   1.0000   1.0000   0.0000   0.0000   0.0000   0.0000
     0.0000   0.0000   0.0000   0.0000   0.0000   0.0000   0.0000   0.0000
     0.0000   0.0000   0.0000   0.0000   0.0000   0.0000   0.0000   0.0000
     0.0000   0.0000   0.0000   0.0000   0.0000   0.0000   0.0000   0.0000
     0.0000   0.0000   0.0000   0.0000   0.0000   0.0000   0.0000   0.0000
     0.0000   0.0000   0.0000   0.0000

          k = 0.1667 0.0000 0.0000 ( 20771 PWs)   bands (ev):

   -46.3059 -46.3058 -46.3047 -46.3047 -46.2766 -46.2763 -46.2719 -46.2717
   -46.2634 -46.2632 -46.2187 -46.2186 -46.2172 -46.2172 -46.1814 -46.1813
   -46.1774 -46.1774 -46.1662 -46.1662 -20.2525 -20.2498 -20.2426 -20.2406
   -20.2386 -20.2381 -20.2354 -20.2350 -20.2157 -20.2148 -20.2121 -20.2042
   -20.2041 -20.1916 -20.1912 -20.1846 -20.1810 -20.1783 -20.1753 -20.1702
   -12.3211 -12.1829 -11.3604 -11.2175  -6.0782  -5.6750  -4.4734  -4.4408
    -3.0630  -2.2940  -2.0473  -1.9499  -1.7230  -1.5126  -0.8135  -0.7321
    -0.5298  -0.1961   0.5326   0.7062   2.3152   3.1852   3.4840   3.7848
     4.1207   4.1345   4.4404   4.4938   5.1731   5.1981   5.4607   5.7273
     5.8980   5.9954   6.2899   6.7445   6.8923   7.1540   7.4914   7.5623
     7.9368   8.0173   8.7164   8.8330   9.0346   9.7013  10.1845  10.4331
    10.4488  10.7842  10.8406  10.9363  11.1630  11.4496  11.5384  11.5616
    11.5954  11.8142  11.8560  12.0220

     occupation numbers 
     1.0000   1.0000   1.0000   1.0000   1.0000   1.0000   1.0000   1.0000
     1.0000   1.0000   1.0000   1.0000   1.0000   1.0000   1.0000   1.0000
     1.0000   1.0000   1.0000   1.0000   1.0000   1.0000   1.0000   1.0000
     1.0000   1.0000   1.0000   1.0000   1.0000   1.0000   1.0000   1.0000
     1.0000   1.0000   1.0000   1.0000   1.0000   1.0000   1.0000   1.0000
     1.0000   1.0000   1.0000   1.0000   1.0000   1.0000   1.0000   1.0000
     1.0000   1.0000   1.0000   1.0000   1.0000   1.0000   1.0000   1.0000
     1.0000   1.0000   1.0000   1.0000   0.0000   0.0000   0.0000   0.0000
     0.0000   0.0000   0.0000   0.0000   0.0000   0.0000   0.0000   0.0000
     0.0000   0.0000   0.0000   0.0000   0.0000   0.0000   0.0000   0.0000
     0.0000   0.0000   0.0000   0.0000   0.0000   0.0000   0.0000   0.0000
     0.0000   0.0000   0.0000   0.0000   0.0000   0.0000   0.0000   0.0000
     0.0000   0.0000   0.0000   0.0000

          k = 0.1667 0.1463 0.0000 ( 20843 PWs)   bands (ev):

   -46.3060 -46.3058 -46.3049 -46.3047 -46.2770 -46.2766 -46.2720 -46.2717
   -46.2634 -46.2633 -46.2187 -46.2187 -46.2173 -46.2173 -46.1817 -46.1817
   -46.1775 -46.1774 -46.1663 -46.1662 -20.2520 -20.2494 -20.2434 -20.2413
   -20.2392 -20.2379 -20.2359 -20.2357 -20.2148 -20.2130 -20.2114 -20.2044
   -20.2035 -20.1916 -20.1913 -20.1844 -20.1808 -20.1785 -20.1760 -20.1702
   -12.2346 -12.0991 -11.3785 -11.2486  -6.2053  -5.7261  -4.8540  -4.6408
    -2.9284  -2.4992  -2.3983  -1.9231  -1.2604  -1.0961  -0.9585  -0.8668
    -0.0438   0.1459   0.3658   0.6485   2.4592   2.9597   3.2041   3.6457
     3.7297   4.0978   4.2803   4.8731   5.1194   5.1596   5.4463   5.5701
     5.7843   6.0219   6.2925   6.8633   7.3556   7.5523   7.9775   8.1130
     8.2339   8.4655   8.6618   9.1185   9.3303   9.6617   9.7662  10.0169
    10.0824  10.1964  10.5117  10.6276  10.7892  10.8770  11.0351  11.2499
    11.5035  11.5407  11.7116  11.8274

     occupation numbers 
     1.0000   1.0000   1.0000   1.0000   1.0000   1.0000   1.0000   1.0000
     1.0000   1.0000   1.0000   1.0000   1.0000   1.0000   1.0000   1.0000
     1.0000   1.0000   1.0000   1.0000   1.0000   1.0000   1.0000   1.0000
     1.0000   1.0000   1.0000   1.0000   1.0000   1.0000   1.0000   1.0000
     1.0000   1.0000   1.0000   1.0000   1.0000   1.0000   1.0000   1.0000
     1.0000   1.0000   1.0000   1.0000   1.0000   1.0000   1.0000   1.0000
     1.0000   1.0000   1.0000   1.0000   1.0000   1.0000   1.0000   1.0000
     1.0000   1.0000   1.0000   1.0000   0.0000   0.0000   0.0000   0.0000
     0.0000   0.0000   0.0000   0.0000   0.0000   0.0000   0.0000   0.0000
     0.0000   0.0000   0.0000   0.0000   0.0000   0.0000   0.0000   0.0000
     0.0000   0.0000   0.0000   0.0000   0.0000   0.0000   0.0000   0.0000
     0.0000   0.0000   0.0000   0.0000   0.0000   0.0000   0.0000   0.0000
     0.0000   0.0000   0.0000   0.0000

          k = 0.1667 0.2926 0.0000 ( 20845 PWs)   bands (ev):

   -46.3060 -46.3058 -46.3048 -46.3047 -46.2770 -46.2767 -46.2720 -46.2717
   -46.2634 -46.2632 -46.2187 -46.2186 -46.2173 -46.2172 -46.1817 -46.1817
   -46.1775 -46.1774 -46.1662 -46.1661 -20.2508 -20.2481 -20.2452 -20.2429
   -20.2399 -20.2383 -20.2370 -20.2367 -20.2137 -20.2094 -20.2086 -20.2044
   -20.2031 -20.1916 -20.1914 -20.1841 -20.1801 -20.1789 -20.1775 -20.1703
   -12.0087 -11.8761 -11.4671 -11.3673  -6.3902  -5.8091  -5.5193  -5.1209
    -2.6569  -2.4212  -2.2849  -1.6790  -1.5447  -1.2216  -0.8600  -0.4396
     0.0530   0.2627   0.2800   0.5358   2.6685   2.9836   3.2958   3.4308
     3.5934   3.9824   4.2120   4.5223   4.9545   5.1289   5.6293   5.9113
     5.9778   6.2248   6.6319   7.1432   7.6027   7.8474   8.0082   8.3384
     8.5061   8.5532   8.8399   9.0294   9.1720   9.3374   9.5155   9.6868
     9.9140  10.2113  10.4410  10.6399  10.9152  11.1842  11.3292  11.4401
    11.4916  11.8505  11.9430  12.0561

     occupation numbers 
     1.0000   1.0000   1.0000   1.0000   1.0000   1.0000   1.0000   1.0000
     1.0000   1.0000   1.0000   1.0000   1.0000   1.0000   1.0000   1.0000
     1.0000   1.0000   1.0000   1.0000   1.0000   1.0000   1.0000   1.0000
     1.0000   1.0000   1.0000   1.0000   1.0000   1.0000   1.0000   1.0000
     1.0000   1.0000   1.0000   1.0000   1.0000   1.0000   1.0000   1.0000
     1.0000   1.0000   1.0000   1.0000   1.0000   1.0000   1.0000   1.0000
     1.0000   1.0000   1.0000   1.0000   1.0000   1.0000   1.0000   1.0000
     1.0000   1.0000   1.0000   1.0000   0.0000   0.0000   0.0000   0.0000
     0.0000   0.0000   0.0000   0.0000   0.0000   0.0000   0.0000   0.0000
     0.0000   0.0000   0.0000   0.0000   0.0000   0.0000   0.0000   0.0000
     0.0000   0.0000   0.0000   0.0000   0.0000   0.0000   0.0000   0.0000
     0.0000   0.0000   0.0000   0.0000   0.0000   0.0000   0.0000   0.0000
     0.0000   0.0000   0.0000   0.0000

          k = 0.1667-0.4389 0.0000 ( 20838 PWs)   bands (ev):

   -46.3059 -46.3058 -46.3048 -46.3047 -46.2770 -46.2767 -46.2719 -46.2717
   -46.2634 -46.2632 -46.2187 -46.2186 -46.2173 -46.2172 -46.1817 -46.1817
   -46.1774 -46.1774 -46.1663 -46.1661 -20.2501 -20.2469 -20.2461 -20.2445
   -20.2399 -20.2392 -20.2374 -20.2373 -20.2134 -20.2075 -20.2062 -20.2047
   -20.2034 -20.1918 -20.1913 -20.1838 -20.1794 -20.1791 -20.1787 -20.1703
   -11.8020 -11.6057 -11.6031 -11.5889  -6.4142  -5.8775  -5.7874  -5.4273
    -2.3498  -2.1169  -1.9615  -1.9318  -1.6734  -1.4422  -0.8336  -0.7610
     0.1874   0.2527   0.3777   0.4255   2.7804   2.8237   3.3696   3.3768
     3.8737   4.2414   4.3301   4.5227   4.8175   5.0752   5.2549   5.7877
     6.5825   6.7839   6.9984   7.0900   7.3097   7.4656   7.9812   8.0888
     8.3057   8.3605   8.7207   9.0981   9.5836   9.7180   9.7596   9.9708
    10.2025  10.2677  10.3305  10.6233  10.6857  11.1299  11.3175  11.4512
    11.6498  11.7849  12.0685  12.0906

     occupation numbers 
     1.0000   1.0000   1.0000   1.0000   1.0000   1.0000   1.0000   1.0000
     1.0000   1.0000   1.0000   1.0000   1.0000   1.0000   1.0000   1.0000
     1.0000   1.0000   1.0000   1.0000   1.0000   1.0000   1.0000   1.0000
     1.0000   1.0000   1.0000   1.0000   1.0000   1.0000   1.0000   1.0000
     1.0000   1.0000   1.0000   1.0000   1.0000   1.0000   1.0000   1.0000
     1.0000   1.0000   1.0000   1.0000   1.0000   1.0000   1.0000   1.0000
     1.0000   1.0000   1.0000   1.0000   1.0000   1.0000   1.0000   1.0000
     1.0000   1.0000   1.0000   1.0000   0.0000   0.0000   0.0000   0.0000
     0.0000   0.0000   0.0000   0.0000   0.0000   0.0000   0.0000   0.0000
     0.0000   0.0000   0.0000   0.0000   0.0000   0.0000   0.0000   0.0000
     0.0000   0.0000   0.0000   0.0000   0.0000   0.0000   0.0000   0.0000
     0.0000   0.0000   0.0000   0.0000   0.0000   0.0000   0.0000   0.0000
     0.0000   0.0000   0.0000   0.0000

          k = 0.3333 0.0000 0.0000 ( 20778 PWs)   bands (ev):

   -46.3060 -46.3058 -46.3045 -46.3044 -46.2767 -46.2764 -46.2720 -46.2716
   -46.2632 -46.2632 -46.2187 -46.2187 -46.2170 -46.2169 -46.1815 -46.1814
   -46.1774 -46.1774 -46.1661 -46.1661 -20.2519 -20.2496 -20.2460 -20.2452
   -20.2350 -20.2332 -20.2316 -20.2306 -20.2160 -20.2134 -20.2100 -20.2063
   -20.2025 -20.1951 -20.1949 -20.1917 -20.1764 -20.1757 -20.1724 -20.1688
   -11.9416 -11.8357 -11.2986 -11.2329  -6.3485  -6.0418  -5.4722  -5.2936
    -2.5778  -2.0020  -1.8323  -1.7948  -1.2907  -1.2001  -0.8284  -0.7433
    -0.2812  -0.0507   0.2725   0.4242   2.0270   2.5505   2.8593   3.1997
     3.4873   3.5032   3.9062   4.0046   4.5003   4.5730   5.2976   5.4140
     5.9372   6.1914   6.6282   7.4098   7.6435   7.9358   8.1764   8.2788
     8.6049   8.6668   8.9894   9.0408   9.2074   9.3504   9.4795   9.7616
     9.9965  10.1341  10.3435  10.4637  10.8623  11.2630  11.7013  11.7292
    11.8127  11.9971  12.2050  12.3334

     occupation numbers 
     1.0000   1.0000   1.0000   1.0000   1.0000   1.0000   1.0000   1.0000
     1.0000   1.0000   1.0000   1.0000   1.0000   1.0000   1.0000   1.0000
     1.0000   1.0000   1.0000   1.0000   1.0000   1.0000   1.0000   1.0000
     1.0000   1.0000   1.0000   1.0000   1.0000   1.0000   1.0000   1.0000
     1.0000   1.0000   1.0000   1.0000   1.0000   1.0000   1.0000   1.0000
     1.0000   1.0000   1.0000   1.0000   1.0000   1.0000   1.0000   1.0000
     1.0000   1.0000   1.0000   1.0000   1.0000   1.0000   1.0000   1.0000
     1.0000   1.0000   1.0000   1.0000   0.0000   0.0000   0.0000   0.0000
     0.0000   0.0000   0.0000   0.0000   0.0000   0.0000   0.0000   0.0000
     0.0000   0.0000   0.0000   0.0000   0.0000   0.0000   0.0000   0.0000
     0.0000   0.0000   0.0000   0.0000   0.0000   0.0000   0.0000   0.0000
     0.0000   0.0000   0.0000   0.0000   0.0000   0.0000   0.0000   0.0000
     0.0000   0.0000   0.0000   0.0000

          k = 0.3333 0.1463 0.0000 ( 20836 PWs)   bands (ev):

   -46.3060 -46.3058 -46.3046 -46.3045 -46.2769 -46.2767 -46.2719 -46.2718
   -46.2633 -46.2632 -46.2188 -46.2187 -46.2170 -46.2170 -46.1817 -46.1816
   -46.1775 -46.1774 -46.1662 -46.1661 -20.2533 -20.2503 -20.2469 -20.2461
   -20.2353 -20.2331 -20.2317 -20.2309 -20.2157 -20.2124 -20.2089 -20.2057
   -20.2022 -20.1955 -20.1947 -20.1910 -20.1765 -20.1756 -20.1728 -20.1687
   -11.8719 -11.7694 -11.2994 -11.2386  -6.2864  -5.9520  -5.4647  -5.3320
    -2.8164  -2.5724  -2.3946  -1.8999  -1.3590  -1.2038  -0.9210  -0.6949
    -0.4756  -0.1782   0.2591   0.2899   2.4010   2.8029   2.8814   3.1289
     3.6050   3.8364   4.3577   4.5416   4.7321   5.2015   5.5993   5.9300
     6.1003   6.3235   6.7210   7.3017   7.4029   8.0552   8.3019   8.4984
     8.5715   8.6987   8.7697   9.1159   9.3051   9.4892   9.6433   9.8316
     9.9957  10.1737  10.4784  10.5985  10.7952  10.8909  11.1624  11.4301
    11.6190  11.7152  11.8388  12.0428

     occupation numbers 
     1.0000   1.0000   1.0000   1.0000   1.0000   1.0000   1.0000   1.0000
     1.0000   1.0000   1.0000   1.0000   1.0000   1.0000   1.0000   1.0000
     1.0000   1.0000   1.0000   1.0000   1.0000   1.0000   1.0000   1.0000
     1.0000   1.0000   1.0000   1.0000   1.0000   1.0000   1.0000   1.0000
     1.0000   1.0000   1.0000   1.0000   1.0000   1.0000   1.0000   1.0000
     1.0000   1.0000   1.0000   1.0000   1.0000   1.0000   1.0000   1.0000
     1.0000   1.0000   1.0000   1.0000   1.0000   1.0000   1.0000   1.0000
     1.0000   1.0000   1.0000   1.0000   0.0000   0.0000   0.0000   0.0000
     0.0000   0.0000   0.0000   0.0000   0.0000   0.0000   0.0000   0.0000
     0.0000   0.0000   0.0000   0.0000   0.0000   0.0000   0.0000   0.0000
     0.0000   0.0000   0.0000   0.0000   0.0000   0.0000   0.0000   0.0000
     0.0000   0.0000   0.0000   0.0000   0.0000   0.0000   0.0000   0.0000
     0.0000   0.0000   0.0000   0.0000

          k = 0.3333 0.2926 0.0000 ( 20877 PWs)   bands (ev):

   -46.3060 -46.3059 -46.3047 -46.3045 -46.2769 -46.2767 -46.2719 -46.2718
   -46.2633 -46.2632 -46.2188 -46.2187 -46.2171 -46.2170 -46.1817 -46.1817
   -46.1775 -46.1774 -46.1662 -46.1661 -20.2557 -20.2523 -20.2486 -20.2480
   -20.2353 -20.2329 -20.2323 -20.2314 -20.2150 -20.2106 -20.2063 -20.2044
   -20.2016 -20.1961 -20.1941 -20.1897 -20.1765 -20.1758 -20.1733 -20.1685
   -11.6988 -11.6010 -11.3314 -11.2833  -6.1510  -5.7551  -5.5608  -5.3881
    -3.2913  -3.0426  -2.5213  -2.2767  -2.0428  -1.6465  -1.2499  -0.9517
    -0.7777  -0.3207  -0.1096   0.2315   2.5036   3.5536   3.9804   4.0346
     4.1376   4.3019   4.5887   5.2850   5.3965   5.5063   5.9649   6.6104
     6.7285   6.8098   7.0076   7.2347   7.4545   7.7554   8.2528   8.3331
     8.7137   9.0262   9.0749   9.4585   9.5394   9.6890   9.7411   9.8960
    10.0972  10.1303  10.1965  10.4482  10.5696  10.8014  11.0348  11.2542
    11.3670  11.4744  11.7614  11.9354

     occupation numbers 
     1.0000   1.0000   1.0000   1.0000   1.0000   1.0000   1.0000   1.0000
     1.0000   1.0000   1.0000   1.0000   1.0000   1.0000   1.0000   1.0000
     1.0000   1.0000   1.0000   1.0000   1.0000   1.0000   1.0000   1.0000
     1.0000   1.0000   1.0000   1.0000   1.0000   1.0000   1.0000   1.0000
     1.0000   1.0000   1.0000   1.0000   1.0000   1.0000   1.0000   1.0000
     1.0000   1.0000   1.0000   1.0000   1.0000   1.0000   1.0000   1.0000
     1.0000   1.0000   1.0000   1.0000   1.0000   1.0000   1.0000   1.0000
     1.0000   1.0000   1.0000   1.0000   0.0000   0.0000   0.0000   0.0000
     0.0000   0.0000   0.0000   0.0000   0.0000   0.0000   0.0000   0.0000
     0.0000   0.0000   0.0000   0.0000   0.0000   0.0000   0.0000   0.0000
     0.0000   0.0000   0.0000   0.0000   0.0000   0.0000   0.0000   0.0000
     0.0000   0.0000   0.0000   0.0000   0.0000   0.0000   0.0000   0.0000
     0.0000   0.0000   0.0000   0.0000

          k = 0.3333-0.4389 0.0000 ( 20856 PWs)   bands (ev):

   -46.3059 -46.3057 -46.3046 -46.3045 -46.2770 -46.2767 -46.2718 -46.2716
   -46.2633 -46.2631 -46.2186 -46.2185 -46.2171 -46.2170 -46.1817 -46.1817
   -46.1774 -46.1773 -46.1662 -46.1660 -20.2568 -20.2534 -20.2492 -20.2491
   -20.2349 -20.2333 -20.2325 -20.2317 -20.2147 -20.2099 -20.2047 -20.2039
   -20.2014 -20.1963 -20.1937 -20.1891 -20.1763 -20.1761 -20.1735 -20.1684
   -11.5596 -11.4248 -11.3979 -11.3967  -6.0632  -5.6841  -5.6437  -5.4140
    -3.1670  -3.1512  -2.8184  -2.8165  -1.8941  -1.8445  -1.3819  -1.3327
    -0.8050  -0.5436  -0.1315  -0.0528   3.1796   3.3606   3.9565   4.5489
     4.8139   4.8325   5.0377   5.0686   5.7411   5.9906   6.3529   6.6896
     6.9449   7.0161   7.3077   7.5734   7.6228   7.7247   7.8038   8.0154
     8.5452   8.5508   8.9453   9.2134   9.3120   9.9209  10.0531  10.3364
    10.4308  10.5105  10.6935  10.7055  10.9186  10.9915  11.0935  11.1125
    11.2104  11.2916  11.6785  11.7145

     occupation numbers 
     1.0000   1.0000   1.0000   1.0000   1.0000   1.0000   1.0000   1.0000
     1.0000   1.0000   1.0000   1.0000   1.0000   1.0000   1.0000   1.0000
     1.0000   1.0000   1.0000   1.0000   1.0000   1.0000   1.0000   1.0000
     1.0000   1.0000   1.0000   1.0000   1.0000   1.0000   1.0000   1.0000
     1.0000   1.0000   1.0000   1.0000   1.0000   1.0000   1.0000   1.0000
     1.0000   1.0000   1.0000   1.0000   1.0000   1.0000   1.0000   1.0000
     1.0000   1.0000   1.0000   1.0000   1.0000   1.0000   1.0000   1.0000
     1.0000   1.0000   1.0000   1.0000   0.0000   0.0000   0.0000   0.0000
     0.0000   0.0000   0.0000   0.0000   0.0000   0.0000   0.0000   0.0000
     0.0000   0.0000   0.0000   0.0000   0.0000   0.0000   0.0000   0.0000
     0.0000   0.0000   0.0000   0.0000   0.0000   0.0000   0.0000   0.0000
     0.0000   0.0000   0.0000   0.0000   0.0000   0.0000   0.0000   0.0000
     0.0000   0.0000   0.0000   0.0000

          k =-0.5000 0.0000 0.0000 ( 20834 PWs)   bands (ev):

   -46.3060 -46.3060 -46.3046 -46.3045 -46.2767 -46.2766 -46.2719 -46.2719
   -46.2633 -46.2633 -46.2188 -46.2188 -46.2170 -46.2170 -46.1815 -46.1815
   -46.1775 -46.1775 -46.1662 -46.1662 -20.2533 -20.2533 -20.2477 -20.2477
   -20.2303 -20.2303 -20.2284 -20.2284 -20.2146 -20.2146 -20.2081 -20.2080
   -20.1992 -20.1992 -20.1963 -20.1963 -20.1738 -20.1738 -20.1695 -20.1695
   -11.5279 -11.5279 -11.4221 -11.4221  -6.2299  -6.2299  -5.9621  -5.9621
    -1.9572  -1.9572  -1.5354  -1.5354  -1.1147  -1.1147  -0.7460  -0.7460
    -0.1536  -0.1536   0.0038   0.0038   2.3670   2.3670   2.4058   2.4058
     3.2942   3.2942   3.6432   3.6432   3.9727   3.9727   4.9643   4.9643
     6.8020   6.8021   7.2800   7.2806   7.6817   7.6818   8.5505   8.5507
     8.6763   8.6763   8.8658   8.8659   9.7839   9.7841  10.2154  10.2154
    10.3719  10.3719  10.5876  10.5877  10.8336  10.8336  11.6999  11.7000
    12.1377  12.1377  12.6088  12.6089

     occupation numbers 
     1.0000   1.0000   1.0000   1.0000   1.0000   1.0000   1.0000   1.0000
     1.0000   1.0000   1.0000   1.0000   1.0000   1.0000   1.0000   1.0000
     1.0000   1.0000   1.0000   1.0000   1.0000   1.0000   1.0000   1.0000
     1.0000   1.0000   1.0000   1.0000   1.0000   1.0000   1.0000   1.0000
     1.0000   1.0000   1.0000   1.0000   1.0000   1.0000   1.0000   1.0000
     1.0000   1.0000   1.0000   1.0000   1.0000   1.0000   1.0000   1.0000
     1.0000   1.0000   1.0000   1.0000   1.0000   1.0000   1.0000   1.0000
     1.0000   1.0000   1.0000   1.0000   0.0000   0.0000   0.0000   0.0000
     0.0000   0.0000   0.0000   0.0000   0.0000   0.0000   0.0000   0.0000
     0.0000   0.0000   0.0000   0.0000   0.0000   0.0000   0.0000   0.0000
     0.0000   0.0000   0.0000   0.0000   0.0000   0.0000   0.0000   0.0000
     0.0000   0.0000   0.0000   0.0000   0.0000   0.0000   0.0000   0.0000
     0.0000   0.0000   0.0000   0.0000

          k =-0.5000 0.1463 0.0000 ( 20818 PWs)   bands (ev):

   -46.3059 -46.3058 -46.3046 -46.3045 -46.2767 -46.2766 -46.2718 -46.2718
   -46.2633 -46.2632 -46.2186 -46.2186 -46.2170 -46.2170 -46.1815 -46.1815
   -46.1774 -46.1774 -46.1661 -46.1661 -20.2547 -20.2547 -20.2489 -20.2489
   -20.2306 -20.2306 -20.2284 -20.2284 -20.2142 -20.2142 -20.2070 -20.2070
   -20.1995 -20.1995 -20.1952 -20.1952 -20.1739 -20.1739 -20.1694 -20.1694
   -11.4923 -11.4923 -11.3885 -11.3885  -6.1241  -6.1241  -5.8837  -5.8837
    -2.3275  -2.3275  -2.0312  -2.0312  -1.4848  -1.4847  -1.0215  -1.0215
    -0.3910  -0.3910   0.0535   0.0535   2.3575   2.3575   3.0317   3.0317
     3.9826   3.9826   4.3605   4.3605   4.6238   4.6238   5.1362   5.1362
     6.8186   6.8186   7.3651   7.3656   7.5666   7.5666   8.1276   8.1278
     8.5235   8.5235   8.9959   8.9959   9.8263   9.8263  10.0881  10.0883
    10.5483  10.5484  11.0662  11.0662  11.3063  11.3063  11.6823  11.6826
    11.9187  11.9188  12.1324  12.1325

     occupation numbers 
     1.0000   1.0000   1.0000   1.0000   1.0000   1.0000   1.0000   1.0000
     1.0000   1.0000   1.0000   1.0000   1.0000   1.0000   1.0000   1.0000
     1.0000   1.0000   1.0000   1.0000   1.0000   1.0000   1.0000   1.0000
     1.0000   1.0000   1.0000   1.0000   1.0000   1.0000   1.0000   1.0000
     1.0000   1.0000   1.0000   1.0000   1.0000   1.0000   1.0000   1.0000
     1.0000   1.0000   1.0000   1.0000   1.0000   1.0000   1.0000   1.0000
     1.0000   1.0000   1.0000   1.0000   1.0000   1.0000   1.0000   1.0000
     1.0000   1.0000   1.0000   1.0000   0.0000   0.0000   0.0000   0.0000
     0.0000   0.0000   0.0000   0.0000   0.0000   0.0000   0.0000   0.0000
     0.0000   0.0000   0.0000   0.0000   0.0000   0.0000   0.0000   0.0000
     0.0000   0.0000   0.0000   0.0000   0.0000   0.0000   0.0000   0.0000
     0.0000   0.0000   0.0000   0.0000   0.0000   0.0000   0.0000   0.0000
     0.0000   0.0000   0.0000   0.0000

          k =-0.5000 0.2926 0.0000 ( 20866 PWs)   bands (ev):

   -46.3059 -46.3058 -46.3045 -46.3045 -46.2769 -46.2768 -46.2718 -46.2718
   -46.2632 -46.2632 -46.2186 -46.2186 -46.2170 -46.2170 -46.1817 -46.1817
   -46.1774 -46.1774 -46.1661 -46.1661 -20.2576 -20.2576 -20.2513 -20.2513
   -20.2311 -20.2311 -20.2284 -20.2284 -20.2133 -20.2133 -20.2049 -20.2049
   -20.1998 -20.1998 -20.1935 -20.1935 -20.1742 -20.1742 -20.1693 -20.1693
   -11.4187 -11.4186 -11.3192 -11.3191  -5.8751  -5.8751  -5.7159  -5.7158
    -3.0033  -3.0033  -2.6347  -2.6347  -2.0748  -2.0747  -1.6844  -1.6844
    -0.6803  -0.6803  -0.1140  -0.1140   3.2049   3.2050   3.9526   3.9526
     4.5417   4.5417   4.9302   4.9302   5.7787   5.7788   6.4582   6.4583
     6.9456   6.9456   7.5193   7.5193   7.8561   7.8563   8.1337   8.1338
     8.6914   8.6915   9.1162   9.1163   9.4293   9.4294  10.0975  10.0979
    10.3082  10.3082  10.6802  10.6803  10.8324  10.8326  11.0128  11.0130
    11.6775  11.6776  12.0097  12.0100

     occupation numbers 
     1.0000   1.0000   1.0000   1.0000   1.0000   1.0000   1.0000   1.0000
     1.0000   1.0000   1.0000   1.0000   1.0000   1.0000   1.0000   1.0000
     1.0000   1.0000   1.0000   1.0000   1.0000   1.0000   1.0000   1.0000
     1.0000   1.0000   1.0000   1.0000   1.0000   1.0000   1.0000   1.0000
     1.0000   1.0000   1.0000   1.0000   1.0000   1.0000   1.0000   1.0000
     1.0000   1.0000   1.0000   1.0000   1.0000   1.0000   1.0000   1.0000
     1.0000   1.0000   1.0000   1.0000   1.0000   1.0000   1.0000   1.0000
     1.0000   1.0000   1.0000   1.0000   0.0000   0.0000   0.0000   0.0000
     0.0000   0.0000   0.0000   0.0000   0.0000   0.0000   0.0000   0.0000
     0.0000   0.0000   0.0000   0.0000   0.0000   0.0000   0.0000   0.0000
     0.0000   0.0000   0.0000   0.0000   0.0000   0.0000   0.0000   0.0000
     0.0000   0.0000   0.0000   0.0000   0.0000   0.0000   0.0000   0.0000
     0.0000   0.0000   0.0000   0.0000

          k =-0.5000-0.4389 0.0000 ( 20904 PWs)   bands (ev):

   -46.3060 -46.3059 -46.3045 -46.3044 -46.2770 -46.2769 -46.2719 -46.2718
   -46.2632 -46.2631 -46.2187 -46.2187 -46.2169 -46.2169 -46.1818 -46.1818
   -46.1775 -46.1775 -46.1660 -46.1660 -20.2591 -20.2591 -20.2525 -20.2525
   -20.2313 -20.2313 -20.2284 -20.2284 -20.2128 -20.2128 -20.2039 -20.2039
   -20.1997 -20.1997 -20.1926 -20.1926 -20.1743 -20.1743 -20.1692 -20.1692
   -11.3805 -11.3804 -11.2833 -11.2833  -5.7213  -5.7213  -5.6294  -5.6294
    -3.2468  -3.2468  -2.8698  -2.8698  -2.3905  -2.3905  -2.1150  -2.1150
    -0.6493  -0.6493  -0.1970  -0.1970   3.6603   3.6603   3.8126   3.8126
     5.1997   5.1998   5.2430   5.2430   6.0845   6.0845   7.0673   7.0673
     7.5002   7.5002   7.7817   7.7817   8.4156   8.4157   8.6525   8.6525
     8.8447   8.8448   9.0166   9.0170   9.4087   9.4090   9.5581   9.5583
     9.9977   9.9978  10.0470  10.0472  10.6858  10.6859  10.7251  10.7251
    11.0498  11.0499  11.5781  11.5784

     occupation numbers 
     1.0000   1.0000   1.0000   1.0000   1.0000   1.0000   1.0000   1.0000
     1.0000   1.0000   1.0000   1.0000   1.0000   1.0000   1.0000   1.0000
     1.0000   1.0000   1.0000   1.0000   1.0000   1.0000   1.0000   1.0000
     1.0000   1.0000   1.0000   1.0000   1.0000   1.0000   1.0000   1.0000
     1.0000   1.0000   1.0000   1.0000   1.0000   1.0000   1.0000   1.0000
     1.0000   1.0000   1.0000   1.0000   1.0000   1.0000   1.0000   1.0000
     1.0000   1.0000   1.0000   1.0000   1.0000   1.0000   1.0000   1.0000
     1.0000   1.0000   1.0000   1.0000   0.0000   0.0000   0.0000   0.0000
     0.0000   0.0000   0.0000   0.0000   0.0000   0.0000   0.0000   0.0000
     0.0000   0.0000   0.0000   0.0000   0.0000   0.0000   0.0000   0.0000
     0.0000   0.0000   0.0000   0.0000   0.0000   0.0000   0.0000   0.0000
     0.0000   0.0000   0.0000   0.0000   0.0000   0.0000   0.0000   0.0000
     0.0000   0.0000   0.0000   0.0000

     highest occupied, lowest unoccupied level (ev):     0.8527    2.0270

!    total energy              =   -3375.66459692 Ry

     total all-electron energy =    -68859.667631 Ry
     estimated scf accuracy    <          2.0E-09 Ry

     The total energy is the sum of the following terms:
     one-electron contribution =   -8473.85877013 Ry
     hartree contribution      =    4258.02531970 Ry
     xc contribution           =    -306.20855968 Ry
     ewald contribution        =    2833.84374728 Ry
     one-center paw contrib.   =   -1687.46633410 Ry
      -> PAW hartree energy AE =     109.42708371 Ry
      -> PAW hartree energy PS =    -108.67041596 Ry
      -> PAW xc energy AE      =    -329.02049986 Ry
      -> PAW xc energy PS      =      47.32299342 Ry
      -> total E_H with PAW    =    4258.78198745 Ry
      -> total E_XC with PAW   =    -587.90606612 Ry

     convergence has been achieved in  12 iterations

     negative rho (up, down):  1.029E-03 0.000E+00

     Forces acting on atoms (cartesian axes, Ry/au):

     atom    1 type  1   force =     0.00000000    0.00766978   -0.00387398
     atom    2 type  1   force =     0.00000000    0.00820890   -0.00256690
     atom    3 type  1   force =     0.00000000   -0.00766422    0.00389289
     atom    4 type  1   force =     0.00000000   -0.00820857    0.00255529
     atom    5 type  2   force =     0.00000000    0.00768167   -0.00562181
     atom    6 type  2   force =     0.00000000   -0.00838857    0.00030718
     atom    7 type  2   force =     0.00000000    0.00838779   -0.00027821
     atom    8 type  2   force =     0.00000000   -0.00768678    0.00558555
     The non-local contrib.  to forces
     atom    1 type  1   force =     0.00000000   -0.29030274    0.34252959
     atom    2 type  1   force =     0.00000000   -0.28780005   -0.42196274
     atom    3 type  1   force =     0.00000000    0.29030688   -0.34252334
     atom    4 type  1   force =     0.00000000    0.28779924    0.42194661
     atom    5 type  2   force =     0.00000000   -0.27717938    0.26648706
     atom    6 type  2   force =     0.00000000    0.26578506    0.25674072
     atom    7 type  2   force =     0.00000000   -0.26578473   -0.25673244
     atom    8 type  2   force =     0.00000000    0.27717065   -0.26652079
     The ionic contribution  to forces
     atom    1 type  1   force =     0.00000000    5.06900713   32.57316120
     atom    2 type  1   force =     0.00000000    5.46039097  137.59045664
     atom    3 type  1   force =    -0.00000000   -5.06900639  -32.57315726
     atom    4 type  1   force =    -0.00000000   -5.46039023 -137.59046058
     atom    5 type  2   force =    -0.00000000    5.47879732 -144.06006795
     atom    6 type  2   force =    -0.00000000   -4.50202386   51.82205470
     atom    7 type  2   force =     0.00000000    4.50202312  -51.82205139
     atom    8 type  2   force =    -0.00000000   -5.47879804  144.06006463
     The local contribution  to forces
     atom    1 type  1   force =     0.00000000   -4.77010934  -32.92002015
     atom    2 type  1   force =     0.00000000   -5.16246183 -137.17093725
     atom    3 type  1   force =    -0.00000000    4.77010855   32.91997653
     atom    4 type  1   force =     0.00000000    5.16245756  137.17098551
     atom    5 type  2   force =     0.00000000   -5.19489893  143.78888820
     atom    6 type  2   force =     0.00000000    4.22873339  -52.07758171
     atom    7 type  2   force =     0.00000000   -4.22873774   52.07755637
     atom    8 type  2   force =     0.00000000    5.19490101 -143.78881266
     The core correction contribution to forces
     atom    1 type  1   force =    -0.00000000   -0.00095081    0.00040340
     atom    2 type  1   force =    -0.00000000   -0.00193070   -0.00001277
     atom    3 type  1   force =     0.00000000    0.00095056   -0.00040355
     atom    4 type  1   force =     0.00000000    0.00193108    0.00001376
     atom    5 type  2   force =     0.00000000    0.00093243   -0.00093837
     atom    6 type  2   force =    -0.00000000   -0.00088784   -0.00093836
     atom    7 type  2   force =     0.00000000    0.00088782    0.00093808
     atom    8 type  2   force =     0.00000000   -0.00093243    0.00093839
     The Hubbard contrib.    to forces
     atom    1 type  1   force =     0.00000000    0.00000000    0.00000000
     atom    2 type  1   force =     0.00000000    0.00000000    0.00000000
     atom    3 type  1   force =     0.00000000    0.00000000    0.00000000
     atom    4 type  1   force =     0.00000000    0.00000000    0.00000000
     atom    5 type  2   force =     0.00000000    0.00000000    0.00000000
     atom    6 type  2   force =     0.00000000    0.00000000    0.00000000
     atom    7 type  2   force =     0.00000000    0.00000000    0.00000000
     atom    8 type  2   force =     0.00000000    0.00000000    0.00000000
     The SCF correction term to forces
     atom    1 type  1   force =    -0.00000000    0.00002455    0.00004745
     atom    2 type  1   force =     0.00000000    0.00000954   -0.00011533
     atom    3 type  1   force =    -0.00000000   -0.00002480   -0.00000403
     atom    4 type  1   force =     0.00000000   -0.00000721    0.00006546
     atom    5 type  2   force =    -0.00000000    0.00002924    0.00000471
     atom    6 type  2   force =     0.00000000    0.00000369    0.00002729
     atom    7 type  2   force =     0.00000000   -0.00000167    0.00000663
     atom    8 type  2   force =     0.00000000   -0.00002894   -0.00008855

     Total force =     0.024848     Total SCF correction =     0.000178


     Computing stress (Cartesian axis) and pressure


     negative rho (up, down):  1.029E-03 0.000E+00
          total   stress  (Ry/bohr**3)                   (kbar)     P=       -1.60
   0.00000338   0.00000000   0.00000000            0.50        0.00        0.00
   0.00000000  -0.00000808   0.00000137            0.00       -1.19        0.20
   0.00000000   0.00000137  -0.00002796            0.00        0.20       -4.11

     kinetic stress (kbar)   9368.10      0.00      0.00
                                0.00   9387.82      0.24
                                0.00      0.24   9391.11

     local   stress (kbar)-312094.33      0.00     -0.00
                                0.00-310134.32   -298.61
                               -0.00   -298.61 309243.51

     nonloc. stress (kbar)  -1706.64      0.00      0.00
                                0.00  -1705.63     -0.83
                                0.00     -0.83  -1696.25

     hartree stress (kbar) 162759.08      0.00     -0.00
                                0.00 161952.31    133.23
                               -0.00    133.23-145295.33

     exc-cor stress (kbar)   2138.04      0.00     -0.00
                                0.00   2137.71      0.07
                               -0.00      0.07   2136.87

     corecor stress (kbar)  -5097.84     -0.00     -0.00
                               -0.00  -5097.75      0.03
                               -0.00      0.03  -5098.03

     ewald   stress (kbar) 144634.09      0.00      0.00
                                0.00 143458.68    166.08
                                0.00    166.08-168685.99

     hubbard stress (kbar)      0.00      0.00      0.00
                                0.00      0.00      0.00
                                0.00      0.00      0.00

     DFT-D   stress (kbar)      0.00      0.00      0.00
                                0.00      0.00      0.00
                                0.00      0.00      0.00

     XDM     stress (kbar)      0.00      0.00      0.00
                                0.00      0.00      0.00
                                0.00      0.00      0.00

     dft-nl  stress (kbar)      0.00      0.00      0.00
                                0.00      0.00      0.00
                                0.00      0.00      0.00

     TS-vdW  stress (kbar)      0.00      0.00      0.00
                                0.00      0.00      0.00
                                0.00      0.00      0.00


                                0.00      0.00      0.00
                                0.00      0.00      0.00


                                0.00      0.00      0.00


     Writing all to output data dir ./mono/snse.save/

     init_run     :     19.77s CPU     23.68s WALL (       1 calls)
     electrons    :   1160.73s CPU   1347.68s WALL (       1 calls)
     forces       :     12.96s CPU     16.25s WALL (       1 calls)
     stress       :     18.10s CPU     24.14s WALL (       1 calls)

     Called by init_run:
     wfcinit      :     16.57s CPU     19.77s WALL (       1 calls)
     wfcinit:atom :      0.09s CPU      0.10s WALL (      16 calls)
     wfcinit:wfcr :     16.36s CPU     19.57s WALL (      16 calls)
     potinit      :      1.18s CPU      1.27s WALL (       1 calls)
     hinit0       :      1.24s CPU      1.28s WALL (       1 calls)

     Called by electrons:
     c_bands      :   1099.11s CPU   1271.52s WALL (      13 calls)
     sum_band     :     51.88s CPU     61.91s WALL (      13 calls)
     v_of_rho     :      1.02s CPU      1.10s WALL (      13 calls)
     v_h          :      0.08s CPU      0.08s WALL (      13 calls)
     v_xc         :      1.10s CPU      1.19s WALL (      15 calls)
     newd         :      7.41s CPU     12.33s WALL (      13 calls)
     PAW_pot      :      1.58s CPU      1.64s WALL (      13 calls)
     mix_rho      :      0.20s CPU      0.21s WALL (      13 calls)

     Called by c_bands:
     init_us_2    :      1.24s CPU      1.18s WALL (     464 calls)
     init_us_2:cp :      1.23s CPU      1.18s WALL (     464 calls)
     cegterg      :   1069.77s CPU   1243.20s WALL (     208 calls)

     Called by sum_band:
     sum_band:wei :      0.00s CPU      0.00s WALL (      13 calls)
     sum_band:loo :     43.11s CPU     47.47s WALL (      13 calls)
     sum_band:buf :      0.37s CPU      0.46s WALL (     208 calls)
     sum_band:ini :      0.59s CPU      0.55s WALL (     208 calls)
     sum_band:cal :     29.30s CPU     33.54s WALL (     208 calls)
     sum_band:bec :      0.01s CPU      0.07s WALL (     208 calls)
     addusdens    :      7.05s CPU     12.43s WALL (      13 calls)
     addusd:skk   :      0.02s CPU      0.21s WALL (      26 calls)
     addusd:dgemm :      3.32s CPU      6.35s WALL (      26 calls)
     addusd:qvan2 :      3.44s CPU      3.56s WALL (      26 calls)

     Called by *egterg:
     cdiaghg      :    204.45s CPU    176.19s WALL (    1141 calls)
     cegterg:over :    286.07s CPU    337.91s WALL (     949 calls)
     cegterg:upda :     43.25s CPU     76.59s WALL (     949 calls)
     cegterg:last :     37.15s CPU     49.93s WALL (     404 calls)
     h_psi        :    262.32s CPU    339.25s WALL (    1173 calls)
     s_psi        :     29.04s CPU     47.43s WALL (    1173 calls)
     g_psi        :      0.42s CPU      0.30s WALL (     949 calls)

     Called by h_psi:
     h_psi:calbec :    160.95s CPU    190.58s WALL (    1173 calls)
     vloc_psi     :     58.52s CPU     61.54s WALL (    1173 calls)
     add_vuspsi   :     42.03s CPU     85.01s WALL (    1173 calls)

     General routines
     calbec       :    203.58s CPU    240.69s WALL (    1461 calls)
     fft          :      0.91s CPU      0.99s WALL (     193 calls)
     ffts         :      0.27s CPU      0.27s WALL (      26 calls)
     fftw         :     65.98s CPU     68.30s WALL (  119092 calls)
     interpolate  :      0.31s CPU      0.31s WALL (      13 calls)

     Parallel routines

     PAW routines
     PAW_pot      :      1.58s CPU      1.64s WALL (      13 calls)
     PAW_symme    :      0.06s CPU      0.05s WALL (      26 calls)

     PWSCF        :  20m12.03s CPU  23m33.28s WALL


   This run was terminated on:   7:38:48   1Jul2025            

=------------------------------------------------------------------------------=
   JOB DONE.
=------------------------------------------------------------------------------=
