
     Program PWSCF v.7.0 starts on 25Jun2025 at  2: 3:31 

     This program is part of the open-source Quantum ESPRESSO suite
     for quantum simulation of materials; please cite
         "P. Giannozzi et al., J. Phys.:Condens. Matter 21 395502 (2009);
         "P. Giannozzi et al., J. Phys.:Condens. Matter 29 465901 (2017);
         "P. Giannozzi et al., J. Chem. Phys. 152 154105 (2020);
          URL http://www.quantum-espresso.org", 
     in publications or presentations arising from this work. More details at
     http://www.quantum-espresso.org/quote

     Parallel version (MPI), running on     8 processors

     MPI processes distributed on     1 nodes
     R & G space division:  proc/nbgrp/npool/nimage =       8
     995 MiB available memory on the printing compute node when the environment starts

     Waiting for input...
     Reading input from standard input

     Current dimensions of program PWSCF are:
     Max number of different atomic species (ntypx) = 10
     Max number of k-points (npk) =  40000
     Max angular momentum in pseudopotentials (lmaxx) =  4

     Atomic positions and unit cell read from directory:
     ./tri/snse.save/
     Atomic positions from file used, from input discarded

     file Sn.pbe-dn-kjpaw_psl.1.0.0.UPF: wavefunction(s)  5S 5P 4D renormalized
     file Se.pbe-dn-kjpaw_psl.1.0.0.UPF: wavefunction(s)  4S 4P 3D renormalized

     IMPORTANT: XC functional enforced from input :
     Exchange-correlation= PBE
                           (   1   4   3   4   0   0   0)
     Any further DFT definition will be discarded
     Please, verify this is what you really want

     Message from routine setup:
     using ibrav=0 with symmetry is DISCOURAGED, use correct ibrav instead

     Subspace diagonalization in iterative solution of the eigenvalue problem:
     a serial algorithm will be used


     Parallelization info
     --------------------
     sticks:   dense  smooth     PW     G-vecs:    dense   smooth      PW
     Min         276     137     40               110552    39071    6094
     Max         277     138     41               110581    39100    6121
     Sum        2209    1101    323               884453   312681   48835

     Using Slab Decomposition



     bravais-lattice index     =            0
     lattice parameter (alat)  =       7.7975  a.u.
     unit-cell volume          =    6544.9140 (a.u.)^3
     number of atoms/cell      =           24
     number of atomic types    =            2
     number of electrons       =       360.00
     number of Kohn-Sham states=          250
     kinetic-energy cutoff     =      50.0000  Ry
     charge density cutoff     =     400.0000  Ry
     Exchange-correlation= PBE
                           (   1   4   3   4   0   0   0)

     celldm(1)=   7.797484  celldm(2)=   0.000000  celldm(3)=   0.000000
     celldm(4)=   0.000000  celldm(5)=   0.000000  celldm(6)=   0.000000

     crystal axes: (cart. coord. in units of alat)
               a(1) = (   1.000000   0.000000   0.000000 )  
               a(2) = (   0.000000   1.139268   0.000000 )  
               a(3) = (   0.000000   0.000000  12.117537 )  

     reciprocal axes: (cart. coord. in units 2 pi/alat)
               b(1) = (  1.000000  0.000000  0.000000 )  
               b(2) = (  0.000000  0.877756  0.000000 )  
               b(3) = (  0.000000  0.000000  0.082525 )  


     PseudoPot. # 1 for Sn read from file:
     ./Sn.pbe-dn-kjpaw_psl.1.0.0.UPF
     MD5 check sum: d69e53522d199ccc4f306ae57c56b55d
     Pseudo is Projector augmented-wave + core cor, Zval = 14.0
     Generated using &quot;atomic&quot; code by A. Dal Corso  v.6.3
     Shape of augmentation charge: PSQ
     Using radial grid of 1243 points,  6 beta functions with: 
                l(1) =   0
                l(2) =   0
                l(3) =   1
                l(4) =   1
                l(5) =   2
                l(6) =   2
     Q(r) pseudized with 0 coefficients 


     PseudoPot. # 2 for Se read from file:
     ./Se.pbe-dn-kjpaw_psl.1.0.0.UPF
     MD5 check sum: 4f8dd506ed2a5e2391ebbdbef81d58a8
     Pseudo is Projector augmented-wave + core cor, Zval = 16.0
     Generated using &quot;atomic&quot; code by A. Dal Corso  v.6.3
     Shape of augmentation charge: PSQ
     Using radial grid of 1211 points,  6 beta functions with: 
                l(1) =   0
                l(2) =   0
                l(3) =   1
                l(4) =   1
                l(5) =   2
                l(6) =   2
     Q(r) pseudized with 0 coefficients 


     atomic species   valence    mass     pseudopotential
        Sn            14.00   118.71000     Sn( 1.00)
        Se            16.00    78.96000     Se( 1.00)

      2 Sym. Ops. (no inversion) found ( 1 have fractional translation)


                                    s                        frac. trans.

      isym =  1     identity                                     

 cryst.   s( 1) = (     1          0          0      )
                  (     0          1          0      )
                  (     0          0          1      )

 cart.    s( 1) = (  1.0000000  0.0000000  0.0000000 )
                  (  0.0000000  1.0000000  0.0000000 )
                  (  0.0000000  0.0000000  1.0000000 )


      isym =  2     inv. 180 deg rotation - cart. axis [1,0,0]   

 cryst.   s( 2) = (    -1          0          0      )    f =(  0.5000000 )
                  (     0          1          0      )       (  0.0000000 )
                  (     0          0          1      )       (  0.0000000 )

 cart.    s( 2) = ( -1.0000000  0.0000000  0.0000000 )    f =(  0.5000000 )
                  (  0.0000000  1.0000000  0.0000000 )       (  0.0000000 )
                  (  0.0000000  0.0000000  1.0000000 )       (  0.0000000 )


   Cartesian axes

     site n.     atom                  positions (alat units)
         1           Sn  tau(   1) = (   0.7500000   0.4289964   1.7492425  )
         2           Sn  tau(   2) = (   0.2500000   0.9986306   2.4910929  )
         3           Sn  tau(   3) = (   0.2500000   0.7102720   1.0776477  )
         4           Sn  tau(   4) = (   0.7500000   0.1406378   0.3357974  )
         5           Se  tau(   5) = (   0.2500000   0.5800948   0.4199432  )
         6           Se  tau(   6) = (   0.2500000   1.1288079   1.8333882  )
         7           Se  tau(   7) = (   0.7500000   0.0104605   0.9935020  )
         8           Se  tau(   8) = (   0.7500000   0.5591737   2.4069472  )
         9           Sn  tau(   9) = (   0.7500000   0.4289964   4.5761327  )
        10           Sn  tau(  10) = (   0.2500000   0.9986306   5.3179830  )
        11           Sn  tau(  11) = (   0.2500000   0.7102720   3.9045380  )
        12           Sn  tau(  12) = (   0.7500000   0.1406378   3.1626877  )
        13           Se  tau(  13) = (   0.2500000   0.5800948   3.2468333  )
        14           Se  tau(  14) = (   0.2500000   1.1288079   4.6602785  )
        15           Se  tau(  15) = (   0.7500000   0.0104605   3.8203922  )
        16           Se  tau(  16) = (   0.7500000   0.5591737   5.2338374  )
        17           Sn  tau(  17) = (   0.7500000   0.4289964   7.4030230  )
        18           Sn  tau(  18) = (   0.2500000   0.9986306   8.1448733  )
        19           Sn  tau(  19) = (   0.2500000   0.7102720   6.7314282  )
        20           Sn  tau(  20) = (   0.7500000   0.1406378   5.9895778  )
        21           Se  tau(  21) = (   0.2500000   0.5800948   6.0737235  )
        22           Se  tau(  22) = (   0.2500000   1.1288079   7.4871687  )
        23           Se  tau(  23) = (   0.7500000   0.0104605   6.6472824  )
        24           Se  tau(  24) = (   0.7500000   0.5591737   8.0607275  )

   Crystallographic axes

     site n.     atom                  positions (cryst. coord.)
         1           Sn  tau(   1) = (  0.7500000  0.3765543  0.1443563  )
         2           Sn  tau(   2) = (  0.2500000  0.8765543  0.2055775  )
         3           Sn  tau(   3) = (  0.2500000  0.6234457  0.0889329  )
         4           Sn  tau(   4) = (  0.7500000  0.1234457  0.0277117  )
         5           Se  tau(   5) = (  0.2500000  0.5091818  0.0346558  )
         6           Se  tau(   6) = (  0.2500000  0.9908182  0.1513004  )
         7           Se  tau(   7) = (  0.7500000  0.0091818  0.0819888  )
         8           Se  tau(   8) = (  0.7500000  0.4908182  0.1986334  )
         9           Sn  tau(   9) = (  0.7500000  0.3765543  0.3776454  )
        10           Sn  tau(  10) = (  0.2500000  0.8765543  0.4388667  )
        11           Sn  tau(  11) = (  0.2500000  0.6234457  0.3222221  )
        12           Sn  tau(  12) = (  0.7500000  0.1234457  0.2610009  )
        13           Se  tau(  13) = (  0.2500000  0.5091818  0.2679450  )
        14           Se  tau(  14) = (  0.2500000  0.9908182  0.3845896  )
        15           Se  tau(  15) = (  0.7500000  0.0091818  0.3152779  )
        16           Se  tau(  16) = (  0.7500000  0.4908182  0.4319225  )
        17           Sn  tau(  17) = (  0.7500000  0.3765543  0.6109346  )
        18           Sn  tau(  18) = (  0.2500000  0.8765543  0.6721558  )
        19           Sn  tau(  19) = (  0.2500000  0.6234457  0.5555112  )
        20           Sn  tau(  20) = (  0.7500000  0.1234457  0.4942900  )
        21           Se  tau(  21) = (  0.2500000  0.5091818  0.5012342  )
        22           Se  tau(  22) = (  0.2500000  0.9908182  0.6178787  )
        23           Se  tau(  23) = (  0.7500000  0.0091818  0.5485671  )
        24           Se  tau(  24) = (  0.7500000  0.4908182  0.6652117  )

     number of k points=    61
                       cart. coord. in units 2pi/alat
        k(    1) = (   0.0000000   0.0000000   0.0000000), wk =   0.0327869
        k(    2) = (   0.0250000   0.0000000   0.0000000), wk =   0.0327869
        k(    3) = (   0.0500000   0.0000000   0.0000000), wk =   0.0327869
        k(    4) = (   0.0750000   0.0000000   0.0000000), wk =   0.0327869
        k(    5) = (   0.1000000   0.0000000   0.0000000), wk =   0.0327869
        k(    6) = (   0.1250000   0.0000000   0.0000000), wk =   0.0327869
        k(    7) = (   0.1500000   0.0000000   0.0000000), wk =   0.0327869
        k(    8) = (   0.1750000   0.0000000   0.0000000), wk =   0.0327869
        k(    9) = (   0.2000000   0.0000000   0.0000000), wk =   0.0327869
        k(   10) = (   0.2250000   0.0000000   0.0000000), wk =   0.0327869
        k(   11) = (   0.2500000   0.0000000   0.0000000), wk =   0.0327869
        k(   12) = (   0.2750000   0.0000000   0.0000000), wk =   0.0327869
        k(   13) = (   0.3000000   0.0000000   0.0000000), wk =   0.0327869
        k(   14) = (   0.3250000   0.0000000   0.0000000), wk =   0.0327869
        k(   15) = (   0.3500000   0.0000000   0.0000000), wk =   0.0327869
        k(   16) = (   0.3750000   0.0000000   0.0000000), wk =   0.0327869
        k(   17) = (   0.4000000   0.0000000   0.0000000), wk =   0.0327869
        k(   18) = (   0.4250000   0.0000000   0.0000000), wk =   0.0327869
        k(   19) = (   0.4500000   0.0000000   0.0000000), wk =   0.0327869
        k(   20) = (   0.4750000   0.0000000   0.0000000), wk =   0.0327869
        k(   21) = (   0.5000000   0.0000000   0.0000000), wk =   0.0327869
        k(   22) = (   0.5000000   0.0219439   0.0000000), wk =   0.0327869
        k(   23) = (   0.5000000   0.0438878   0.0000000), wk =   0.0327869
        k(   24) = (   0.5000000   0.0658317   0.0000000), wk =   0.0327869
        k(   25) = (   0.5000000   0.0877756   0.0000000), wk =   0.0327869
        k(   26) = (   0.5000000   0.1097195   0.0000000), wk =   0.0327869
        k(   27) = (   0.5000000   0.1316634   0.0000000), wk =   0.0327869
        k(   28) = (   0.5000000   0.1536073   0.0000000), wk =   0.0327869
        k(   29) = (   0.5000000   0.1755513   0.0000000), wk =   0.0327869
        k(   30) = (   0.5000000   0.1974952   0.0000000), wk =   0.0327869
        k(   31) = (   0.5000000   0.2194391   0.0000000), wk =   0.0327869
        k(   32) = (   0.5000000   0.2413830   0.0000000), wk =   0.0327869
        k(   33) = (   0.5000000   0.2633269   0.0000000), wk =   0.0327869
        k(   34) = (   0.5000000   0.2852708   0.0000000), wk =   0.0327869
        k(   35) = (   0.5000000   0.3072147   0.0000000), wk =   0.0327869
        k(   36) = (   0.5000000   0.3291586   0.0000000), wk =   0.0327869
        k(   37) = (   0.5000000   0.3511025   0.0000000), wk =   0.0327869
        k(   38) = (   0.5000000   0.3730464   0.0000000), wk =   0.0327869
        k(   39) = (   0.5000000   0.3949903   0.0000000), wk =   0.0327869
        k(   40) = (   0.5000000   0.4169342   0.0000000), wk =   0.0327869
        k(   41) = (   0.5000000   0.4388781   0.0000000), wk =   0.0327869
        k(   42) = (   0.4750000   0.4169342   0.0000000), wk =   0.0327869
        k(   43) = (   0.4500000   0.3949903   0.0000000), wk =   0.0327869
        k(   44) = (   0.4250000   0.3730464   0.0000000), wk =   0.0327869
        k(   45) = (   0.4000000   0.3511025   0.0000000), wk =   0.0327869
        k(   46) = (   0.3750000   0.3291586   0.0000000), wk =   0.0327869
        k(   47) = (   0.3500000   0.3072147   0.0000000), wk =   0.0327869
        k(   48) = (   0.3250000   0.2852708   0.0000000), wk =   0.0327869
        k(   49) = (   0.3000000   0.2633269   0.0000000), wk =   0.0327869
        k(   50) = (   0.2750000   0.2413830   0.0000000), wk =   0.0327869
        k(   51) = (   0.2500000   0.2194391   0.0000000), wk =   0.0327869
        k(   52) = (   0.2250000   0.1974952   0.0000000), wk =   0.0327869
        k(   53) = (   0.2000000   0.1755513   0.0000000), wk =   0.0327869
        k(   54) = (   0.1750000   0.1536073   0.0000000), wk =   0.0327869
        k(   55) = (   0.1500000   0.1316634   0.0000000), wk =   0.0327869
        k(   56) = (   0.1250000   0.1097195   0.0000000), wk =   0.0327869
        k(   57) = (   0.1000000   0.0877756   0.0000000), wk =   0.0327869
        k(   58) = (   0.0750000   0.0658317   0.0000000), wk =   0.0327869
        k(   59) = (   0.0500000   0.0438878   0.0000000), wk =   0.0327869
        k(   60) = (   0.0250000   0.0219439   0.0000000), wk =   0.0327869
        k(   61) = (   0.0000000   0.0000000   0.0000000), wk =   0.0327869

                       cryst. coord.
        k(    1) = (   0.0000000   0.0000000   0.0000000), wk =   0.0327869
        k(    2) = (   0.0250000   0.0000000   0.0000000), wk =   0.0327869
        k(    3) = (   0.0500000   0.0000000   0.0000000), wk =   0.0327869
        k(    4) = (   0.0750000   0.0000000   0.0000000), wk =   0.0327869
        k(    5) = (   0.1000000   0.0000000   0.0000000), wk =   0.0327869
        k(    6) = (   0.1250000   0.0000000   0.0000000), wk =   0.0327869
        k(    7) = (   0.1500000   0.0000000   0.0000000), wk =   0.0327869
        k(    8) = (   0.1750000   0.0000000   0.0000000), wk =   0.0327869
        k(    9) = (   0.2000000   0.0000000   0.0000000), wk =   0.0327869
        k(   10) = (   0.2250000   0.0000000   0.0000000), wk =   0.0327869
        k(   11) = (   0.2500000   0.0000000   0.0000000), wk =   0.0327869
        k(   12) = (   0.2750000   0.0000000   0.0000000), wk =   0.0327869
        k(   13) = (   0.3000000   0.0000000   0.0000000), wk =   0.0327869
        k(   14) = (   0.3250000   0.0000000   0.0000000), wk =   0.0327869
        k(   15) = (   0.3500000   0.0000000   0.0000000), wk =   0.0327869
        k(   16) = (   0.3750000   0.0000000   0.0000000), wk =   0.0327869
        k(   17) = (   0.4000000   0.0000000   0.0000000), wk =   0.0327869
        k(   18) = (   0.4250000   0.0000000   0.0000000), wk =   0.0327869
        k(   19) = (   0.4500000   0.0000000   0.0000000), wk =   0.0327869
        k(   20) = (   0.4750000   0.0000000   0.0000000), wk =   0.0327869
        k(   21) = (   0.5000000   0.0000000   0.0000000), wk =   0.0327869
        k(   22) = (   0.5000000   0.0250000   0.0000000), wk =   0.0327869
        k(   23) = (   0.5000000   0.0500000   0.0000000), wk =   0.0327869
        k(   24) = (   0.5000000   0.0750000   0.0000000), wk =   0.0327869
        k(   25) = (   0.5000000   0.1000000   0.0000000), wk =   0.0327869
        k(   26) = (   0.5000000   0.1250000   0.0000000), wk =   0.0327869
        k(   27) = (   0.5000000   0.1500000   0.0000000), wk =   0.0327869
        k(   28) = (   0.5000000   0.1750000   0.0000000), wk =   0.0327869
        k(   29) = (   0.5000000   0.2000000   0.0000000), wk =   0.0327869
        k(   30) = (   0.5000000   0.2250000   0.0000000), wk =   0.0327869
        k(   31) = (   0.5000000   0.2500000   0.0000000), wk =   0.0327869
        k(   32) = (   0.5000000   0.2750000   0.0000000), wk =   0.0327869
        k(   33) = (   0.5000000   0.3000000   0.0000000), wk =   0.0327869
        k(   34) = (   0.5000000   0.3250000   0.0000000), wk =   0.0327869
        k(   35) = (   0.5000000   0.3500000   0.0000000), wk =   0.0327869
        k(   36) = (   0.5000000   0.3750000   0.0000000), wk =   0.0327869
        k(   37) = (   0.5000000   0.4000000   0.0000000), wk =   0.0327869
        k(   38) = (   0.5000000   0.4250000   0.0000000), wk =   0.0327869
        k(   39) = (   0.5000000   0.4500000   0.0000000), wk =   0.0327869
        k(   40) = (   0.5000000   0.4750000   0.0000000), wk =   0.0327869
        k(   41) = (   0.5000000   0.5000000   0.0000000), wk =   0.0327869
        k(   42) = (   0.4750000   0.4750000   0.0000000), wk =   0.0327869
        k(   43) = (   0.4500000   0.4500000   0.0000000), wk =   0.0327869
        k(   44) = (   0.4250000   0.4250000   0.0000000), wk =   0.0327869
        k(   45) = (   0.4000000   0.4000000   0.0000000), wk =   0.0327869
        k(   46) = (   0.3750000   0.3750000   0.0000000), wk =   0.0327869
        k(   47) = (   0.3500000   0.3500000   0.0000000), wk =   0.0327869
        k(   48) = (   0.3250000   0.3250000   0.0000000), wk =   0.0327869
        k(   49) = (   0.3000000   0.3000000   0.0000000), wk =   0.0327869
        k(   50) = (   0.2750000   0.2750000   0.0000000), wk =   0.0327869
        k(   51) = (   0.2500000   0.2500000   0.0000000), wk =   0.0327869
        k(   52) = (   0.2250000   0.2250000   0.0000000), wk =   0.0327869
        k(   53) = (   0.2000000   0.2000000   0.0000000), wk =   0.0327869
        k(   54) = (   0.1750000   0.1750000   0.0000000), wk =   0.0327869
        k(   55) = (   0.1500000   0.1500000   0.0000000), wk =   0.0327869
        k(   56) = (   0.1250000   0.1250000   0.0000000), wk =   0.0327869
        k(   57) = (   0.1000000   0.1000000   0.0000000), wk =   0.0327869
        k(   58) = (   0.0750000   0.0750000   0.0000000), wk =   0.0327869
        k(   59) = (   0.0500000   0.0500000   0.0000000), wk =   0.0327869
        k(   60) = (   0.0250000   0.0250000   0.0000000), wk =   0.0327869
        k(   61) = (   0.0000000   0.0000000   0.0000000), wk =   0.0327869

     Dense  grid:   884453 G-vectors     FFT dimensions: (  50,  60, 625)

     Smooth grid:   312681 G-vectors     FFT dimensions: (  36,  40, 432)

     Dynamical RAM for                 wfc:      18.63 MB

     Dynamical RAM for     wfc (w. buffer):      18.63 MB

     Dynamical RAM for           str. fact:       3.37 MB

     Dynamical RAM for           local pot:       0.00 MB

     Dynamical RAM for          nlocal pot:      32.19 MB

     Dynamical RAM for                qrad:       3.21 MB

     Dynamical RAM for          rho,v,vnew:      10.49 MB

     Dynamical RAM for           G-vectors:       6.62 MB

     Dynamical RAM for          h,s,v(r/c):      11.44 MB

     Dynamical RAM for          <psi|beta>:       1.65 MB

     Dynamical RAM for                 psi:      37.26 MB

     Dynamical RAM for                hpsi:      37.26 MB

     Dynamical RAM for                spsi:      37.26 MB

     Dynamical RAM for      wfcinit/wfcrot:      38.69 MB

     Dynamical RAM for           addusdens:     334.00 MB

     Estimated static dynamical RAM per process >      88.62 MB

     Estimated max dynamical RAM per process >     422.62 MB

     Estimated total dynamical RAM >       3.30 GB

     The potential is recalculated from file :
     ./tri/snse.save/charge-density


     negative rho (up, down):  1.177E-03 0.000E+00
     Starting wfcs are  216 randomized atomic wfcs +   34 random wfcs
     Checking if some PAW data can be deallocated... 
       PAW data deallocated on    2 nodes for type:  1
       PAW data deallocated on    2 nodes for type:  2

     Band Structure Calculation
     Davidson diagonalization with overlap

     Computing kpt #:     1  of    61
     total cpu time spent up to now is      278.5 secs

     Computing kpt #:     2  of    61
     total cpu time spent up to now is      482.8 secs

     Computing kpt #:     3  of    61
     total cpu time spent up to now is      676.9 secs

     Computing kpt #:     4  of    61
     total cpu time spent up to now is      876.0 secs

     Computing kpt #:     5  of    61
     total cpu time spent up to now is     1081.4 secs

     Computing kpt #:     6  of    61
     total cpu time spent up to now is     1332.5 secs

     Computing kpt #:     7  of    61
     total cpu time spent up to now is     1552.6 secs

     Computing kpt #:     8  of    61
     total cpu time spent up to now is     1750.5 secs

     Computing kpt #:     9  of    61
     total cpu time spent up to now is     1914.1 secs

     Computing kpt #:    10  of    61
     total cpu time spent up to now is     2084.2 secs

     Computing kpt #:    11  of    61
     total cpu time spent up to now is     2239.6 secs

     Computing kpt #:    12  of    61
     total cpu time spent up to now is     2384.8 secs

     Computing kpt #:    13  of    61
     total cpu time spent up to now is     2553.3 secs

     Computing kpt #:    14  of    61
     total cpu time spent up to now is     2721.9 secs

     Computing kpt #:    15  of    61
     total cpu time spent up to now is     2911.0 secs

     Computing kpt #:    16  of    61
     total cpu time spent up to now is     3125.1 secs

     Computing kpt #:    17  of    61
     c_bands:  1 eigenvalues not converged
     total cpu time spent up to now is     3393.4 secs

     Computing kpt #:    18  of    61
     total cpu time spent up to now is     3591.8 secs

     Computing kpt #:    19  of    61
     total cpu time spent up to now is     3752.8 secs

     Computing kpt #:    20  of    61
     total cpu time spent up to now is     3929.9 secs

     Computing kpt #:    21  of    61
     total cpu time spent up to now is     4119.8 secs

     Computing kpt #:    22  of    61
     total cpu time spent up to now is     4325.6 secs

     Computing kpt #:    23  of    61
     total cpu time spent up to now is     4525.0 secs

     Computing kpt #:    24  of    61
     total cpu time spent up to now is     4694.8 secs

     Computing kpt #:    25  of    61
     total cpu time spent up to now is     4889.2 secs

     Computing kpt #:    26  of    61
     total cpu time spent up to now is     5053.2 secs

     Computing kpt #:    27  of    61
     total cpu time spent up to now is     5240.6 secs

     Computing kpt #:    28  of    61
     total cpu time spent up to now is     5427.4 secs

     Computing kpt #:    29  of    61
     total cpu time spent up to now is     5619.7 secs

     Computing kpt #:    30  of    61
     total cpu time spent up to now is     5829.6 secs

     Computing kpt #:    31  of    61
     total cpu time spent up to now is     6056.2 secs

     Computing kpt #:    32  of    61
     total cpu time spent up to now is     6293.3 secs

     Computing kpt #:    33  of    61
     total cpu time spent up to now is     6496.2 secs

     Computing kpt #:    34  of    61
     total cpu time spent up to now is     6699.4 secs

     Computing kpt #:    35  of    61
     total cpu time spent up to now is     6869.9 secs

     Computing kpt #:    36  of    61
     total cpu time spent up to now is     7037.8 secs

     Computing kpt #:    37  of    61
     total cpu time spent up to now is     7225.6 secs

     Computing kpt #:    38  of    61
     total cpu time spent up to now is     7464.6 secs

     Computing kpt #:    39  of    61
     total cpu time spent up to now is     7885.6 secs

     Computing kpt #:    40  of    61
     total cpu time spent up to now is     8374.4 secs

     Computing kpt #:    41  of    61
     c_bands:  2 eigenvalues not converged
     total cpu time spent up to now is     8837.0 secs

     Computing kpt #:    42  of    61
     c_bands:  2 eigenvalues not converged
     total cpu time spent up to now is     9219.5 secs

     Computing kpt #:    43  of    61
     c_bands:  1 eigenvalues not converged
     total cpu time spent up to now is     9557.5 secs

     Computing kpt #:    44  of    61
     total cpu time spent up to now is     9759.8 secs

     Computing kpt #:    45  of    61
     total cpu time spent up to now is     9968.9 secs

     Computing kpt #:    46  of    61
     total cpu time spent up to now is    10184.8 secs

     Computing kpt #:    47  of    61
     total cpu time spent up to now is    10388.1 secs

     Computing kpt #:    48  of    61
     total cpu time spent up to now is    10574.9 secs

     Computing kpt #:    49  of    61
     total cpu time spent up to now is    10747.8 secs

     Computing kpt #:    50  of    61
     total cpu time spent up to now is    10918.6 secs

     Computing kpt #:    51  of    61
     total cpu time spent up to now is    11106.7 secs

     Computing kpt #:    52  of    61
     total cpu time spent up to now is    11319.9 secs

     Computing kpt #:    53  of    61
     total cpu time spent up to now is    11521.9 secs

     Computing kpt #:    54  of    61
     total cpu time spent up to now is    11718.9 secs

     Computing kpt #:    55  of    61
     total cpu time spent up to now is    11945.1 secs

     Computing kpt #:    56  of    61
     total cpu time spent up to now is    12205.3 secs

     Computing kpt #:    57  of    61
     total cpu time spent up to now is    12419.5 secs

     Computing kpt #:    58  of    61
     total cpu time spent up to now is    12643.8 secs

     Computing kpt #:    59  of    61
     total cpu time spent up to now is    12956.1 secs

     Computing kpt #:    60  of    61
     total cpu time spent up to now is    13235.6 secs

     Computing kpt #:    61  of    61
     total cpu time spent up to now is    13499.8 secs

     ethr =  2.78E-12,  avg # of iterations = 68.0

     total cpu time spent up to now is    13499.9 secs

     End of band structure calculation

          k = 0.0000 0.0000 0.0000 ( 38967 PWs)   bands (ev):

   -43.0653 -43.0652 -43.0648 -43.0646 -43.0642 -43.0639 -43.0636 -43.0634
   -43.0602 -43.0602 -43.0591 -43.0590 -43.0535 -43.0534 -43.0524 -43.0523
   -43.0519 -43.0519 -43.0509 -43.0508 -43.0349 -43.0346 -43.0344 -43.0342
   -43.0313 -43.0312 -43.0309 -43.0307 -43.0297 -43.0296 -43.0263 -43.0263
   -43.0234 -43.0233 -43.0224 -43.0224 -43.0223 -43.0220 -43.0218 -43.0217
   -43.0197 -43.0196 -43.0178 -43.0177 -43.0172 -43.0171 -43.0108 -43.0107
   -43.0093 -43.0092 -42.9580 -42.9578 -42.9567 -42.9566 -42.9208 -42.9207
   -42.9167 -42.9166 -42.9056 -42.9055 -17.0340 -17.0303 -17.0258 -17.0240
   -17.0189 -17.0169 -17.0148 -17.0131 -17.0129 -17.0129 -17.0117 -17.0096
   -17.0079 -17.0078 -17.0042 -17.0041 -16.9946 -16.9945 -16.9941 -16.9935
   -16.9910 -16.9885 -16.9885 -16.9880 -16.9863 -16.9824 -16.9818 -16.9813
   -16.9812 -16.9788 -16.9788 -16.9752 -16.9752 -16.9721 -16.9721 -16.9702
   -16.9701 -16.9614 -16.9612 -16.9596 -16.9596 -16.9552 -16.9551 -16.9549
   -16.9545 -16.9517 -16.9483 -16.9481 -16.9481 -16.9470 -16.9407 -16.9407
   -16.9278 -16.9277 -16.9232 -16.9231 -16.9211 -16.9211 -16.9152 -16.9151
    -9.3077  -9.2658  -9.2082  -9.1422  -9.0810  -9.0559  -8.3049  -8.2276
    -8.1395  -8.0592  -7.9996  -7.9748  -2.8760  -2.7802  -2.6332  -2.4445
    -2.2412  -2.0903  -1.1478  -0.9756  -0.8333  -0.7365  -0.6736  -0.6588
    -0.2533  -0.0877   0.1642   0.4509   0.7227   1.0089   1.0841   1.2817
     1.2819   1.3355   1.3790   1.4118   1.4126   1.5028   1.5163   1.5322
     1.5914   1.6423   2.3527   2.3924   2.3935   2.4589   2.4838   2.5625
     2.5791   2.6895   2.7738   2.8143   2.8184   3.1675   3.5731   3.6832
     3.8136   3.9305   4.0170   4.0292   5.2808   5.6021   6.1257   6.6130
     6.7268   6.7393   6.8023   6.8596   6.9137   6.9490   6.9736   7.1582
     7.1659   7.3285   7.4823   7.7063   7.7173   7.8103   7.8808   7.9230
     7.9542   8.1448   8.2320   8.3719   8.4356   8.5871   8.7200   8.9559
     9.0161   9.0632   9.1694   9.1986   9.2828   9.3267   9.5050   9.5419
     9.7645   9.9314   9.9472  10.0271  10.0924  10.1687  10.3154  10.3840
    10.5701  10.8652  11.0163  11.0508  11.1752  11.1997  11.3893  11.4333
    11.4535  11.6444  11.8085  11.8591  12.0497  12.1439  12.1767  12.1902
    12.3324  12.4096  12.4347  12.5205  12.5901  12.6063  12.7363  12.7523
    12.8135  12.8835

          k = 0.0250 0.0000 0.0000 ( 38991 PWs)   bands (ev):

   -43.0653 -43.0652 -43.0648 -43.0646 -43.0642 -43.0639 -43.0636 -43.0634
   -43.0603 -43.0602 -43.0590 -43.0590 -43.0536 -43.0535 -43.0524 -43.0523
   -43.0519 -43.0519 -43.0509 -43.0509 -43.0349 -43.0346 -43.0344 -43.0342
   -43.0314 -43.0313 -43.0309 -43.0307 -43.0297 -43.0296 -43.0263 -43.0263
   -43.0234 -43.0233 -43.0224 -43.0224 -43.0223 -43.0221 -43.0219 -43.0217
   -43.0197 -43.0196 -43.0178 -43.0178 -43.0173 -43.0171 -43.0108 -43.0107
   -43.0093 -43.0092 -42.9580 -42.9579 -42.9567 -42.9566 -42.9209 -42.9208
   -42.9167 -42.9166 -42.9057 -42.9055 -17.0339 -17.0302 -17.0257 -17.0239
   -17.0188 -17.0168 -17.0148 -17.0132 -17.0128 -17.0128 -17.0117 -17.0096
   -17.0080 -17.0078 -17.0042 -17.0042 -16.9945 -16.9944 -16.9941 -16.9935
   -16.9911 -16.9885 -16.9884 -16.9879 -16.9864 -16.9824 -16.9818 -16.9813
   -16.9812 -16.9789 -16.9789 -16.9752 -16.9751 -16.9721 -16.9721 -16.9702
   -16.9701 -16.9614 -16.9612 -16.9596 -16.9596 -16.9552 -16.9552 -16.9549
   -16.9544 -16.9517 -16.9484 -16.9481 -16.9480 -16.9470 -16.9407 -16.9407
   -16.9278 -16.9278 -16.9232 -16.9231 -16.9212 -16.9212 -16.9152 -16.9151
    -9.3043  -9.2624  -9.2050  -9.1390  -9.0778  -9.0528  -8.3033  -8.2261
    -8.1382  -8.0582  -7.9988  -7.9742  -2.8790  -2.7834  -2.6367  -2.4485
    -2.2459  -2.0959  -1.1522  -0.9828  -0.8433  -0.7490  -0.6875  -0.6738
    -0.2517  -0.0852   0.1676   0.4547   0.7266   1.0124   1.0879   1.2344
     1.3105   1.3281   1.3798   1.3983   1.4367   1.4805   1.5379   1.5477
     1.5865   1.6353   2.3528   2.3942   2.3957   2.4529   2.4871   2.5438
     2.5991   2.6838   2.7670   2.8087   2.8268   3.1764   3.5750   3.6864
     3.8166   3.9318   4.0161   4.0274   5.2853   5.6061   6.1290   6.6167
     6.7434   6.7559   6.8183   6.8757   6.9192   6.9613   6.9901   7.1692
     7.1738   7.3102   7.4665   7.6854   7.7007   7.7783   7.8855   7.9147
     7.9247   8.0953   8.2417   8.3317   8.4447   8.5491   8.7350   8.9732
     8.9802   9.0831   9.1901   9.2148   9.2470   9.3445   9.5155   9.5170
     9.7376   9.9043   9.9538  10.0009  10.0949  10.1721  10.3187  10.3862
    10.5699  10.8572  10.9926  11.0138  11.1371  11.1695  11.3426  11.3799
    11.4119  11.6063  11.7770  11.8285  12.0519  12.1324  12.2054  12.2104
    12.2911  12.3750  12.4751  12.5365  12.6249  12.6573  12.7652  12.7717
    12.7969  12.8995

          k = 0.0500 0.0000 0.0000 ( 38961 PWs)   bands (ev):

   -43.0653 -43.0652 -43.0648 -43.0646 -43.0642 -43.0639 -43.0636 -43.0634
   -43.0602 -43.0602 -43.0590 -43.0590 -43.0535 -43.0534 -43.0524 -43.0523
   -43.0519 -43.0519 -43.0508 -43.0508 -43.0349 -43.0346 -43.0344 -43.0342
   -43.0313 -43.0313 -43.0309 -43.0307 -43.0297 -43.0296 -43.0263 -43.0262
   -43.0235 -43.0233 -43.0224 -43.0223 -43.0223 -43.0221 -43.0218 -43.0217
   -43.0197 -43.0196 -43.0178 -43.0178 -43.0172 -43.0171 -43.0108 -43.0107
   -43.0092 -43.0092 -42.9580 -42.9579 -42.9567 -42.9565 -42.9208 -42.9207
   -42.9167 -42.9166 -42.9056 -42.9055 -17.0335 -17.0299 -17.0254 -17.0237
   -17.0185 -17.0166 -17.0150 -17.0134 -17.0125 -17.0125 -17.0119 -17.0098
   -17.0082 -17.0080 -17.0044 -17.0043 -16.9943 -16.9941 -16.9939 -16.9934
   -16.9911 -16.9887 -16.9883 -16.9879 -16.9867 -16.9821 -16.9817 -16.9810
   -16.9810 -16.9792 -16.9791 -16.9751 -16.9751 -16.9722 -16.9722 -16.9703
   -16.9703 -16.9615 -16.9611 -16.9595 -16.9595 -16.9554 -16.9553 -16.9549
   -16.9544 -16.9516 -16.9485 -16.9481 -16.9478 -16.9469 -16.9407 -16.9407
   -16.9280 -16.9279 -16.9232 -16.9232 -16.9212 -16.9212 -16.9151 -16.9150
    -9.2942  -9.2524  -9.1952  -9.1295  -9.0685  -9.0437  -8.2984  -8.2218
    -8.1346  -8.0552  -7.9964  -7.9722  -2.8882  -2.7930  -2.6470  -2.4603
    -2.2601  -2.1127  -1.1658  -1.0046  -0.8734  -0.7862  -0.7284  -0.7179
    -0.2467  -0.0774   0.1777   0.4659   0.7383   1.0228   1.0991   1.1874
     1.2670   1.3555   1.3733   1.3970   1.4485   1.4820   1.5648   1.5725
     1.5813   1.6156   2.3537   2.3992   2.4018   2.4391   2.4948   2.5207
     2.6262   2.6691   2.7486   2.7854   2.8571   3.2023   3.5805   3.6955
     3.8248   3.9348   4.0130   4.0217   5.2984   5.6180   6.1386   6.6255
     6.7901   6.8042   6.8623   6.9196   6.9330   6.9944   7.0361   7.1853
     7.2021   7.2579   7.4076   7.6211   7.6578   7.7090   7.8318   7.9000
     7.9286   7.9748   8.2275   8.2612   8.4482   8.4649   8.7676   8.8775
     9.0235   9.1132   9.1785   9.2372   9.2434   9.3777   9.4459   9.5405
     9.6652   9.8313   9.9289   9.9700  10.0984  10.1790  10.3291  10.3864
    10.5631  10.8211  10.9181  10.9197  11.0408  11.0812  11.2315  11.2529
    11.3170  11.5098  11.6921  11.7528  12.0428  12.0946  12.2450  12.2652
    12.2683  12.3493  12.4713  12.5341  12.7287  12.7735  12.8153  12.8227
    12.9171  12.9621

          k = 0.0750 0.0000 0.0000 ( 38977 PWs)   bands (ev):

   -43.0653 -43.0652 -43.0648 -43.0647 -43.0642 -43.0640 -43.0636 -43.0634
   -43.0603 -43.0602 -43.0590 -43.0590 -43.0536 -43.0535 -43.0524 -43.0523
   -43.0519 -43.0519 -43.0509 -43.0509 -43.0349 -43.0346 -43.0344 -43.0342
   -43.0314 -43.0312 -43.0309 -43.0307 -43.0297 -43.0296 -43.0263 -43.0263
   -43.0234 -43.0233 -43.0224 -43.0223 -43.0223 -43.0222 -43.0219 -43.0217
   -43.0197 -43.0196 -43.0178 -43.0178 -43.0173 -43.0171 -43.0108 -43.0107
   -43.0093 -43.0093 -42.9580 -42.9579 -42.9567 -42.9566 -42.9209 -42.9207
   -42.9167 -42.9166 -42.9057 -42.9056 -17.0329 -17.0293 -17.0249 -17.0233
   -17.0180 -17.0163 -17.0151 -17.0137 -17.0123 -17.0120 -17.0118 -17.0102
   -17.0086 -17.0084 -17.0047 -17.0046 -16.9941 -16.9937 -16.9936 -16.9933
   -16.9912 -16.9889 -16.9882 -16.9877 -16.9871 -16.9818 -16.9816 -16.9807
   -16.9807 -16.9796 -16.9795 -16.9750 -16.9750 -16.9723 -16.9722 -16.9706
   -16.9705 -16.9617 -16.9610 -16.9594 -16.9594 -16.9558 -16.9555 -16.9549
   -16.9542 -16.9514 -16.9485 -16.9481 -16.9475 -16.9467 -16.9408 -16.9407
   -16.9282 -16.9281 -16.9233 -16.9233 -16.9212 -16.9212 -16.9149 -16.9149
    -9.2774  -9.2358  -9.1789  -9.1136  -9.0530  -9.0285  -8.2905  -8.2147
    -8.1287  -8.0505  -7.9926  -7.9692  -2.9035  -2.8089  -2.6643  -2.4798
    -2.2835  -2.1404  -1.1893  -1.0412  -0.9235  -0.8478  -0.7946  -0.7884
    -0.2374  -0.0638   0.1948   0.4849   0.7579   1.0399   1.1167   1.1427
     1.2235   1.3186   1.4008   1.4186   1.4249   1.5262   1.5539   1.5787
     1.5998   1.6199   2.3563   2.4050   2.4073   2.4262   2.5017   2.5050
     2.6491   2.6499   2.7282   2.7505   2.9008   3.2426   3.5888   3.7093
     3.8363   3.9373   4.0062   4.0108   5.3197   5.6371   6.1530   6.6343
     6.8562   6.8771   6.9185   6.9498   6.9610   7.0303   7.0937   7.1179
     7.2534   7.2678   7.3059   7.5192   7.5851   7.6467   7.7750   7.8189
     7.9205   7.9341   8.0900   8.2891   8.3095   8.4920   8.7376   8.8009
     9.0236   9.0723   9.1992   9.2428   9.2849   9.3678   9.4130   9.5344
     9.5835   9.7248   9.8229   9.9918  10.1021  10.1832  10.3495  10.3722
    10.5367  10.7044  10.7900  10.8273  10.9224  10.9573  11.0988  11.1065
    11.2222  11.3849  11.5833  11.6520  12.0199  12.0227  12.2377  12.3227
    12.3450  12.3840  12.4587  12.4871  12.7620  12.8824  12.9702  12.9855
    13.0418  13.0867

          k = 0.1000 0.0000 0.0000 ( 38997 PWs)   bands (ev):

   -43.0654 -43.0653 -43.0649 -43.0647 -43.0641 -43.0640 -43.0636 -43.0634
   -43.0603 -43.0603 -43.0590 -43.0590 -43.0536 -43.0535 -43.0524 -43.0523
   -43.0520 -43.0520 -43.0509 -43.0509 -43.0349 -43.0346 -43.0344 -43.0342
   -43.0314 -43.0313 -43.0309 -43.0308 -43.0297 -43.0296 -43.0263 -43.0263
   -43.0234 -43.0233 -43.0224 -43.0223 -43.0223 -43.0222 -43.0219 -43.0217
   -43.0197 -43.0196 -43.0178 -43.0178 -43.0173 -43.0172 -43.0108 -43.0107
   -43.0093 -43.0093 -42.9580 -42.9579 -42.9567 -42.9566 -42.9209 -42.9207
   -42.9168 -42.9167 -42.9057 -42.9056 -17.0321 -17.0286 -17.0242 -17.0229
   -17.0174 -17.0164 -17.0149 -17.0141 -17.0124 -17.0115 -17.0113 -17.0106
   -17.0091 -17.0089 -17.0050 -17.0050 -16.9938 -16.9933 -16.9931 -16.9930
   -16.9912 -16.9893 -16.9883 -16.9876 -16.9874 -16.9816 -16.9815 -16.9806
   -16.9805 -16.9798 -16.9797 -16.9750 -16.9750 -16.9724 -16.9724 -16.9708
   -16.9707 -16.9620 -16.9609 -16.9593 -16.9593 -16.9564 -16.9558 -16.9548
   -16.9540 -16.9512 -16.9486 -16.9481 -16.9473 -16.9466 -16.9408 -16.9408
   -16.9285 -16.9284 -16.9236 -16.9235 -16.9210 -16.9210 -16.9147 -16.9146
    -9.2540  -9.2127  -9.1563  -9.0916  -9.0315  -9.0075  -8.2798  -8.2052
    -8.1208  -8.0443  -7.9876  -7.9653  -2.9246  -2.8309  -2.6881  -2.5069
    -2.3158  -2.1783  -1.2238  -1.0931  -0.9931  -0.9334  -0.8831  -0.8809
    -0.2227  -0.0437   0.2193   0.5117   0.7854   1.0614   1.1040   1.1353
     1.1895   1.2818   1.3885   1.4145   1.4664   1.5378   1.5439   1.5713
     1.6282   1.6605   2.3613   2.3993   2.4078   2.4295   2.4917   2.5157
     2.6319   2.6464   2.7100   2.7315   2.9526   3.2936   3.5989   3.7265
     3.8486   3.9364   3.9937   3.9940   5.3485   5.6624   6.1698   6.6344
     6.8349   6.8985   6.9365   6.9563   6.9628   7.0710   7.1051   7.1179
     7.2709   7.3178   7.3258   7.3871   7.5355   7.5887   7.6692   7.7397
     7.8932   7.9377   8.0037   8.1592   8.3271   8.5228   8.5780   8.8052
     8.9104   9.0770   9.1929   9.2295   9.3107   9.3366   9.4153   9.4484
     9.5682   9.5983   9.6977  10.0148  10.1078  10.1781  10.3340  10.3785
    10.4839  10.5259  10.6379  10.7203  10.8010  10.8524  10.9828  10.9838
    11.1472  11.2541  11.4831  11.5380  11.9118  12.0140  12.2631  12.3216
    12.4418  12.4576  12.4773  12.4929  12.8007  12.8819  13.0583  13.2027
    13.2129  13.2806

          k = 0.1250 0.0000 0.0000 ( 39005 PWs)   bands (ev):

   -43.0654 -43.0653 -43.0649 -43.0647 -43.0641 -43.0640 -43.0636 -43.0634
   -43.0603 -43.0603 -43.0590 -43.0590 -43.0537 -43.0535 -43.0524 -43.0523
   -43.0520 -43.0520 -43.0508 -43.0508 -43.0349 -43.0346 -43.0344 -43.0342
   -43.0315 -43.0313 -43.0310 -43.0308 -43.0297 -43.0297 -43.0264 -43.0264
   -43.0234 -43.0233 -43.0224 -43.0223 -43.0223 -43.0221 -43.0219 -43.0217
   -43.0198 -43.0197 -43.0179 -43.0179 -43.0172 -43.0171 -43.0108 -43.0107
   -43.0093 -43.0093 -42.9581 -42.9580 -42.9567 -42.9565 -42.9209 -42.9207
   -42.9168 -42.9167 -42.9057 -42.9055 -17.0311 -17.0278 -17.0235 -17.0224
   -17.0168 -17.0167 -17.0144 -17.0143 -17.0127 -17.0114 -17.0106 -17.0104
   -17.0097 -17.0095 -17.0054 -17.0054 -16.9936 -16.9933 -16.9924 -16.9923
   -16.9910 -16.9896 -16.9887 -16.9874 -16.9873 -16.9815 -16.9812 -16.9810
   -16.9809 -16.9794 -16.9793 -16.9750 -16.9750 -16.9725 -16.9725 -16.9710
   -16.9710 -16.9624 -16.9608 -16.9592 -16.9591 -16.9571 -16.9560 -16.9546
   -16.9536 -16.9509 -16.9485 -16.9481 -16.9471 -16.9464 -16.9409 -16.9409
   -16.9289 -16.9288 -16.9240 -16.9240 -16.9207 -16.9207 -16.9145 -16.9144
    -9.2242  -9.1834  -9.1275  -9.0636  -9.0042  -8.9808  -8.2666  -8.1937
    -8.1113  -8.0369  -7.9820  -7.9610  -2.9513  -2.8588  -2.7182  -2.5410
    -2.3563  -2.2254  -1.2703  -1.1603  -1.0820  -1.0424  -0.9897  -0.9895
    -0.2013  -0.0162   0.2515   0.5464   0.8209   1.0599   1.0999   1.1293
     1.1919   1.2503   1.3610   1.4167   1.5041   1.5072   1.5390   1.6164
     1.6629   1.7024   2.3685   2.3876   2.4057   2.4388   2.4935   2.5247
     2.6168   2.6195   2.6749   2.7625   3.0080   3.3509   3.6098   3.7458
     3.8595   3.9272   3.9710   3.9748   5.3839   5.6927   6.1833   6.5960
     6.6233   6.7635   6.8966   6.9856   6.9969   7.0942   7.1251   7.1391
     7.2979   7.3335   7.3809   7.4124   7.4858   7.5225   7.5795   7.7059
     7.7803   7.9337   8.0314   8.0419   8.3756   8.4037   8.5703   8.6896
     8.9021   8.9694   9.1891   9.2060   9.3109   9.3187   9.3198   9.4430
     9.4666   9.5404   9.5778  10.0316  10.1042  10.1523  10.2645  10.3456
    10.3516  10.4316  10.5465  10.6121  10.7027  10.7877  10.9103  10.9167
    11.0818  11.1317  11.4156  11.4231  11.7935  12.0211  12.2342  12.3001
    12.4902  12.5508  12.5791  12.6000  12.8472  12.8546  13.1006  13.3772
    13.4201  13.4289

          k = 0.1500 0.0000 0.0000 ( 38983 PWs)   bands (ev):

   -43.0654 -43.0653 -43.0649 -43.0647 -43.0640 -43.0639 -43.0636 -43.0634
   -43.0603 -43.0603 -43.0590 -43.0589 -43.0536 -43.0535 -43.0523 -43.0522
   -43.0520 -43.0520 -43.0508 -43.0508 -43.0349 -43.0346 -43.0344 -43.0342
   -43.0314 -43.0313 -43.0310 -43.0308 -43.0297 -43.0296 -43.0264 -43.0263
   -43.0234 -43.0233 -43.0223 -43.0223 -43.0223 -43.0221 -43.0219 -43.0217
   -43.0197 -43.0196 -43.0178 -43.0178 -43.0172 -43.0171 -43.0108 -43.0107
   -43.0093 -43.0092 -42.9581 -42.9579 -42.9566 -42.9565 -42.9208 -42.9207
   -42.9168 -42.9167 -42.9056 -42.9055 -17.0300 -17.0269 -17.0227 -17.0219
   -17.0173 -17.0165 -17.0144 -17.0135 -17.0129 -17.0119 -17.0106 -17.0102
   -17.0095 -17.0094 -17.0058 -17.0058 -16.9935 -16.9934 -16.9918 -16.9916
   -16.9907 -16.9900 -16.9892 -16.9872 -16.9872 -16.9817 -16.9816 -16.9813
   -16.9807 -16.9789 -16.9788 -16.9751 -16.9750 -16.9726 -16.9726 -16.9712
   -16.9712 -16.9629 -16.9610 -16.9593 -16.9588 -16.9576 -16.9562 -16.9543
   -16.9533 -16.9506 -16.9484 -16.9480 -16.9469 -16.9463 -16.9410 -16.9410
   -16.9292 -16.9292 -16.9245 -16.9245 -16.9203 -16.9203 -16.9142 -16.9141
    -9.1882  -9.1479  -9.0929  -9.0299  -8.9713  -8.9487  -8.2515  -8.1806
    -8.1008  -8.0290  -7.9761  -7.9568  -2.9830  -2.8918  -2.7539  -2.5815
    -2.4041  -2.2806  -1.3296  -1.2429  -1.1900  -1.1727  -1.1092  -1.1091
    -0.1719   0.0191   0.2915   0.5890   0.8642   1.0356   1.1069   1.1290
     1.2212   1.2288   1.3400   1.4049   1.4672   1.5439   1.5674   1.6623
     1.7018   1.7459   2.3748   2.3796   2.4054   2.4447   2.5019   2.5311
     2.5930   2.5954   2.6647   2.8023   3.0636   3.4093   3.6200   3.7668
     3.8668   3.9023   3.9476   3.9477   5.4251   5.7252   6.1777   6.3625
     6.5309   6.5701   6.8076   6.9124   6.9862   7.0492   7.1486   7.1643
     7.3154   7.3275   7.4045   7.4226   7.4756   7.5096   7.5578   7.6691
     7.7284   7.8783   8.0008   8.1021   8.2571   8.4352   8.5336   8.6188
     8.8194   8.9260   9.0890   9.1829   9.2665   9.2801   9.2973   9.3577
     9.4030   9.4325   9.5507  10.0229  10.0597  10.1013  10.1454  10.2302
    10.2531  10.3680  10.5790  10.5950  10.6825  10.7743  10.8938  10.9077
    11.0198  11.0284  11.3199  11.3859  11.6836  12.0202  12.1541  12.3254
    12.4978  12.6433  12.7159  12.7380  12.8310  12.9149  13.1568  13.4288
    13.5903  13.6081

          k = 0.1750 0.0000 0.0000 ( 38959 PWs)   bands (ev):

   -43.0654 -43.0652 -43.0649 -43.0647 -43.0640 -43.0639 -43.0635 -43.0633
   -43.0603 -43.0603 -43.0589 -43.0589 -43.0536 -43.0535 -43.0523 -43.0522
   -43.0520 -43.0519 -43.0508 -43.0507 -43.0349 -43.0346 -43.0344 -43.0342
   -43.0314 -43.0312 -43.0309 -43.0308 -43.0296 -43.0296 -43.0263 -43.0263
   -43.0234 -43.0233 -43.0223 -43.0223 -43.0223 -43.0221 -43.0218 -43.0217
   -43.0197 -43.0196 -43.0178 -43.0178 -43.0172 -43.0171 -43.0107 -43.0106
   -43.0092 -43.0092 -42.9580 -42.9579 -42.9566 -42.9565 -42.9208 -42.9207
   -42.9168 -42.9167 -42.9056 -42.9055 -17.0288 -17.0261 -17.0219 -17.0215
   -17.0180 -17.0167 -17.0139 -17.0130 -17.0126 -17.0124 -17.0113 -17.0109
   -17.0086 -17.0086 -17.0060 -17.0060 -16.9937 -16.9932 -16.9912 -16.9911
   -16.9904 -16.9901 -16.9896 -16.9872 -16.9871 -16.9822 -16.9821 -16.9812
   -16.9803 -16.9784 -16.9783 -16.9752 -16.9751 -16.9726 -16.9726 -16.9713
   -16.9712 -16.9636 -16.9615 -16.9600 -16.9584 -16.9578 -16.9562 -16.9540
   -16.9529 -16.9502 -16.9483 -16.9479 -16.9467 -16.9461 -16.9412 -16.9411
   -16.9296 -16.9296 -16.9251 -16.9251 -16.9198 -16.9198 -16.9139 -16.9138
    -9.1463  -9.1066  -9.0526  -8.9908  -8.9331  -8.9115  -8.2351  -8.1665
    -8.0898  -8.0211  -7.9706  -7.9532  -3.0190  -2.9293  -2.7944  -2.6272
    -2.4577  -2.3419  -1.4020  -1.3408  -1.3192  -1.3164  -1.2364  -1.2361
    -0.1337   0.0628   0.3394   0.6394   0.9149   1.0185   1.0900   1.1535
     1.2264   1.2486   1.3320   1.3896   1.4412   1.5839   1.6091   1.7092
     1.7447   1.7916   2.3754   2.3761   2.4153   2.4457   2.5052   2.5285
     2.5784   2.5821   2.6792   2.8444   3.1160   3.4628   3.6277   3.7898
     3.8592   3.8678   3.9138   3.9255   5.4710   5.7524   6.1080   6.1202
     6.3850   6.4247   6.6699   6.8118   6.9101   6.9769   7.1364   7.1411
     7.2845   7.2906   7.3202   7.3989   7.4913   7.5258   7.5797   7.6344
     7.7512   7.8141   8.0393   8.0772   8.2400   8.3782   8.5057   8.6578
     8.6791   8.8996   8.9898   9.1067   9.1990   9.2283   9.2680   9.2891
     9.3022   9.3436   9.5521   9.9795   9.9994  10.0478  10.0680  10.1637
    10.1757  10.3303  10.6494  10.6933  10.7703  10.8214  10.9112  10.9327
    10.9737  10.9930  11.2377  11.3798  11.5960  11.9652  12.1459  12.3036
    12.5141  12.7192  12.7970  12.8744  12.8884  12.9727  13.2274  13.4933
    13.7098  13.7326

          k = 0.2000 0.0000 0.0000 ( 38971 PWs)   bands (ev):

   -43.0654 -43.0652 -43.0649 -43.0648 -43.0639 -43.0638 -43.0634 -43.0633
   -43.0604 -43.0603 -43.0588 -43.0588 -43.0537 -43.0536 -43.0522 -43.0521
   -43.0520 -43.0520 -43.0507 -43.0507 -43.0349 -43.0346 -43.0344 -43.0342
   -43.0315 -43.0312 -43.0310 -43.0308 -43.0296 -43.0296 -43.0264 -43.0263
   -43.0234 -43.0233 -43.0223 -43.0223 -43.0222 -43.0221 -43.0218 -43.0216
   -43.0198 -43.0197 -43.0179 -43.0179 -43.0171 -43.0171 -43.0107 -43.0106
   -43.0092 -43.0092 -42.9581 -42.9580 -42.9565 -42.9564 -42.9208 -42.9207
   -42.9168 -42.9167 -42.9056 -42.9055 -17.0276 -17.0254 -17.0214 -17.0212
   -17.0186 -17.0173 -17.0135 -17.0131 -17.0126 -17.0120 -17.0114 -17.0114
   -17.0079 -17.0079 -17.0059 -17.0058 -16.9939 -16.9930 -16.9913 -16.9907
   -16.9906 -16.9896 -16.9893 -16.9874 -16.9871 -16.9827 -16.9825 -16.9811
   -16.9800 -16.9781 -16.9780 -16.9753 -16.9753 -16.9725 -16.9724 -16.9712
   -16.9712 -16.9643 -16.9621 -16.9610 -16.9580 -16.9576 -16.9560 -16.9536
   -16.9524 -16.9498 -16.9482 -16.9478 -16.9465 -16.9459 -16.9413 -16.9413
   -16.9301 -16.9300 -16.9258 -16.9258 -16.9192 -16.9192 -16.9136 -16.9135
    -9.0988  -9.0599  -9.0069  -8.9466  -8.8901  -8.8695  -8.2179  -8.1521
    -8.0790  -8.0140  -7.9661  -7.9509  -3.0582  -2.9701  -2.8384  -2.6768
    -2.5154  -2.4072  -1.4872  -1.4767  -1.4583  -1.4541  -1.3678  -1.3669
    -0.0860   0.1149   0.3950   0.6973   0.9724   1.0114   1.0826   1.1627
     1.2498   1.2611   1.3375   1.3823   1.4404   1.6305   1.6539   1.7569
     1.7921   1.8397   2.3738   2.3762   2.4316   2.4439   2.4995   2.5091
     2.5867   2.5921   2.7048   2.8861   3.1622   3.5043   3.6308   3.8023
     3.8157   3.8505   3.8860   3.9013   5.5192   5.7330   5.9256   5.9489
     6.2112   6.3457   6.5309   6.6742   6.7869   6.9155   7.0655   7.0809
     7.1983   7.1994   7.2335   7.3589   7.4697   7.5239   7.5653   7.6147
     7.7617   7.7666   8.0001   8.0846   8.2397   8.3200   8.5064   8.5839
     8.7360   8.7574   8.9669   8.9840   9.1163   9.1278   9.1781   9.1964
     9.2500   9.2756   9.5625   9.9832  10.0090  10.0367  10.0784  10.1392
    10.1413  10.3412  10.7922  10.8343  10.8655  10.8690  10.9385  10.9833
    11.0520  11.0743  11.1877  11.3759  11.5467  11.8909  12.1829  12.2364
    12.5642  12.7665  12.7969  12.9781  13.0074  13.0379  13.3074  13.5253
    13.6098  13.7622

          k = 0.2250 0.0000 0.0000 ( 38964 PWs)   bands (ev):

   -43.0655 -43.0652 -43.0649 -43.0647 -43.0639 -43.0637 -43.0634 -43.0632
   -43.0603 -43.0603 -43.0588 -43.0588 -43.0537 -43.0535 -43.0522 -43.0520
   -43.0520 -43.0520 -43.0507 -43.0506 -43.0349 -43.0347 -43.0344 -43.0342
   -43.0315 -43.0312 -43.0310 -43.0308 -43.0297 -43.0297 -43.0264 -43.0263
   -43.0234 -43.0233 -43.0224 -43.0223 -43.0222 -43.0221 -43.0218 -43.0216
   -43.0198 -43.0197 -43.0178 -43.0178 -43.0171 -43.0171 -43.0107 -43.0106
   -43.0092 -43.0092 -42.9581 -42.9580 -42.9564 -42.9563 -42.9209 -42.9207
   -42.9168 -42.9167 -42.9056 -42.9055 -17.0265 -17.0251 -17.0210 -17.0210
   -17.0192 -17.0179 -17.0139 -17.0137 -17.0125 -17.0119 -17.0112 -17.0105
   -17.0075 -17.0075 -17.0051 -17.0051 -16.9940 -16.9928 -16.9916 -16.9912
   -16.9903 -16.9890 -16.9889 -16.9876 -16.9871 -16.9830 -16.9826 -16.9809
   -16.9797 -16.9779 -16.9779 -16.9756 -16.9756 -16.9721 -16.9721 -16.9710
   -16.9709 -16.9652 -16.9630 -16.9622 -16.9576 -16.9574 -16.9557 -16.9531
   -16.9519 -16.9494 -16.9480 -16.9477 -16.9462 -16.9458 -16.9416 -16.9415
   -16.9305 -16.9304 -16.9264 -16.9264 -16.9186 -16.9186 -16.9132 -16.9132
    -9.0461  -9.0081  -8.9565  -8.8978  -8.8426  -8.8233  -8.2008  -8.1383
    -8.0693  -8.0085  -7.9633  -7.9507  -3.0992  -3.0128  -2.8843  -2.7283
    -2.5750  -2.4741  -1.6409  -1.6110  -1.5843  -1.5827  -1.5000  -1.4994
    -0.0288   0.1754   0.4582   0.7624   1.0147   1.0348   1.0872   1.1683
     1.2660   1.2809   1.3405   1.3938   1.4761   1.6801   1.7015   1.8043
     1.8442   1.8903   2.3732   2.3785   2.4396   2.4451   2.4909   2.4984
     2.6072   2.6132   2.7346   2.9252   3.1994   3.5269   3.6260   3.7384
     3.8058   3.8354   3.8746   3.8802   5.5601   5.5727   5.7683   5.8580
     6.0616   6.2297   6.4579   6.5093   6.6453   6.8473   6.9659   6.9769
     7.0721   7.0824   7.1573   7.3039   7.4108   7.4709   7.5173   7.5748
     7.7047   7.7289   7.9499   8.0526   8.1778   8.3572   8.3907   8.5927
     8.6656   8.7860   8.7990   8.9386   8.9614   9.0290   9.0589   9.0985
     9.2212   9.2214   9.5903  10.0735  10.1041  10.1411  10.1563  10.1827
    10.2015  10.3855  10.8375  10.8499  10.9971  11.0020  11.1358  11.1380
    11.1506  11.2170  11.2411  11.3627  11.5502  11.8325  12.1584  12.2373
    12.6327  12.7726  12.7826  13.0283  13.1002  13.1290  13.3805  13.4106
    13.4281  13.6933

          k = 0.2500 0.0000 0.0000 ( 38970 PWs)   bands (ev):

   -43.0655 -43.0652 -43.0649 -43.0647 -43.0639 -43.0637 -43.0634 -43.0632
   -43.0603 -43.0603 -43.0588 -43.0587 -43.0536 -43.0535 -43.0521 -43.0520
   -43.0520 -43.0519 -43.0506 -43.0506 -43.0349 -43.0347 -43.0344 -43.0343
   -43.0315 -43.0312 -43.0310 -43.0308 -43.0297 -43.0297 -43.0264 -43.0263
   -43.0235 -43.0234 -43.0224 -43.0224 -43.0222 -43.0221 -43.0218 -43.0216
   -43.0198 -43.0197 -43.0178 -43.0178 -43.0171 -43.0171 -43.0107 -43.0106
   -43.0092 -43.0092 -42.9581 -42.9579 -42.9564 -42.9563 -42.9209 -42.9208
   -42.9168 -42.9167 -42.9056 -42.9054 -17.0256 -17.0250 -17.0211 -17.0210
   -17.0195 -17.0187 -17.0146 -17.0146 -17.0125 -17.0115 -17.0103 -17.0096
   -17.0072 -17.0071 -17.0041 -17.0041 -16.9942 -16.9927 -16.9920 -16.9917
   -16.9900 -16.9891 -16.9891 -16.9875 -16.9866 -16.9832 -16.9825 -16.9807
   -16.9794 -16.9779 -16.9778 -16.9758 -16.9758 -16.9717 -16.9716 -16.9706
   -16.9706 -16.9661 -16.9640 -16.9634 -16.9572 -16.9571 -16.9552 -16.9526
   -16.9514 -16.9490 -16.9478 -16.9475 -16.9460 -16.9456 -16.9418 -16.9418
   -16.9310 -16.9309 -16.9270 -16.9270 -16.9179 -16.9179 -16.9129 -16.9128
    -8.9887  -8.9516  -8.9016  -8.8448  -8.7912  -8.7734  -8.1847  -8.1259
    -8.0617  -8.0056  -7.9632  -7.9532  -3.1404  -3.0555  -2.9303  -2.7797
    -2.6340  -2.5401  -1.8082  -1.7687  -1.7230  -1.6943  -1.6323  -1.6298
     0.0377   0.2441   0.5286   0.8341   1.0283   1.0863   1.1184   1.1799
     1.2749   1.3057   1.3436   1.4300   1.5367   1.7253   1.7562   1.8497
     1.9009   1.9429   2.3732   2.3809   2.4303   2.4479   2.4844   2.5134
     2.6322   2.6378   2.7651   2.9598   3.2255   3.5265   3.6101   3.6706
     3.7524   3.8181   3.8626   3.8887   5.3739   5.5172   5.6810   5.7635
     6.0093   6.0757   6.3427   6.3958   6.5335   6.7457   6.8431   6.8475
     6.9375   6.9653   7.0920   7.2131   7.3302   7.3757   7.4515   7.4981
     7.6090   7.6648   7.9034   7.9506   8.1709   8.2245   8.4169   8.4210
     8.6066   8.7196   8.7435   8.7955   8.8892   8.9325   8.9672   8.9900
     9.1839   9.2097   9.6410  10.2349  10.2635  10.2654  10.3328  10.3688
    10.3814  10.4578  10.8394  10.8587  11.0733  11.1957  11.2991  11.3075
    11.3603  11.3699  11.4325  11.4414  11.5975  11.8041  12.0926  12.3052
    12.7098  12.7263  12.7596  13.0447  13.1094  13.1852  13.2313  13.3324
    13.4211  13.5261

          k = 0.2750 0.0000 0.0000 ( 38962 PWs)   bands (ev):

   -43.0654 -43.0651 -43.0649 -43.0647 -43.0639 -43.0638 -43.0633 -43.0632
   -43.0603 -43.0602 -43.0588 -43.0587 -43.0536 -43.0535 -43.0521 -43.0520
   -43.0519 -43.0519 -43.0507 -43.0506 -43.0349 -43.0347 -43.0344 -43.0343
   -43.0315 -43.0312 -43.0310 -43.0308 -43.0297 -43.0296 -43.0264 -43.0263
   -43.0235 -43.0233 -43.0224 -43.0223 -43.0222 -43.0221 -43.0218 -43.0216
   -43.0197 -43.0196 -43.0178 -43.0178 -43.0171 -43.0171 -43.0107 -43.0106
   -43.0092 -43.0092 -42.9580 -42.9579 -42.9564 -42.9563 -42.9209 -42.9208
   -42.9168 -42.9166 -42.9056 -42.9054 -17.0253 -17.0251 -17.0217 -17.0212
   -17.0196 -17.0194 -17.0154 -17.0154 -17.0123 -17.0109 -17.0093 -17.0086
   -17.0066 -17.0065 -17.0030 -17.0030 -16.9943 -16.9927 -16.9922 -16.9921
   -16.9899 -16.9897 -16.9895 -16.9870 -16.9859 -16.9833 -16.9824 -16.9806
   -16.9793 -16.9779 -16.9776 -16.9761 -16.9761 -16.9711 -16.9711 -16.9700
   -16.9700 -16.9670 -16.9650 -16.9647 -16.9568 -16.9568 -16.9546 -16.9520
   -16.9509 -16.9486 -16.9476 -16.9474 -16.9458 -16.9455 -16.9422 -16.9421
   -16.9314 -16.9313 -16.9275 -16.9275 -16.9173 -16.9172 -16.9126 -16.9125
    -8.9270  -8.8911  -8.8430  -8.7884  -8.7365  -8.7203  -8.1705  -8.1158
    -8.0569  -8.0062  -7.9663  -7.9591  -3.1799  -3.0964  -2.9741  -2.8287
    -2.6901  -2.6022  -1.9754  -1.9283  -1.8693  -1.8168  -1.7600  -1.7598
     0.1132   0.3206   0.6059   0.9119   1.0509   1.1143   1.1867   1.2000
     1.2926   1.3285   1.3551   1.4839   1.6101   1.7624   1.8185   1.8914
     1.9611   1.9960   2.3716   2.3808   2.4165   2.4450   2.4892   2.5390
     2.6598   2.6628   2.7939   2.9884   3.2393   3.5026   3.5810   3.6046
     3.6972   3.7774   3.8418   3.9006   5.2006   5.3801   5.6308   5.7103
     5.9298   6.0086   6.1992   6.2687   6.4806   6.6097   6.7029   6.7163
     6.8073   6.8742   7.0128   7.0944   7.2486   7.2524   7.3687   7.3945
     7.4854   7.5744   7.8543   7.8579   8.0888   8.1312   8.2472   8.3937
     8.4200   8.5249   8.7189   8.7201   8.7824   8.8663   8.8909   8.9671
     9.1580   9.2326   9.7104  10.4069  10.4380  10.4722  10.5710  10.5810
    10.6490  10.6611  10.8889  10.9015  11.1054  11.2670  11.4405  11.5164
    11.5630  11.5938  11.6537  11.6822  11.6878  11.8382  12.0696  12.3820
    12.6294  12.7007  12.7910  12.9611  13.0389  13.0580  13.2476  13.3278
    13.3549  13.4689

          k = 0.3000 0.0000 0.0000 ( 38970 PWs)   bands (ev):

   -43.0654 -43.0651 -43.0649 -43.0647 -43.0639 -43.0637 -43.0633 -43.0632
   -43.0603 -43.0603 -43.0588 -43.0587 -43.0536 -43.0535 -43.0521 -43.0520
   -43.0519 -43.0519 -43.0506 -43.0506 -43.0349 -43.0347 -43.0344 -43.0343
   -43.0315 -43.0312 -43.0310 -43.0308 -43.0297 -43.0297 -43.0264 -43.0263
   -43.0235 -43.0233 -43.0224 -43.0224 -43.0222 -43.0221 -43.0218 -43.0216
   -43.0198 -43.0196 -43.0178 -43.0178 -43.0171 -43.0171 -43.0107 -43.0106
   -43.0092 -43.0092 -42.9580 -42.9579 -42.9564 -42.9563 -42.9209 -42.9208
   -42.9168 -42.9167 -42.9056 -42.9054 -17.0257 -17.0249 -17.0224 -17.0217
   -17.0200 -17.0199 -17.0162 -17.0161 -17.0119 -17.0102 -17.0082 -17.0077
   -17.0059 -17.0058 -17.0020 -17.0019 -16.9944 -16.9927 -16.9925 -16.9924
   -16.9905 -16.9905 -16.9895 -16.9867 -16.9851 -16.9834 -16.9822 -16.9806
   -16.9793 -16.9777 -16.9773 -16.9762 -16.9762 -16.9707 -16.9706 -16.9694
   -16.9693 -16.9680 -16.9661 -16.9659 -16.9565 -16.9565 -16.9539 -16.9514
   -16.9503 -16.9482 -16.9475 -16.9473 -16.9456 -16.9454 -16.9425 -16.9424
   -16.9318 -16.9317 -16.9280 -16.9280 -16.9166 -16.9166 -16.9122 -16.9122
    -8.8616  -8.8272  -8.7812  -8.7292  -8.6792  -8.6648  -8.1592  -8.1092
    -8.0562  -8.0114  -7.9734  -7.9688  -3.2154  -3.1332  -3.0136  -2.8729
    -2.7406  -2.6581  -2.1400  -2.0863  -2.0169  -1.9484  -1.8893  -1.8823
     0.1968   0.4044   0.6895   0.9951   1.0808   1.1458   1.2287   1.2601
     1.3219   1.3562   1.3785   1.5454   1.6914   1.7916   1.8854   1.9272
     2.0231   2.0477   2.3660   2.3741   2.4023   2.4415   2.5000   2.5678
     2.6869   2.6897   2.8193   3.0102   3.2413   3.4589   3.5404   3.5444
     3.6417   3.7263   3.8051   3.8859   5.0744   5.2649   5.5141   5.7209
     5.8353   5.9532   6.1251   6.1320   6.4196   6.4526   6.5708   6.5781
     6.6911   6.8243   6.9065   6.9709   7.1050   7.1674   7.2625   7.2876
     7.3491   7.4791   7.7734   7.7939   7.9457   8.0078   8.1342   8.1974
     8.3196   8.3922   8.6110   8.6335   8.6800   8.7384   8.8570   9.0430
     9.1385   9.2920   9.7934  10.5243  10.5959  10.6795  10.8088  10.8681
    10.9543  10.9902  11.0263  11.0312  11.1785  11.2844  11.5827  11.6449
    11.7211  11.7898  11.8106  11.9215  11.9245  12.0252  12.1516  12.4001
    12.5771  12.5895  12.7796  12.8737  12.9551  13.0088  13.2146  13.2183
    13.3048  13.3304

          k = 0.3250 0.0000 0.0000 ( 38984 PWs)   bands (ev):

   -43.0655 -43.0652 -43.0649 -43.0648 -43.0638 -43.0637 -43.0633 -43.0631
   -43.0603 -43.0603 -43.0587 -43.0587 -43.0537 -43.0536 -43.0521 -43.0520
   -43.0520 -43.0520 -43.0506 -43.0506 -43.0349 -43.0347 -43.0345 -43.0343
   -43.0315 -43.0312 -43.0310 -43.0308 -43.0297 -43.0297 -43.0264 -43.0263
   -43.0235 -43.0234 -43.0224 -43.0224 -43.0222 -43.0221 -43.0218 -43.0216
   -43.0198 -43.0197 -43.0179 -43.0178 -43.0171 -43.0171 -43.0107 -43.0106
   -43.0092 -43.0091 -42.9581 -42.9580 -42.9564 -42.9563 -42.9209 -42.9208
   -42.9168 -42.9167 -42.9055 -42.9054 -17.0261 -17.0250 -17.0231 -17.0225
   -17.0205 -17.0203 -17.0169 -17.0169 -17.0113 -17.0093 -17.0070 -17.0068
   -17.0051 -17.0050 -17.0010 -17.0009 -16.9944 -16.9928 -16.9926 -16.9924
   -16.9913 -16.9913 -16.9895 -16.9866 -16.9845 -16.9835 -16.9822 -16.9807
   -16.9793 -16.9776 -16.9771 -16.9762 -16.9761 -16.9702 -16.9702 -16.9691
   -16.9686 -16.9686 -16.9672 -16.9671 -16.9563 -16.9562 -16.9532 -16.9508
   -16.9498 -16.9479 -16.9473 -16.9472 -16.9455 -16.9453 -16.9429 -16.9428
   -16.9323 -16.9322 -16.9284 -16.9283 -16.9159 -16.9159 -16.9119 -16.9118
    -8.7933  -8.7605  -8.7169  -8.6680  -8.6200  -8.6076  -8.1517  -8.1070
    -8.0605  -8.0225  -7.9850  -7.9826  -3.2449  -3.1637  -3.0464  -2.9098
    -2.7830  -2.7052  -2.2995  -2.2403  -2.1623  -2.0823  -2.0171  -2.0014
     0.2878   0.4948   0.7786   1.0825   1.1150   1.1828   1.2652   1.3254
     1.3680   1.3916   1.4159   1.6084   1.7778   1.8121   1.9547   1.9548
     2.0847   2.0945   2.3538   2.3564   2.3897   2.4378   2.5131   2.5964
     2.7104   2.7220   2.8404   3.0254   3.2340   3.4049   3.4889   3.4931
     3.5845   3.6646   3.7466   3.8311   5.0083   5.1940   5.4294   5.6489
     5.8425   5.8429   5.9898   6.1225   6.2917   6.3335   6.4408   6.4475
     6.5991   6.7763   6.7913   6.8897   6.9579   7.0508   7.1398   7.1809
     7.2144   7.4117   7.6752   7.7071   7.7999   7.8262   8.0078   8.0804
     8.1369   8.3772   8.5035   8.5179   8.5933   8.6025   8.8181   9.0929
     9.1733   9.3776   9.8877  10.6107  10.7041  10.8092  11.0273  11.1238
    11.2559  11.2594  11.2863  11.3423  11.3895  11.4036  11.6605  11.7057
    11.7717  11.9352  11.9846  12.1505  12.1742  12.2699  12.3182  12.3421
    12.5099  12.5937  12.6702  12.8914  12.9033  12.9427  13.0759  13.1820
    13.2116  13.2289

          k = 0.3500 0.0000 0.0000 ( 38964 PWs)   bands (ev):

   -43.0654 -43.0652 -43.0649 -43.0647 -43.0637 -43.0636 -43.0633 -43.0631
   -43.0603 -43.0603 -43.0587 -43.0586 -43.0536 -43.0535 -43.0520 -43.0520
   -43.0519 -43.0519 -43.0506 -43.0505 -43.0349 -43.0347 -43.0345 -43.0343
   -43.0315 -43.0312 -43.0310 -43.0308 -43.0297 -43.0297 -43.0264 -43.0263
   -43.0235 -43.0234 -43.0224 -43.0224 -43.0221 -43.0220 -43.0217 -43.0216
   -43.0198 -43.0197 -43.0179 -43.0178 -43.0171 -43.0170 -43.0106 -43.0106
   -43.0092 -43.0091 -42.9581 -42.9579 -42.9563 -42.9562 -42.9209 -42.9208
   -42.9168 -42.9167 -42.9055 -42.9054 -17.0266 -17.0253 -17.0238 -17.0234
   -17.0210 -17.0209 -17.0176 -17.0175 -17.0105 -17.0083 -17.0061 -17.0060
   -17.0042 -17.0041 -17.0001 -17.0001 -16.9944 -16.9930 -16.9926 -16.9924
   -16.9921 -16.9921 -16.9895 -16.9867 -16.9840 -16.9836 -16.9820 -16.9807
   -16.9792 -16.9775 -16.9771 -16.9760 -16.9757 -16.9702 -16.9697 -16.9697
   -16.9683 -16.9682 -16.9679 -16.9679 -16.9560 -16.9560 -16.9524 -16.9502
   -16.9493 -16.9476 -16.9471 -16.9470 -16.9454 -16.9453 -16.9432 -16.9432
   -16.9327 -16.9326 -16.9286 -16.9286 -16.9153 -16.9153 -16.9116 -16.9115
    -8.7228  -8.6918  -8.6510  -8.6056  -8.5598  -8.5495  -8.1491  -8.1101
    -8.0708  -8.0405  -8.0015  -8.0006  -3.2661  -3.1857  -3.0704  -2.9373
    -2.8153  -2.7414  -2.4518  -2.3880  -2.3028  -2.2137  -2.1416  -2.1176
     0.3852   0.5908   0.8724   1.1490   1.1732   1.2225   1.3073   1.3778
     1.4267   1.4345   1.4713   1.6679   1.8244   1.8671   1.9724   2.0250
     2.1322   2.1427   2.3276   2.3329   2.3763   2.4334   2.5255   2.6223
     2.7357   2.7569   2.8581   3.0348   3.2218   3.3504   3.4358   3.4435
     3.5239   3.5914   3.6652   3.7378   5.0015   5.1711   5.3820   5.5745
     5.7369   5.8487   5.8857   6.0932   6.1451   6.2321   6.3125   6.3310
     6.5323   6.6854   6.6934   6.8142   6.8879   6.9213   7.0134   7.0669
     7.0937   7.3586   7.5503   7.5922   7.6490   7.6600   7.8533   7.9415
     8.0896   8.3521   8.3963   8.4144   8.4796   8.5154   8.7731   9.0684
     9.2929   9.4809   9.9912  10.6859  10.7864  10.8901  11.1559  11.2109
    11.5261  11.5411  11.6000  11.6121  11.7106  11.7161  11.7735  11.7933
    11.8781  11.9218  12.0911  12.2387  12.3130  12.4024  12.4578  12.5027
    12.5671  12.5770  12.7082  12.7564  12.7764  12.9778  13.0465  13.1191
    13.2161  13.2552

          k = 0.3750 0.0000 0.0000 ( 38930 PWs)   bands (ev):

   -43.0654 -43.0652 -43.0649 -43.0647 -43.0636 -43.0635 -43.0632 -43.0630
   -43.0603 -43.0603 -43.0586 -43.0585 -43.0536 -43.0535 -43.0520 -43.0519
   -43.0519 -43.0518 -43.0504 -43.0504 -43.0349 -43.0348 -43.0345 -43.0343
   -43.0314 -43.0312 -43.0310 -43.0308 -43.0297 -43.0297 -43.0263 -43.0263
   -43.0235 -43.0234 -43.0224 -43.0224 -43.0221 -43.0220 -43.0217 -43.0215
   -43.0197 -43.0196 -43.0178 -43.0178 -43.0170 -43.0170 -43.0106 -43.0105
   -43.0091 -43.0090 -42.9580 -42.9579 -42.9562 -42.9561 -42.9209 -42.9208
   -42.9168 -42.9166 -42.9055 -42.9053 -17.0270 -17.0256 -17.0244 -17.0242
   -17.0215 -17.0215 -17.0181 -17.0181 -17.0096 -17.0073 -17.0055 -17.0051
   -17.0034 -17.0033 -16.9994 -16.9993 -16.9944 -16.9931 -16.9928 -16.9928
   -16.9925 -16.9924 -16.9897 -16.9870 -16.9840 -16.9838 -16.9816 -16.9806
   -16.9789 -16.9775 -16.9771 -16.9757 -16.9753 -16.9713 -16.9694 -16.9693
   -16.9691 -16.9690 -16.9674 -16.9673 -16.9558 -16.9557 -16.9517 -16.9496
   -16.9487 -16.9475 -16.9470 -16.9469 -16.9453 -16.9452 -16.9436 -16.9435
   -16.9330 -16.9329 -16.9288 -16.9288 -16.9148 -16.9148 -16.9114 -16.9113
    -8.6509  -8.6220  -8.5845  -8.5431  -8.4995  -8.4915  -8.1522  -8.1196
    -8.0882  -8.0662  -8.0229  -8.0227  -3.2769  -3.1971  -3.0834  -2.9534
    -2.8355  -2.7651  -2.5951  -2.5274  -2.4362  -2.3397  -2.2609  -2.2294
     0.4877   0.6913   0.9695   1.1773   1.2603   1.2648   1.3520   1.4280
     1.4836   1.4840   1.5406   1.7196   1.8314   1.9502   1.9880   2.0933
     2.1564   2.1920   2.2888   2.3027   2.3608   2.4287   2.5342   2.6427
     2.7663   2.7930   2.8770   3.0394   3.2102   3.3017   3.3847   3.3937
     3.4595   3.5081   3.5668   3.6206   5.0410   5.1912   5.3722   5.5265
     5.6505   5.7554   5.8774   5.9800   6.0687   6.1198   6.2009   6.2194
     6.4682   6.6001   6.6416   6.6864   6.7984   6.8916   6.9048   6.9622
     6.9964   7.2784   7.4085   7.4662   7.4914   7.5236   7.7629   7.7969
     8.0907   8.2637   8.2823   8.3082   8.4444   8.4625   8.7236   9.0318
     9.4294   9.5962  10.1016  10.7415  10.8754  10.9528  11.2465  11.2583
    11.5669  11.5807  11.7645  11.7980  11.9293  11.9727  12.0591  12.0683
    12.1000  12.1727  12.1819  12.1992  12.3279  12.4362  12.5623  12.6117
    12.6258  12.6788  12.7141  12.7580  12.8093  12.8477  13.0533  13.0754
    13.2963  13.3319

          k = 0.4000 0.0000 0.0000 ( 38974 PWs)   bands (ev):

   -43.0654 -43.0653 -43.0649 -43.0648 -43.0636 -43.0635 -43.0632 -43.0630
   -43.0603 -43.0603 -43.0586 -43.0585 -43.0536 -43.0535 -43.0520 -43.0520
   -43.0519 -43.0518 -43.0504 -43.0504 -43.0349 -43.0348 -43.0345 -43.0343
   -43.0315 -43.0313 -43.0310 -43.0308 -43.0298 -43.0297 -43.0264 -43.0263
   -43.0235 -43.0234 -43.0225 -43.0224 -43.0221 -43.0220 -43.0217 -43.0216
   -43.0198 -43.0197 -43.0179 -43.0179 -43.0170 -43.0170 -43.0106 -43.0105
   -43.0091 -43.0091 -42.9581 -42.9580 -42.9562 -42.9561 -42.9210 -42.9208
   -42.9168 -42.9167 -42.9055 -42.9054 -17.0273 -17.0259 -17.0250 -17.0249
   -17.0221 -17.0220 -17.0186 -17.0186 -17.0087 -17.0063 -17.0051 -17.0044
   -17.0026 -17.0025 -16.9988 -16.9988 -16.9944 -16.9934 -16.9934 -16.9932
   -16.9923 -16.9922 -16.9899 -16.9875 -16.9842 -16.9841 -16.9811 -16.9805
   -16.9787 -16.9775 -16.9771 -16.9753 -16.9748 -16.9723 -16.9703 -16.9701
   -16.9686 -16.9686 -16.9669 -16.9669 -16.9556 -16.9555 -16.9510 -16.9490
   -16.9483 -16.9474 -16.9468 -16.9468 -16.9453 -16.9452 -16.9439 -16.9438
   -16.9333 -16.9332 -16.9289 -16.9289 -16.9143 -16.9143 -16.9111 -16.9110
    -8.5785  -8.5521  -8.5182  -8.4816  -8.4402  -8.4344  -8.1616  -8.1361
    -8.1133  -8.0997  -8.0490  -8.0490  -3.2756  -3.1963  -3.0839  -2.9566
    -2.8424  -2.7750  -2.7276  -2.6567  -2.5605  -2.4578  -2.3730  -2.3353
     0.5938   0.7945   1.0679   1.1912   1.2894   1.3547   1.3946   1.4788
     1.5362   1.5413   1.6092   1.7592   1.8393   1.9710   2.0603   2.1499
     2.1703   2.2236   2.2411   2.2635   2.3473   2.4264   2.5358   2.6526
     2.8061   2.8283   2.9059   3.0399   3.2021   3.2623   3.3359   3.3424
     3.3934   3.4187   3.4617   3.4982   5.1111   5.2449   5.3964   5.5084
     5.5886   5.6688   5.8509   5.8532   6.0018   6.0038   6.1038   6.1095
     6.4000   6.5374   6.5783   6.6295   6.6944   6.7982   6.8815   6.8960
     6.9283   7.1662   7.2751   7.3439   7.3576   7.3939   7.6893   7.7375
     8.0690   8.1427   8.2038   8.2060   8.3836   8.5028   8.6708   8.9876
     9.5749   9.7190  10.2147  10.7671  10.9810  10.9888  11.2874  11.3289
    11.4962  11.5382  11.8001  11.8048  11.9350  12.1200  12.1651  12.2406
    12.2778  12.3203  12.3990  12.4418  12.5403  12.5747  12.5883  12.6331
    12.7188  12.7439  12.7823  12.8314  12.8826  12.9572  13.0023  13.0475
    13.2708  13.5012

          k = 0.4250 0.0000 0.0000 ( 39000 PWs)   bands (ev):

   -43.0655 -43.0653 -43.0650 -43.0648 -43.0637 -43.0636 -43.0632 -43.0630
   -43.0604 -43.0603 -43.0586 -43.0586 -43.0537 -43.0536 -43.0521 -43.0520
   -43.0520 -43.0519 -43.0505 -43.0505 -43.0349 -43.0348 -43.0345 -43.0343
   -43.0315 -43.0313 -43.0310 -43.0309 -43.0297 -43.0297 -43.0264 -43.0263
   -43.0235 -43.0234 -43.0225 -43.0224 -43.0221 -43.0220 -43.0217 -43.0216
   -43.0198 -43.0197 -43.0179 -43.0179 -43.0170 -43.0170 -43.0106 -43.0105
   -43.0091 -43.0091 -42.9581 -42.9580 -42.9563 -42.9562 -42.9209 -42.9208
   -42.9168 -42.9167 -42.9055 -42.9054 -17.0275 -17.0262 -17.0257 -17.0254
   -17.0226 -17.0225 -17.0190 -17.0190 -17.0077 -17.0055 -17.0050 -17.0039
   -17.0020 -17.0019 -16.9984 -16.9983 -16.9944 -16.9939 -16.9939 -16.9934
   -16.9921 -16.9918 -16.9901 -16.9881 -16.9844 -16.9843 -16.9807 -16.9803
   -16.9783 -16.9775 -16.9771 -16.9748 -16.9743 -16.9734 -16.9711 -16.9709
   -16.9682 -16.9682 -16.9666 -16.9665 -16.9554 -16.9554 -16.9503 -16.9484
   -16.9479 -16.9475 -16.9467 -16.9467 -16.9453 -16.9453 -16.9442 -16.9441
   -16.9336 -16.9335 -16.9290 -16.9290 -16.9139 -16.9139 -16.9109 -16.9108
    -8.5066  -8.4830  -8.4534  -8.4223  -8.3832  -8.3794  -8.1781  -8.1605
    -8.1464  -8.1407  -8.0792  -8.0791  -3.2607  -3.1817  -3.0706  -2.9459
    -2.8480  -2.8355  -2.7738  -2.7701  -2.6737  -2.5661  -2.4761  -2.4331
     0.7015   0.8985   1.1648   1.1829   1.3013   1.4284   1.4388   1.5267
     1.5893   1.5990   1.6667   1.7834   1.8560   1.9739   2.1517   2.1539
     2.1840   2.2061   2.2227   2.2286   2.3429   2.4323   2.5303   2.6442
     2.8571   2.8660   2.9491   3.0388   3.1950   3.2325   3.2835   3.2866
     3.3314   3.3329   3.3629   3.3873   5.1998   5.3225   5.4489   5.5186
     5.5527   5.6029   5.7444   5.7944   5.8881   5.9286   5.9996   6.0112
     6.3478   6.4912   6.4975   6.6099   6.6275   6.7333   6.8330   6.8521
     6.8898   7.0455   7.1614   7.2322   7.2645   7.2900   7.6286   7.7461
     7.9916   8.0141   8.1245   8.1853   8.3463   8.5566   8.6168   8.9367
     9.7254   9.8441  10.3235  10.7492  10.9797  11.1016  11.2631  11.3535
    11.5260  11.5390  11.8105  11.8162  11.8624  12.0254  12.0820  12.1430
    12.2701  12.3306  12.5004  12.6472  12.6737  12.7403  12.7979  12.8408
    12.8605  12.9038  12.9438  12.9941  13.0006  13.0309  13.1595  13.2116
    13.3236  13.6042

          k = 0.4500 0.0000 0.0000 ( 39018 PWs)   bands (ev):

   -43.0655 -43.0654 -43.0650 -43.0648 -43.0637 -43.0636 -43.0633 -43.0631
   -43.0604 -43.0604 -43.0587 -43.0586 -43.0537 -43.0536 -43.0521 -43.0520
   -43.0520 -43.0519 -43.0505 -43.0505 -43.0349 -43.0348 -43.0345 -43.0343
   -43.0315 -43.0313 -43.0310 -43.0309 -43.0297 -43.0297 -43.0264 -43.0263
   -43.0235 -43.0234 -43.0225 -43.0224 -43.0221 -43.0220 -43.0217 -43.0216
   -43.0198 -43.0197 -43.0179 -43.0179 -43.0171 -43.0170 -43.0106 -43.0105
   -43.0091 -43.0091 -42.9581 -42.9580 -42.9563 -42.9562 -42.9209 -42.9208
   -42.9168 -42.9167 -42.9055 -42.9054 -17.0276 -17.0266 -17.0261 -17.0257
   -17.0230 -17.0229 -17.0193 -17.0193 -17.0069 -17.0050 -17.0048 -17.0037
   -17.0015 -17.0014 -16.9981 -16.9981 -16.9943 -16.9943 -16.9942 -16.9936
   -16.9918 -16.9913 -16.9904 -16.9887 -16.9846 -16.9845 -16.9803 -16.9801
   -16.9779 -16.9775 -16.9770 -16.9745 -16.9742 -16.9739 -16.9719 -16.9716
   -16.9677 -16.9677 -16.9664 -16.9663 -16.9553 -16.9553 -16.9496 -16.9480
   -16.9477 -16.9475 -16.9466 -16.9466 -16.9454 -16.9453 -16.9444 -16.9443
   -16.9338 -16.9337 -16.9290 -16.9290 -16.9136 -16.9136 -16.9108 -16.9107
    -8.4361  -8.4158  -8.3911  -8.3666  -8.3304  -8.3283  -8.2020  -8.1939
    -8.1873  -8.1872  -8.1122  -8.1121  -3.2309  -3.1524  -3.0426  -2.9555
    -2.9199  -2.8804  -2.8114  -2.7778  -2.7472  -2.6626  -2.5683  -2.5211
     0.8084   1.0003   1.1476   1.2555   1.2889   1.4451   1.5109   1.5663
     1.6390   1.6543   1.7058   1.7900   1.8874   1.9858   2.1217   2.1411
     2.1663   2.2068   2.2462   2.2486   2.3392   2.4490   2.5254   2.6107
     2.9138   2.9185   3.0021   3.0428   3.1786   3.2013   3.2111   3.2226
     3.2678   3.2790   3.2959   3.3062   5.2992   5.4154   5.5200   5.5416
     5.5451   5.5730   5.6601   5.7128   5.7874   5.8404   5.8935   5.9164
     6.3227   6.4365   6.4630   6.5640   6.6017   6.7048   6.7771   6.8192
     6.8817   6.9328   7.0555   7.1262   7.2269   7.2356   7.6162   7.7613
     7.8958   7.9049   8.0725   8.1587   8.3513   8.5542   8.6240   8.8800
     9.8743   9.9627  10.4139  10.6787  10.9432  11.1594  11.2377  11.4477
    11.5484  11.6089  11.7888  11.8145  11.8908  11.8996  11.9302  12.0745
    12.1302  12.3214  12.4987  12.5019  12.6056  12.8916  12.9662  13.0211
    13.0441  13.0935  13.1702  13.1711  13.2662  13.2700  13.3146  13.3867
    13.4406  13.5790

          k = 0.4750 0.0000 0.0000 ( 39008 PWs)   bands (ev):

   -43.0654 -43.0653 -43.0650 -43.0648 -43.0637 -43.0636 -43.0633 -43.0631
   -43.0604 -43.0604 -43.0587 -43.0586 -43.0537 -43.0536 -43.0521 -43.0520
   -43.0520 -43.0519 -43.0505 -43.0505 -43.0349 -43.0348 -43.0345 -43.0343
   -43.0314 -43.0313 -43.0310 -43.0309 -43.0297 -43.0297 -43.0264 -43.0264
   -43.0235 -43.0234 -43.0225 -43.0224 -43.0221 -43.0220 -43.0217 -43.0216
   -43.0198 -43.0197 -43.0179 -43.0178 -43.0170 -43.0170 -43.0106 -43.0105
   -43.0091 -43.0091 -42.9581 -42.9580 -42.9563 -42.9562 -42.9209 -42.9208
   -42.9168 -42.9167 -42.9055 -42.9054 -17.0276 -17.0270 -17.0262 -17.0260
   -17.0232 -17.0232 -17.0195 -17.0195 -17.0062 -17.0052 -17.0042 -17.0037
   -17.0011 -17.0011 -16.9980 -16.9979 -16.9945 -16.9944 -16.9942 -16.9938
   -16.9915 -16.9909 -16.9905 -16.9893 -16.9848 -16.9847 -16.9801 -16.9800
   -16.9777 -16.9775 -16.9766 -16.9752 -16.9738 -16.9734 -16.9726 -16.9722
   -16.9675 -16.9674 -16.9663 -16.9662 -16.9553 -16.9552 -16.9490 -16.9481
   -16.9476 -16.9474 -16.9465 -16.9465 -16.9454 -16.9454 -16.9446 -16.9445
   -16.9339 -16.9338 -16.9291 -16.9290 -16.9134 -16.9134 -16.9107 -16.9106
    -8.3682  -8.3517  -8.3327  -8.3157  -8.2862  -8.2853  -8.2444  -8.2378
    -8.2310  -8.2306  -8.1443  -8.1442  -3.1856  -3.1078  -3.0472  -3.0010
    -2.9689  -2.8861  -2.8574  -2.7807  -2.7405  -2.7151  -2.6471  -2.5976
     0.9113   1.0858   1.0969   1.2461   1.3375   1.4366   1.5637   1.5901
     1.6803   1.7006   1.7252   1.7787   1.9341   2.0126   2.0568   2.1032
     2.1480   2.1801   2.2725   2.3155   2.3442   2.4604   2.5276   2.5607
     2.9738   2.9871   3.0560   3.0583   3.1317   3.1357   3.1462   3.1687
     3.2264   3.2303   3.2740   3.2746   5.4038   5.5113   5.5382   5.5415
     5.6111   5.6153   5.6173   5.6182   5.7091   5.7382   5.7976   5.8172
     6.3252   6.3901   6.4565   6.5218   6.5945   6.6839   6.7269   6.8344
     6.8406   6.9038   6.9623   7.0320   7.2208   7.2214   7.6438   7.7600
     7.8061   7.8373   8.0571   8.1161   8.3892   8.4974   8.6882   8.8187
    10.0055  10.0552  10.4670  10.5790  10.9336  11.0662  11.3835  11.5504
    11.6057  11.6310  11.7182  11.7570  11.7926  11.8949  11.9191  12.0648
    12.0723  12.1998  12.3766  12.4123  12.6906  12.9549  13.0236  13.0582
    13.1904  13.2286  13.2666  13.3062  13.3895  13.4164  13.4320  13.4792
    13.5950  13.6238

          k = 0.5000 0.0000 0.0000 ( 39038 PWs)   bands (ev):

   -43.0655 -43.0654 -43.0650 -43.0648 -43.0638 -43.0637 -43.0633 -43.0631
   -43.0604 -43.0604 -43.0587 -43.0587 -43.0537 -43.0536 -43.0521 -43.0521
   -43.0521 -43.0520 -43.0506 -43.0505 -43.0349 -43.0348 -43.0345 -43.0343
   -43.0314 -43.0314 -43.0311 -43.0309 -43.0297 -43.0297 -43.0264 -43.0264
   -43.0235 -43.0234 -43.0225 -43.0225 -43.0221 -43.0221 -43.0217 -43.0216
   -43.0198 -43.0197 -43.0179 -43.0179 -43.0170 -43.0170 -43.0107 -43.0106
   -43.0091 -43.0091 -42.9582 -42.9581 -42.9564 -42.9562 -42.9209 -42.9208
   -42.9168 -42.9167 -42.9055 -42.9054 -17.0274 -17.0274 -17.0262 -17.0261
   -17.0233 -17.0233 -17.0196 -17.0195 -17.0056 -17.0056 -17.0039 -17.0038
   -17.0010 -17.0010 -16.9979 -16.9978 -16.9945 -16.9945 -16.9940 -16.9940
   -16.9912 -16.9912 -16.9900 -16.9900 -16.9848 -16.9847 -16.9801 -16.9800
   -16.9776 -16.9775 -16.9760 -16.9760 -16.9733 -16.9733 -16.9728 -16.9728
   -16.9674 -16.9673 -16.9663 -16.9662 -16.9553 -16.9552 -16.9485 -16.9485
   -16.9474 -16.9473 -16.9465 -16.9465 -16.9455 -16.9454 -16.9446 -16.9445
   -16.9339 -16.9338 -16.9291 -16.9290 -16.9134 -16.9134 -16.9107 -16.9106
    -8.3040  -8.3040  -8.2923  -8.2923  -8.2803  -8.2802  -8.2700  -8.2700
    -8.2633  -8.2633  -8.1611  -8.1610  -3.1245  -3.1245  -3.0473  -3.0473
    -2.9402  -2.9402  -2.8219  -2.8218  -2.7184  -2.7184  -2.6597  -2.6597
     1.0058   1.0058   1.1802   1.1802   1.3996   1.3996   1.5907   1.5907
     1.7067   1.7067   1.7520   1.7520   1.9920   1.9920   2.0543   2.0543
     2.1574   2.1574   2.2955   2.2955   2.4219   2.4219   2.5336   2.5336
     3.0394   3.0395   3.0597   3.0598   3.0999   3.1000   3.1212   3.1212
     3.2120   3.2120   3.2688   3.2689   5.5090   5.5090   5.5333   5.5333
     5.6229   5.6230   5.6316   5.6316   5.7100   5.7100   5.7213   5.7214
     6.3505   6.3505   6.4798   6.4798   6.6259   6.6259   6.7651   6.7651
     6.8855   6.8855   6.9576   6.9576   7.2212   7.2212   7.6999   7.6999
     7.8002   7.8002   8.0766   8.0766   8.4408   8.4408   8.7541   8.7541
    10.0791  10.0792  10.5025  10.5028  10.9820  10.9821  11.5383  11.5383
    11.6388  11.6390  11.6737  11.6738  11.7971  11.7972  12.0490  12.0490
    12.0947  12.0948  12.3352  12.3352  12.8351  12.8351  13.0776  13.0777
    13.2629  13.2629  13.3052  13.3052  13.4420  13.4420  13.4660  13.4661
    13.6719  13.6719

          k = 0.5000 0.0219 0.0000 ( 39052 PWs)   bands (ev):

   -43.0655 -43.0654 -43.0650 -43.0648 -43.0638 -43.0637 -43.0633 -43.0632
   -43.0604 -43.0604 -43.0587 -43.0587 -43.0537 -43.0536 -43.0521 -43.0521
   -43.0521 -43.0520 -43.0506 -43.0506 -43.0349 -43.0349 -43.0345 -43.0344
   -43.0314 -43.0314 -43.0310 -43.0309 -43.0298 -43.0298 -43.0264 -43.0264
   -43.0235 -43.0234 -43.0225 -43.0225 -43.0222 -43.0221 -43.0218 -43.0216
   -43.0198 -43.0197 -43.0179 -43.0179 -43.0171 -43.0171 -43.0107 -43.0106
   -43.0091 -43.0091 -42.9581 -42.9580 -42.9564 -42.9563 -42.9210 -42.9209
   -42.9168 -42.9167 -42.9055 -42.9054 -17.0274 -17.0274 -17.0262 -17.0261
   -17.0233 -17.0233 -17.0196 -17.0196 -17.0056 -17.0056 -17.0039 -17.0038
   -17.0010 -17.0010 -16.9979 -16.9979 -16.9945 -16.9945 -16.9940 -16.9940
   -16.9912 -16.9912 -16.9900 -16.9899 -16.9849 -16.9848 -16.9801 -16.9800
   -16.9776 -16.9775 -16.9760 -16.9760 -16.9733 -16.9733 -16.9728 -16.9728
   -16.9674 -16.9673 -16.9663 -16.9662 -16.9553 -16.9552 -16.9485 -16.9485
   -16.9474 -16.9473 -16.9465 -16.9465 -16.9455 -16.9454 -16.9446 -16.9445
   -16.9339 -16.9338 -16.9291 -16.9290 -16.9134 -16.9134 -16.9107 -16.9106
    -8.3031  -8.3031  -8.2914  -8.2914  -8.2794  -8.2793  -8.2692  -8.2692
    -8.2625  -8.2625  -8.1603  -8.1602  -3.1218  -3.1218  -3.0448  -3.0448
    -2.9378  -2.9378  -2.8198  -2.8198  -2.7167  -2.7167  -2.6581  -2.6581
     1.0017   1.0017   1.1735   1.1735   1.3881   1.3881   1.5736   1.5736
     1.6874   1.6874   1.7344   1.7344   1.9645   1.9645   2.0321   2.0321
     2.1450   2.1450   2.2960   2.2960   2.4357   2.4357   2.5383   2.5384
     3.0405   3.0405   3.0548   3.0548   3.0870   3.0870   3.1213   3.1213
     3.2202   3.2202   3.2745   3.2746   5.4571   5.4571   5.5695   5.5696
     5.5994   5.5994   5.6627   5.6627   5.7007   5.7007   5.7305   5.7306
     6.3722   6.3722   6.5041   6.5041   6.6573   6.6573   6.8035   6.8035
     6.9261   6.9261   6.9972   6.9972   7.2266   7.2267   7.7084   7.7084
     7.8047   7.8048   8.0764   8.0764   8.4369   8.4369   8.7476   8.7476
    10.0801  10.0802  10.5046  10.5048  10.9797  10.9797  11.4125  11.4125
    11.5635  11.5636  11.7885  11.7886  11.8393  11.8394  11.9970  11.9970
    12.1361  12.1362  12.3655  12.3655  12.8329  12.8329  13.0781  13.0781
    13.2220  13.2220  13.3361  13.3361  13.4255  13.4256  13.5045  13.5045
    13.6710  13.6710

          k = 0.5000 0.0439 0.0000 ( 39068 PWs)   bands (ev):

   -43.0655 -43.0654 -43.0650 -43.0648 -43.0638 -43.0637 -43.0633 -43.0632
   -43.0604 -43.0604 -43.0587 -43.0587 -43.0537 -43.0536 -43.0521 -43.0521
   -43.0521 -43.0520 -43.0506 -43.0506 -43.0350 -43.0349 -43.0346 -43.0344
   -43.0314 -43.0314 -43.0310 -43.0309 -43.0298 -43.0298 -43.0264 -43.0264
   -43.0236 -43.0235 -43.0225 -43.0225 -43.0222 -43.0221 -43.0218 -43.0216
   -43.0198 -43.0197 -43.0179 -43.0179 -43.0171 -43.0171 -43.0107 -43.0106
   -43.0092 -43.0092 -42.9582 -42.9580 -42.9564 -42.9563 -42.9210 -42.9209
   -42.9168 -42.9167 -42.9055 -42.9054 -17.0275 -17.0275 -17.0263 -17.0262
   -17.0234 -17.0234 -17.0197 -17.0197 -17.0056 -17.0056 -17.0039 -17.0038
   -17.0010 -17.0010 -16.9980 -16.9979 -16.9946 -16.9946 -16.9940 -16.9940
   -16.9911 -16.9911 -16.9899 -16.9899 -16.9849 -16.9848 -16.9800 -16.9800
   -16.9776 -16.9776 -16.9760 -16.9760 -16.9732 -16.9732 -16.9727 -16.9727
   -16.9674 -16.9673 -16.9663 -16.9662 -16.9552 -16.9552 -16.9486 -16.9485
   -16.9474 -16.9473 -16.9465 -16.9464 -16.9455 -16.9454 -16.9445 -16.9444
   -16.9339 -16.9338 -16.9291 -16.9290 -16.9134 -16.9134 -16.9107 -16.9106
    -8.3004  -8.3004  -8.2887  -8.2887  -8.2768  -8.2768  -8.2667  -8.2667
    -8.2600  -8.2600  -8.1578  -8.1577  -3.1138  -3.1138  -3.0372  -3.0372
    -2.9309  -2.9309  -2.8137  -2.8136  -2.7113  -2.7113  -2.6534  -2.6533
     0.9887   0.9887   1.1529   1.1529   1.3535   1.3535   1.5238   1.5238
     1.6292   1.6292   1.6833   1.6833   1.9028   1.9028   1.9788   1.9788
     2.1120   2.1120   2.2898   2.2898   2.4556   2.4556   2.5479   2.5479
     3.0289   3.0289   3.0321   3.0321   3.0614   3.0614   3.1314   3.1314
     3.2344   3.2345   3.2973   3.2974   5.3904   5.3904   5.5343   5.5343
     5.6554   5.6554   5.6751   5.6751   5.7160   5.7160   5.7522   5.7522
     6.4407   6.4407   6.5786   6.5786   6.7466   6.7466   6.9071   6.9072
     7.0347   7.0347   7.1040   7.1040   7.2448   7.2448   7.7352   7.7352
     7.8197   7.8197   8.0766   8.0766   8.4257   8.4257   8.7286   8.7286
    10.0830  10.0831  10.5105  10.5107  10.9694  10.9694  11.2508  11.2508
    11.4325  11.4326  11.8048  11.8050  11.8915  11.8915  12.0181  12.0181
    12.2085  12.2085  12.4109  12.4109  12.8460  12.8461  13.0744  13.0744
    13.1455  13.1455  13.3810  13.3811  13.4458  13.4458  13.5487  13.5487
    13.6808  13.6808

          k = 0.5000 0.0658 0.0000 ( 39064 PWs)   bands (ev):

   -43.0654 -43.0653 -43.0650 -43.0648 -43.0638 -43.0637 -43.0633 -43.0632
   -43.0604 -43.0604 -43.0587 -43.0587 -43.0537 -43.0536 -43.0521 -43.0520
   -43.0520 -43.0520 -43.0506 -43.0506 -43.0350 -43.0349 -43.0346 -43.0345
   -43.0314 -43.0313 -43.0310 -43.0309 -43.0299 -43.0298 -43.0264 -43.0264
   -43.0236 -43.0235 -43.0226 -43.0226 -43.0222 -43.0221 -43.0218 -43.0216
   -43.0198 -43.0197 -43.0179 -43.0179 -43.0171 -43.0171 -43.0107 -43.0106
   -43.0091 -43.0091 -42.9581 -42.9580 -42.9564 -42.9563 -42.9210 -42.9209
   -42.9168 -42.9167 -42.9055 -42.9054 -17.0277 -17.0277 -17.0265 -17.0264
   -17.0236 -17.0236 -17.0199 -17.0198 -17.0057 -17.0057 -17.0039 -17.0038
   -17.0010 -17.0010 -16.9981 -16.9980 -16.9947 -16.9947 -16.9939 -16.9939
   -16.9911 -16.9911 -16.9898 -16.9898 -16.9851 -16.9850 -16.9799 -16.9799
   -16.9777 -16.9776 -16.9760 -16.9760 -16.9731 -16.9731 -16.9725 -16.9725
   -16.9674 -16.9673 -16.9663 -16.9663 -16.9552 -16.9552 -16.9486 -16.9486
   -16.9474 -16.9473 -16.9464 -16.9464 -16.9454 -16.9454 -16.9444 -16.9443
   -16.9339 -16.9338 -16.9291 -16.9290 -16.9134 -16.9134 -16.9107 -16.9106
    -8.2959  -8.2959  -8.2844  -8.2844  -8.2726  -8.2726  -8.2626  -8.2626
    -8.2560  -8.2560  -8.1538  -8.1537  -3.1005  -3.1005  -3.0246  -3.0246
    -2.9194  -2.9194  -2.8035  -2.8035  -2.7025  -2.7025  -2.6455  -2.6455
     0.9652   0.9652   1.1169   1.1169   1.2966   1.2966   1.4458   1.4458
     1.5354   1.5354   1.6066   1.6066   1.8340   1.8340   1.9139   1.9139
     2.0667   2.0667   2.2690   2.2691   2.4542   2.4542   2.5474   2.5475
     2.9698   2.9698   2.9985   2.9985   3.0509   3.0510   3.1410   3.1411
     3.2519   3.2520   3.3393   3.3394   5.3248   5.3248   5.4962   5.4962
     5.6664   5.6665   5.7495   5.7495   5.7586   5.7586   5.8079   5.8079
     6.5570   6.5570   6.6995   6.6995   6.8799   6.8800   7.0521   7.0521
     7.1798   7.1798   7.2456   7.2457   7.2927   7.2928   7.7845   7.7845
     7.8490   7.8490   8.0798   8.0798   8.4086   8.4086   8.6985   8.6985
    10.0874  10.0875  10.5193  10.5195  10.9359  10.9359  11.1188  11.1188
    11.2963  11.2964  11.7442  11.7443  11.8284  11.8286  12.1830  12.1830
    12.2422  12.2422  12.4484  12.4484  12.8807  12.8807  13.0535  13.0536
    13.1055  13.1055  13.3971  13.3971  13.5130  13.5131  13.5906  13.5906
    13.7145  13.7146

          k = 0.5000 0.0878 0.0000 ( 39076 PWs)   bands (ev):

   -43.0654 -43.0653 -43.0650 -43.0648 -43.0638 -43.0637 -43.0633 -43.0632
   -43.0604 -43.0604 -43.0587 -43.0587 -43.0537 -43.0536 -43.0521 -43.0521
   -43.0520 -43.0520 -43.0506 -43.0506 -43.0350 -43.0349 -43.0346 -43.0345
   -43.0314 -43.0313 -43.0310 -43.0309 -43.0299 -43.0299 -43.0264 -43.0264
   -43.0236 -43.0235 -43.0226 -43.0226 -43.0222 -43.0221 -43.0218 -43.0216
   -43.0198 -43.0197 -43.0179 -43.0179 -43.0171 -43.0171 -43.0107 -43.0106
   -43.0092 -43.0092 -42.9581 -42.9580 -42.9564 -42.9563 -42.9211 -42.9209
   -42.9168 -42.9167 -42.9055 -42.9054 -17.0280 -17.0280 -17.0267 -17.0266
   -17.0238 -17.0238 -17.0201 -17.0200 -17.0057 -17.0057 -17.0039 -17.0038
   -17.0010 -17.0010 -16.9982 -16.9982 -16.9948 -16.9948 -16.9938 -16.9938
   -16.9910 -16.9910 -16.9897 -16.9897 -16.9853 -16.9852 -16.9798 -16.9798
   -16.9777 -16.9777 -16.9759 -16.9759 -16.9730 -16.9730 -16.9723 -16.9723
   -16.9673 -16.9673 -16.9664 -16.9663 -16.9552 -16.9552 -16.9487 -16.9486
   -16.9473 -16.9472 -16.9463 -16.9463 -16.9454 -16.9454 -16.9442 -16.9441
   -16.9338 -16.9337 -16.9290 -16.9290 -16.9134 -16.9134 -16.9107 -16.9106
    -8.2898  -8.2898  -8.2784  -8.2784  -8.2668  -8.2668  -8.2570  -8.2570
    -8.2505  -8.2505  -8.1483  -8.1482  -3.0820  -3.0820  -3.0072  -3.0072
    -2.9035  -2.9035  -2.7896  -2.7896  -2.6905  -2.6905  -2.6348  -2.6348
     0.9284   0.9284   1.0638   1.0638   1.2195   1.2195   1.3473   1.3473
     1.4194   1.4194   1.5137   1.5137   1.7656   1.7656   1.8474   1.8474
     2.0152   2.0152   2.2333   2.2334   2.4258   2.4258   2.5198   2.5199
     2.8972   2.8972   2.9486   2.9486   3.0290   3.0290   3.1420   3.1421
     3.2747   3.2747   3.3900   3.3900   5.2729   5.2729   5.4757   5.4758
     5.6861   5.6862   5.8207   5.8207   5.8617   5.8617   5.9070   5.9070
     6.7125   6.7125   6.8533   6.8533   7.0373   7.0373   7.2067   7.2067
     7.2963   7.2964   7.3837   7.3837   7.4379   7.4379   7.8650   7.8650
     7.9013   7.9013   8.0919   8.0919   8.3890   8.3890   8.6597   8.6597
    10.0927  10.0928  10.5286  10.5288  10.8529  10.8529  11.0442  11.0442
    11.1740  11.1740  11.6477  11.6477  11.7945  11.7947  12.1920  12.1921
    12.3276  12.3276  12.4586  12.4587  12.9054  12.9054  13.0565  13.0565
    13.1319  13.1319  13.4148  13.4148  13.5597  13.5597  13.6656  13.6656
    13.7570  13.7570

          k = 0.5000 0.1097 0.0000 ( 39080 PWs)   bands (ev):

   -43.0654 -43.0653 -43.0649 -43.0648 -43.0638 -43.0637 -43.0633 -43.0632
   -43.0603 -43.0603 -43.0587 -43.0587 -43.0537 -43.0536 -43.0521 -43.0520
   -43.0520 -43.0520 -43.0506 -43.0506 -43.0350 -43.0349 -43.0346 -43.0345
   -43.0314 -43.0313 -43.0310 -43.0308 -43.0299 -43.0299 -43.0264 -43.0264
   -43.0236 -43.0235 -43.0226 -43.0226 -43.0222 -43.0221 -43.0218 -43.0216
   -43.0198 -43.0197 -43.0179 -43.0179 -43.0171 -43.0171 -43.0107 -43.0106
   -43.0092 -43.0092 -42.9581 -42.9580 -42.9564 -42.9563 -42.9211 -42.9209
   -42.9168 -42.9167 -42.9056 -42.9055 -17.0283 -17.0283 -17.0269 -17.0269
   -17.0241 -17.0241 -17.0204 -17.0203 -17.0058 -17.0058 -17.0039 -17.0039
   -17.0010 -17.0010 -16.9984 -16.9984 -16.9949 -16.9949 -16.9937 -16.9937
   -16.9909 -16.9909 -16.9896 -16.9896 -16.9855 -16.9854 -16.9797 -16.9796
   -16.9778 -16.9777 -16.9758 -16.9758 -16.9729 -16.9728 -16.9721 -16.9720
   -16.9673 -16.9673 -16.9664 -16.9663 -16.9552 -16.9551 -16.9487 -16.9487
   -16.9473 -16.9472 -16.9462 -16.9462 -16.9454 -16.9453 -16.9440 -16.9439
   -16.9338 -16.9337 -16.9290 -16.9290 -16.9134 -16.9134 -16.9107 -16.9106
    -8.2821  -8.2821  -8.2709  -8.2709  -8.2596  -8.2596  -8.2501  -8.2501
    -8.2436  -8.2436  -8.1415  -8.1414  -3.0587  -3.0587  -2.9851  -2.9851
    -2.8835  -2.8835  -2.7721  -2.7720  -2.6754  -2.6754  -2.6214  -2.6214
     0.8746   0.8746   0.9922   0.9922   1.1260   1.1260   1.2378   1.2378
     1.2973   1.2973   1.4115   1.4115   1.6974   1.6974   1.7816   1.7816
     1.9593   1.9593   2.1841   2.1841   2.3739   2.3739   2.4598   2.4598
     2.8210   2.8210   2.8853   2.8854   2.9925   2.9925   3.1335   3.1335
     3.2951   3.2951   3.4353   3.4353   5.2484   5.2484   5.4833   5.4833
     5.7352   5.7352   5.9144   5.9144   5.9974   5.9974   6.0453   6.0453
     6.8940   6.8940   7.0198   7.0198   7.1895   7.1896   7.3265   7.3266
     7.4239   7.4240   7.5425   7.5425   7.6106   7.6106   7.9859   7.9860
     7.9904   7.9904   8.1256   8.1256   8.3736   8.3736   8.6169   8.6169
    10.0979  10.0979  10.5325  10.5327  10.7455  10.7456  10.9949  10.9949
    11.0850  11.0851  11.5634  11.5635  11.7559  11.7561  12.1374  12.1375
    12.3441  12.3441  12.4401  12.4402  12.9409  12.9409  13.0814  13.0814
    13.2217  13.2217  13.4195  13.4195  13.6257  13.6258  13.7320  13.7320
    13.8023  13.8024

          k = 0.5000 0.1317 0.0000 ( 39058 PWs)   bands (ev):

   -43.0654 -43.0653 -43.0649 -43.0647 -43.0638 -43.0637 -43.0633 -43.0632
   -43.0603 -43.0603 -43.0587 -43.0587 -43.0536 -43.0535 -43.0521 -43.0520
   -43.0520 -43.0520 -43.0506 -43.0506 -43.0350 -43.0349 -43.0346 -43.0344
   -43.0314 -43.0313 -43.0310 -43.0308 -43.0298 -43.0298 -43.0263 -43.0263
   -43.0236 -43.0235 -43.0225 -43.0225 -43.0222 -43.0221 -43.0218 -43.0216
   -43.0197 -43.0196 -43.0178 -43.0178 -43.0171 -43.0171 -43.0107 -43.0106
   -43.0092 -43.0092 -42.9580 -42.9579 -42.9564 -42.9563 -42.9210 -42.9209
   -42.9168 -42.9167 -42.9055 -42.9054 -17.0287 -17.0287 -17.0273 -17.0272
   -17.0244 -17.0244 -17.0207 -17.0206 -17.0059 -17.0058 -17.0039 -17.0039
   -17.0010 -17.0010 -16.9986 -16.9986 -16.9950 -16.9950 -16.9936 -16.9936
   -16.9907 -16.9907 -16.9894 -16.9894 -16.9858 -16.9857 -16.9795 -16.9794
   -16.9778 -16.9778 -16.9757 -16.9757 -16.9727 -16.9726 -16.9718 -16.9718
   -16.9673 -16.9673 -16.9665 -16.9664 -16.9552 -16.9551 -16.9488 -16.9488
   -16.9473 -16.9472 -16.9460 -16.9460 -16.9453 -16.9453 -16.9437 -16.9436
   -16.9337 -16.9336 -16.9290 -16.9290 -16.9134 -16.9134 -16.9107 -16.9106
    -8.2731  -8.2731  -8.2622  -8.2621  -8.2511  -8.2511  -8.2419  -8.2419
    -8.2355  -8.2355  -8.1334  -8.1333  -3.0306  -3.0306  -2.9587  -2.9587
    -2.8597  -2.8597  -2.7513  -2.7512  -2.6577  -2.6577  -2.6056  -2.6056
     0.8011   0.8011   0.9026   0.9026   1.0211   1.0211   1.1253   1.1254
     1.1806   1.1806   1.3049   1.3049   1.6287   1.6287   1.7151   1.7151
     1.8976   1.8976   2.1220   2.1220   2.3036   2.3036   2.3745   2.3745
     2.7432   2.7432   2.8143   2.8143   2.9466   2.9466   3.1171   3.1171
     3.3058   3.3058   3.4639   3.4639   5.2611   5.2611   5.5235   5.5235
     5.8146   5.8146   6.0379   6.0380   6.1574   6.1574   6.2152   6.2152
     7.0829   7.0830   7.1699   7.1699   7.3131   7.3131   7.4520   7.4520
     7.5642   7.5643   7.6822   7.6822   7.7837   7.7837   8.1197   8.1197
     8.1380   8.1380   8.2097   8.2097   8.3790   8.3790   8.5804   8.5804
    10.1016  10.1016  10.5150  10.5151  10.6578  10.6578  10.9353  10.9354
    11.0414  11.0414  11.5001  11.5002  11.7131  11.7133  12.0643  12.0645
    12.2756  12.2756  12.4123  12.4124  12.9535  12.9536  13.1641  13.1641
    13.2742  13.2742  13.4602  13.4602  13.6802  13.6802  13.7904  13.7904
    13.8576  13.8576

          k = 0.5000 0.1536 0.0000 ( 39028 PWs)   bands (ev):

   -43.0653 -43.0652 -43.0648 -43.0647 -43.0638 -43.0637 -43.0633 -43.0631
   -43.0602 -43.0602 -43.0587 -43.0587 -43.0536 -43.0535 -43.0521 -43.0520
   -43.0519 -43.0519 -43.0505 -43.0505 -43.0350 -43.0349 -43.0346 -43.0344
   -43.0313 -43.0312 -43.0309 -43.0308 -43.0298 -43.0298 -43.0263 -43.0263
   -43.0236 -43.0235 -43.0226 -43.0226 -43.0221 -43.0220 -43.0217 -43.0216
   -43.0197 -43.0196 -43.0178 -43.0178 -43.0170 -43.0170 -43.0106 -43.0105
   -43.0091 -43.0091 -42.9580 -42.9579 -42.9564 -42.9563 -42.9210 -42.9209
   -42.9167 -42.9166 -42.9055 -42.9054 -17.0291 -17.0291 -17.0276 -17.0275
   -17.0248 -17.0247 -17.0210 -17.0210 -17.0059 -17.0059 -17.0040 -17.0039
   -17.0010 -17.0010 -16.9989 -16.9988 -16.9952 -16.9951 -16.9935 -16.9934
   -16.9906 -16.9906 -16.9892 -16.9892 -16.9861 -16.9860 -16.9793 -16.9792
   -16.9779 -16.9779 -16.9756 -16.9756 -16.9725 -16.9724 -16.9715 -16.9714
   -16.9673 -16.9673 -16.9665 -16.9664 -16.9551 -16.9551 -16.9489 -16.9488
   -16.9472 -16.9471 -16.9459 -16.9459 -16.9452 -16.9452 -16.9434 -16.9433
   -16.9336 -16.9335 -16.9290 -16.9290 -16.9134 -16.9134 -16.9107 -16.9106
    -8.2629  -8.2629  -8.2522  -8.2522  -8.2416  -8.2415  -8.2327  -8.2327
    -8.2264  -8.2264  -8.1243  -8.1242  -2.9983  -2.9983  -2.9284  -2.9284
    -2.8324  -2.8324  -2.7276  -2.7276  -2.6376  -2.6376  -2.5877  -2.5877
     0.7082   0.7082   0.7987   0.7987   0.9098   0.9098   1.0151   1.0151
     1.0747   1.0747   1.1976   1.1977   1.5578   1.5578   1.6448   1.6448
     1.8276   1.8276   2.0476   2.0476   2.2204   2.2204   2.2764   2.2764
     2.6630   2.6630   2.7409   2.7410   2.8978   2.8978   3.0958   3.0958
     3.3046   3.3046   3.4709   3.4709   5.3138   5.3138   5.5953   5.5953
     5.9195   5.9195   6.1859   6.1859   6.3393   6.3394   6.4086   6.4086
     7.2223   7.2223   7.3136   7.3136   7.4308   7.4308   7.5762   7.5762
     7.6902   7.6902   7.8059   7.8059   7.9533   7.9534   8.2586   8.2586
     8.2864   8.2864   8.3509   8.3509   8.4527   8.4527   8.5879   8.5879
    10.1022  10.1023  10.4586  10.4587  10.6128  10.6129  10.8901  10.8902
    11.0184  11.0184  11.4567  11.4567  11.6722  11.6724  11.9778  11.9779
    12.1731  12.1731  12.3946  12.3948  12.9294  12.9294  13.2413  13.2413
    13.2802  13.2802  13.5279  13.5280  13.7023  13.7024  13.8719  13.8719
    13.9199  13.9199

          k = 0.5000 0.1756 0.0000 ( 39054 PWs)   bands (ev):

   -43.0653 -43.0652 -43.0648 -43.0646 -43.0638 -43.0637 -43.0633 -43.0632
   -43.0602 -43.0602 -43.0587 -43.0587 -43.0535 -43.0534 -43.0521 -43.0520
   -43.0519 -43.0519 -43.0506 -43.0506 -43.0351 -43.0350 -43.0347 -43.0345
   -43.0313 -43.0312 -43.0309 -43.0308 -43.0299 -43.0299 -43.0263 -43.0263
   -43.0237 -43.0236 -43.0226 -43.0226 -43.0222 -43.0221 -43.0218 -43.0216
   -43.0197 -43.0196 -43.0178 -43.0178 -43.0171 -43.0171 -43.0107 -43.0106
   -43.0092 -43.0092 -42.9580 -42.9578 -42.9564 -42.9563 -42.9211 -42.9210
   -42.9167 -42.9166 -42.9055 -42.9054 -17.0296 -17.0296 -17.0280 -17.0279
   -17.0252 -17.0251 -17.0214 -17.0213 -17.0060 -17.0060 -17.0040 -17.0039
   -17.0011 -17.0010 -16.9992 -16.9991 -16.9953 -16.9953 -16.9933 -16.9933
   -16.9904 -16.9904 -16.9891 -16.9891 -16.9865 -16.9864 -16.9791 -16.9790
   -16.9780 -16.9779 -16.9755 -16.9755 -16.9723 -16.9722 -16.9712 -16.9711
   -16.9673 -16.9673 -16.9666 -16.9665 -16.9551 -16.9551 -16.9489 -16.9489
   -16.9472 -16.9471 -16.9458 -16.9458 -16.9451 -16.9451 -16.9431 -16.9430
   -16.9335 -16.9334 -16.9290 -16.9289 -16.9134 -16.9134 -16.9107 -16.9106
    -8.2518  -8.2517  -8.2414  -8.2414  -8.2312  -8.2311  -8.2227  -8.2227
    -8.2165  -8.2165  -8.1144  -8.1143  -2.9621  -2.9621  -2.8945  -2.8945
    -2.8020  -2.8020  -2.7016  -2.7015  -2.6157  -2.6157  -2.5681  -2.5681
     0.6011   0.6011   0.6862   0.6862   0.7968   0.7968   0.9091   0.9091
     0.9794   0.9795   1.0926   1.0926   1.4820   1.4820   1.5673   1.5673
     1.7472   1.7472   1.9618   1.9618   2.1293   2.1293   2.1771   2.1771
     2.5803   2.5803   2.6706   2.6706   2.8522   2.8522   3.0733   3.0734
     3.2933   3.2933   3.4578   3.4578   5.4022   5.4022   5.6928   5.6928
     6.0422   6.0422   6.3499   6.3499   6.5378   6.5378   6.6190   6.6191
     7.2851   7.2852   7.4722   7.4723   7.5311   7.5311   7.6713   7.6713
     7.8131   7.8131   7.9221   7.9221   8.1163   8.1163   8.3763   8.3763
     8.3947   8.3947   8.5006   8.5006   8.6302   8.6302   8.7256   8.7256
    10.0983  10.0984  10.3884  10.3885  10.5898  10.5899  10.8748  10.8749
    11.0046  11.0046  11.4255  11.4255  11.6404  11.6405  11.8878  11.8878
    12.0622  12.0622  12.3932  12.3933  12.8947  12.8947  13.2047  13.2047
    13.3329  13.3329  13.5691  13.5692  13.6989  13.6990  13.9627  13.9627
    13.9931  13.9931

          k = 0.5000 0.1975 0.0000 ( 39056 PWs)   bands (ev):

   -43.0653 -43.0652 -43.0648 -43.0647 -43.0638 -43.0637 -43.0633 -43.0631
   -43.0602 -43.0602 -43.0587 -43.0587 -43.0535 -43.0534 -43.0521 -43.0520
   -43.0519 -43.0519 -43.0506 -43.0506 -43.0351 -43.0350 -43.0347 -43.0345
   -43.0313 -43.0312 -43.0309 -43.0308 -43.0299 -43.0299 -43.0263 -43.0263
   -43.0237 -43.0236 -43.0226 -43.0226 -43.0221 -43.0220 -43.0217 -43.0216
   -43.0197 -43.0196 -43.0178 -43.0178 -43.0170 -43.0170 -43.0106 -43.0105
   -43.0091 -43.0091 -42.9580 -42.9579 -42.9564 -42.9563 -42.9211 -42.9210
   -42.9167 -42.9166 -42.9055 -42.9054 -17.0301 -17.0301 -17.0284 -17.0283
   -17.0256 -17.0256 -17.0218 -17.0218 -17.0061 -17.0061 -17.0040 -17.0040
   -17.0011 -17.0010 -16.9995 -16.9994 -16.9954 -16.9954 -16.9932 -16.9932
   -16.9903 -16.9903 -16.9889 -16.9889 -16.9869 -16.9868 -16.9789 -16.9788
   -16.9780 -16.9780 -16.9753 -16.9753 -16.9720 -16.9720 -16.9708 -16.9708
   -16.9673 -16.9672 -16.9666 -16.9665 -16.9551 -16.9550 -16.9490 -16.9490
   -16.9471 -16.9470 -16.9457 -16.9457 -16.9450 -16.9450 -16.9428 -16.9427
   -16.9334 -16.9333 -16.9289 -16.9289 -16.9134 -16.9134 -16.9107 -16.9106
    -8.2399  -8.2399  -8.2299  -8.2299  -8.2202  -8.2201  -8.2122  -8.2122
    -8.2060  -8.2060  -8.1039  -8.1038  -2.9225  -2.9225  -2.8576  -2.8576
    -2.7693  -2.7693  -2.6737  -2.6736  -2.5925  -2.5925  -2.5473  -2.5473
     0.4873   0.4873   0.5714   0.5714   0.6857   0.6857   0.8079   0.8079
     0.8923   0.8923   0.9917   0.9918   1.3985   1.3985   1.4802   1.4802
     1.6560   1.6560   1.8660   1.8660   2.0336   2.0336   2.0837   2.0837
     2.4976   2.4976   2.6082   2.6082   2.8142   2.8142   3.0527   3.0527
     3.2754   3.2754   3.4298   3.4298   5.5180   5.5180   5.8079   5.8079
     6.1732   6.1732   6.5194   6.5194   6.7455   6.7455   6.8405   6.8405
     7.3262   7.3262   7.5737   7.5737   7.6166   7.6166   7.7546   7.7546
     7.9132   7.9132   8.0392   8.0392   8.2683   8.2683   8.4291   8.4291
     8.5555   8.5555   8.7127   8.7127   8.8544   8.8544   8.9453   8.9453
    10.0899  10.0899  10.3300  10.3301  10.5748  10.5749  10.8835  10.8837
    11.0026  11.0026  11.3962  11.3962  11.6235  11.6236  11.8054  11.8055
    11.9569  11.9569  12.4037  12.4039  12.8582  12.8582  13.1575  13.1575
    13.3452  13.3452  13.5721  13.5722  13.6954  13.6955  13.9859  13.9859
    14.1042  14.1043

          k = 0.5000 0.2194 0.0000 ( 39084 PWs)   bands (ev):

   -43.0653 -43.0652 -43.0648 -43.0647 -43.0638 -43.0637 -43.0633 -43.0631
   -43.0603 -43.0602 -43.0587 -43.0587 -43.0536 -43.0535 -43.0521 -43.0520
   -43.0519 -43.0519 -43.0506 -43.0506 -43.0351 -43.0350 -43.0347 -43.0345
   -43.0313 -43.0313 -43.0310 -43.0308 -43.0299 -43.0299 -43.0263 -43.0263
   -43.0237 -43.0236 -43.0227 -43.0227 -43.0221 -43.0220 -43.0217 -43.0216
   -43.0197 -43.0196 -43.0178 -43.0178 -43.0170 -43.0170 -43.0106 -43.0105
   -43.0091 -43.0091 -42.9580 -42.9579 -42.9564 -42.9563 -42.9211 -42.9210
   -42.9168 -42.9166 -42.9055 -42.9054 -17.0306 -17.0306 -17.0288 -17.0288
   -17.0260 -17.0260 -17.0222 -17.0222 -17.0062 -17.0062 -17.0041 -17.0040
   -17.0011 -17.0011 -16.9998 -16.9997 -16.9956 -16.9955 -16.9930 -16.9930
   -16.9901 -16.9901 -16.9887 -16.9887 -16.9872 -16.9872 -16.9786 -16.9786
   -16.9781 -16.9780 -16.9752 -16.9752 -16.9718 -16.9718 -16.9705 -16.9705
   -16.9672 -16.9672 -16.9666 -16.9666 -16.9550 -16.9550 -16.9491 -16.9491
   -16.9471 -16.9470 -16.9456 -16.9456 -16.9448 -16.9448 -16.9424 -16.9424
   -16.9333 -16.9332 -16.9289 -16.9289 -16.9134 -16.9134 -16.9107 -16.9106
    -8.2276  -8.2276  -8.2181  -8.2180  -8.2088  -8.2088  -8.2013  -8.2013
    -8.1952  -8.1951  -8.0931  -8.0930  -2.8802  -2.8802  -2.8184  -2.8184
    -2.7347  -2.7347  -2.6446  -2.6446  -2.5687  -2.5687  -2.5257  -2.5256
     0.3734   0.3734   0.4593   0.4593   0.5793   0.5794   0.7125   0.7125
     0.8111   0.8112   0.8965   0.8965   1.3068   1.3068   1.3839   1.3839
     1.5554   1.5554   1.7624   1.7624   1.9345   1.9345   1.9976   1.9976
     2.4203   2.4203   2.5578   2.5578   2.7860   2.7860   3.0355   3.0355
     3.2537   3.2537   3.3923   3.3923   5.6519   5.6519   5.9327   5.9327
     6.3025   6.3025   6.6805   6.6805   6.9522   6.9522   7.0672   7.0672
     7.3599   7.3600   7.6290   7.6290   7.6833   7.6833   7.8364   7.8364
     7.9787   7.9788   8.1496   8.1496   8.3972   8.3972   8.5594   8.5595
     8.7620   8.7621   8.9426   8.9427   9.0898   9.0898   9.1816   9.1816
    10.0804  10.0804  10.2927  10.2927  10.5706  10.5707  10.9032  10.9034
    11.0173  11.0174  11.3643  11.3644  11.6200  11.6201  11.7364  11.7364
    11.8708  11.8708  12.4208  12.4211  12.8232  12.8232  13.1136  13.1137
    13.3275  13.3275  13.5437  13.5438  13.6995  13.6996  13.9727  13.9727
    14.1755  14.1756

          k = 0.5000 0.2414 0.0000 ( 39116 PWs)   bands (ev):

   -43.0653 -43.0652 -43.0649 -43.0647 -43.0638 -43.0637 -43.0633 -43.0632
   -43.0603 -43.0603 -43.0587 -43.0587 -43.0536 -43.0535 -43.0521 -43.0520
   -43.0519 -43.0519 -43.0506 -43.0506 -43.0351 -43.0350 -43.0347 -43.0346
   -43.0314 -43.0313 -43.0310 -43.0308 -43.0299 -43.0299 -43.0263 -43.0263
   -43.0237 -43.0236 -43.0227 -43.0227 -43.0222 -43.0221 -43.0218 -43.0216
   -43.0197 -43.0196 -43.0178 -43.0178 -43.0171 -43.0171 -43.0107 -43.0106
   -43.0091 -43.0091 -42.9580 -42.9579 -42.9564 -42.9563 -42.9212 -42.9210
   -42.9168 -42.9167 -42.9055 -42.9054 -17.0311 -17.0311 -17.0292 -17.0292
   -17.0264 -17.0264 -17.0227 -17.0226 -17.0063 -17.0063 -17.0041 -17.0041
   -17.0011 -17.0011 -17.0001 -17.0001 -16.9957 -16.9957 -16.9929 -16.9928
   -16.9900 -16.9900 -16.9886 -16.9885 -16.9876 -16.9875 -16.9784 -16.9784
   -16.9781 -16.9780 -16.9750 -16.9750 -16.9716 -16.9715 -16.9702 -16.9702
   -16.9672 -16.9672 -16.9667 -16.9666 -16.9550 -16.9550 -16.9491 -16.9491
   -16.9470 -16.9470 -16.9456 -16.9455 -16.9446 -16.9446 -16.9421 -16.9420
   -16.9332 -16.9331 -16.9289 -16.9289 -16.9135 -16.9134 -16.9107 -16.9106
    -8.2152  -8.2151  -8.2061  -8.2061  -8.1974  -8.1974  -8.1904  -8.1904
    -8.1843  -8.1843  -8.0822  -8.0821  -2.8359  -2.8359  -2.7777  -2.7777
    -2.6991  -2.6991  -2.6151  -2.6150  -2.5451  -2.5451  -2.5036  -2.5036
     0.2642   0.2642   0.3533   0.3533   0.4802   0.4803   0.6241   0.6242
     0.7354   0.7354   0.8073   0.8074   1.2097   1.2097   1.2812   1.2813
     1.4486   1.4486   1.6537   1.6537   1.8321   1.8321   1.9146   1.9146
     2.3553   2.3553   2.5218   2.5218   2.7679   2.7680   3.0223   3.0223
     3.2302   3.2302   3.3499   3.3499   5.7958   5.7958   6.0597   6.0597
     6.4211   6.4211   6.8158   6.8158   7.1381   7.1381   7.2930   7.2930
     7.3924   7.3924   7.6798   7.6799   7.7451   7.7452   7.9008   7.9009
     8.0369   8.0369   8.2364   8.2364   8.5444   8.5444   8.7502   8.7502
     8.9825   8.9825   9.1745   9.1745   9.3232   9.3232   9.4162   9.4162
    10.0786  10.0786  10.2791  10.2792  10.5800  10.5800  10.9251  10.9252
    11.0502  11.0503  11.3361  11.3362  11.6143  11.6144  11.6798  11.6798
    11.8247  11.8248  12.4393  12.4396  12.7926  12.7926  13.0769  13.0770
    13.2919  13.2919  13.5027  13.5028  13.6952  13.6954  13.9098  13.9099
    14.1036  14.1037

          k = 0.5000 0.2633 0.0000 ( 39118 PWs)   bands (ev):

   -43.0653 -43.0652 -43.0649 -43.0647 -43.0638 -43.0637 -43.0633 -43.0632
   -43.0603 -43.0603 -43.0587 -43.0587 -43.0536 -43.0535 -43.0521 -43.0520
   -43.0519 -43.0519 -43.0506 -43.0506 -43.0351 -43.0351 -43.0347 -43.0346
   -43.0314 -43.0313 -43.0310 -43.0308 -43.0300 -43.0299 -43.0263 -43.0263
   -43.0237 -43.0236 -43.0227 -43.0227 -43.0221 -43.0220 -43.0217 -43.0216
   -43.0197 -43.0196 -43.0178 -43.0178 -43.0170 -43.0170 -43.0106 -43.0105
   -43.0091 -43.0091 -42.9580 -42.9579 -42.9564 -42.9563 -42.9212 -42.9211
   -42.9168 -42.9167 -42.9055 -42.9054 -17.0316 -17.0316 -17.0297 -17.0296
   -17.0269 -17.0268 -17.0231 -17.0230 -17.0064 -17.0063 -17.0042 -17.0041
   -17.0012 -17.0011 -17.0004 -17.0004 -16.9958 -16.9958 -16.9927 -16.9927
   -16.9898 -16.9898 -16.9884 -16.9884 -16.9880 -16.9879 -16.9783 -16.9783
   -16.9780 -16.9780 -16.9748 -16.9748 -16.9714 -16.9713 -16.9699 -16.9699
   -16.9671 -16.9671 -16.9667 -16.9666 -16.9550 -16.9549 -16.9492 -16.9492
   -16.9470 -16.9469 -16.9455 -16.9455 -16.9445 -16.9445 -16.9418 -16.9417
   -16.9331 -16.9330 -16.9289 -16.9288 -16.9135 -16.9134 -16.9107 -16.9106
    -8.2028  -8.2028  -8.1943  -8.1943  -8.1863  -8.1862  -8.1797  -8.1797
    -8.1736  -8.1736  -8.0715  -8.0714  -2.7906  -2.7906  -2.7363  -2.7362
    -2.6634  -2.6634  -2.5859  -2.5858  -2.5223  -2.5223  -2.4816  -2.4815
     0.1629   0.1629   0.2560   0.2560   0.3902   0.3902   0.5441   0.5441
     0.6652   0.6652   0.7240   0.7240   1.1128   1.1128   1.1770   1.1771
     1.3394   1.3394   1.5428   1.5428   1.7272   1.7272   1.8291   1.8291
     2.3085   2.3085   2.5004   2.5004   2.7589   2.7589   3.0127   3.0127
     3.2062   3.2062   3.3053   3.3054   5.9435   5.9435   6.1833   6.1833
     6.5224   6.5224   6.9094   6.9094   7.2613   7.2613   7.4298   7.4298
     7.5145   7.5145   7.7554   7.7554   7.8247   7.8247   7.9591   7.9591
     8.1055   8.1055   8.3199   8.3199   8.7083   8.7083   8.9481   8.9481
     9.2013   9.2013   9.4001   9.4001   9.5476   9.5476   9.6406   9.6406
    10.0968  10.0969  10.2893  10.2893  10.6024  10.6025  10.9481  10.9483
    11.0956  11.0957  11.3226  11.3226  11.5796  11.5797  11.6494  11.6495
    11.8301  11.8301  12.4541  12.4543  12.7704  12.7704  13.0465  13.0466
    13.2474  13.2474  13.4556  13.4557  13.6546  13.6548  13.8273  13.8273
    13.9914  13.9915

          k = 0.5000 0.2853 0.0000 ( 39138 PWs)   bands (ev):

   -43.0654 -43.0653 -43.0649 -43.0647 -43.0638 -43.0637 -43.0633 -43.0632
   -43.0603 -43.0603 -43.0587 -43.0587 -43.0536 -43.0535 -43.0521 -43.0520
   -43.0520 -43.0519 -43.0506 -43.0506 -43.0351 -43.0351 -43.0347 -43.0346
   -43.0314 -43.0313 -43.0310 -43.0308 -43.0300 -43.0299 -43.0263 -43.0263
   -43.0237 -43.0236 -43.0227 -43.0227 -43.0221 -43.0221 -43.0217 -43.0216
   -43.0197 -43.0196 -43.0178 -43.0178 -43.0170 -43.0170 -43.0106 -43.0106
   -43.0091 -43.0091 -42.9580 -42.9579 -42.9564 -42.9563 -42.9212 -42.9211
   -42.9168 -42.9167 -42.9055 -42.9054 -17.0321 -17.0321 -17.0301 -17.0300
   -17.0273 -17.0272 -17.0235 -17.0234 -17.0064 -17.0064 -17.0042 -17.0042
   -17.0012 -17.0012 -17.0007 -17.0007 -16.9959 -16.9959 -16.9926 -16.9926
   -16.9897 -16.9897 -16.9884 -16.9883 -16.9882 -16.9882 -16.9783 -16.9783
   -16.9778 -16.9778 -16.9747 -16.9746 -16.9711 -16.9711 -16.9697 -16.9697
   -16.9671 -16.9671 -16.9668 -16.9667 -16.9549 -16.9549 -16.9492 -16.9492
   -16.9470 -16.9469 -16.9455 -16.9454 -16.9443 -16.9443 -16.9415 -16.9414
   -16.9330 -16.9329 -16.9288 -16.9288 -16.9135 -16.9135 -16.9107 -16.9106
    -8.1910  -8.1910  -8.1830  -8.1830  -8.1756  -8.1756  -8.1696  -8.1695
    -8.1634  -8.1634  -8.0613  -8.0612  -2.7453  -2.7453  -2.6952  -2.6952
    -2.6284  -2.6284  -2.5579  -2.5579  -2.5012  -2.5011  -2.4601  -2.4600
     0.0714   0.0714   0.1691   0.1691   0.3105   0.3105   0.4733   0.4733
     0.6008   0.6009   0.6453   0.6454   1.0226   1.0226   1.0767   1.0767
     1.2322   1.2322   1.4330   1.4330   1.6218   1.6218   1.7384   1.7384
     2.2815   2.2815   2.4917   2.4917   2.7573   2.7573   3.0060   3.0060
     3.1822   3.1822   3.2607   3.2607   6.0902   6.0902   6.2994   6.2994
     6.6032   6.6032   6.9587   6.9587   7.2925   7.2925   7.4645   7.4645
     7.7240   7.7240   7.8712   7.8712   7.9357   7.9357   8.0405   8.0405
     8.1857   8.1857   8.4062   8.4062   8.8619   8.8619   9.1327   9.1327
     9.4090   9.4090   9.6139   9.6139   9.7583   9.7583   9.8493   9.8493
    10.1460  10.1460  10.3223  10.3223  10.6357  10.6357  10.9749  10.9750
    11.1457  11.1459  11.3320  11.3321  11.5304  11.5304  11.6444  11.6445
    11.8725  11.8725  12.4595  12.4596  12.7607  12.7608  13.0185  13.0185
    13.2027  13.2027  13.3943  13.3944  13.5601  13.5603  13.7786  13.7787
    13.8785  13.8786

          k = 0.5000 0.3072 0.0000 ( 39150 PWs)   bands (ev):

   -43.0654 -43.0653 -43.0649 -43.0647 -43.0638 -43.0637 -43.0633 -43.0632
   -43.0603 -43.0603 -43.0587 -43.0587 -43.0536 -43.0535 -43.0521 -43.0520
   -43.0520 -43.0520 -43.0506 -43.0506 -43.0351 -43.0351 -43.0347 -43.0346
   -43.0314 -43.0313 -43.0310 -43.0308 -43.0300 -43.0299 -43.0263 -43.0263
   -43.0237 -43.0236 -43.0227 -43.0227 -43.0221 -43.0221 -43.0217 -43.0216
   -43.0197 -43.0196 -43.0178 -43.0178 -43.0171 -43.0170 -43.0107 -43.0106
   -43.0091 -43.0091 -42.9581 -42.9579 -42.9564 -42.9563 -42.9212 -42.9210
   -42.9168 -42.9167 -42.9055 -42.9054 -17.0325 -17.0325 -17.0304 -17.0304
   -17.0276 -17.0276 -17.0238 -17.0238 -17.0065 -17.0065 -17.0043 -17.0042
   -17.0013 -17.0013 -17.0009 -17.0009 -16.9960 -16.9960 -16.9924 -16.9924
   -16.9896 -16.9896 -16.9887 -16.9886 -16.9881 -16.9881 -16.9783 -16.9783
   -16.9776 -16.9776 -16.9745 -16.9745 -16.9710 -16.9709 -16.9695 -16.9694
   -16.9670 -16.9670 -16.9668 -16.9667 -16.9549 -16.9549 -16.9493 -16.9493
   -16.9470 -16.9469 -16.9455 -16.9454 -16.9441 -16.9441 -16.9412 -16.9411
   -16.9329 -16.9328 -16.9288 -16.9288 -16.9135 -16.9135 -16.9108 -16.9106
    -8.1798  -8.1798  -8.1725  -8.1725  -8.1659  -8.1658  -8.1601  -8.1601
    -8.1539  -8.1539  -8.0518  -8.0517  -2.7011  -2.7011  -2.6555  -2.6555
    -2.5953  -2.5952  -2.5321  -2.5320  -2.4824  -2.4824  -2.4395  -2.4395
    -0.0087  -0.0087   0.0936   0.0936   0.2421   0.2421   0.4125   0.4125
     0.5423   0.5423   0.5704   0.5704   0.9441   0.9441   0.9860   0.9860
     1.1312   1.1312   1.3276   1.3276   1.5185   1.5185   1.6442   1.6442
     2.2715   2.2715   2.4929   2.4929   2.7610   2.7610   3.0013   3.0013
     3.1585   3.1585   3.2174   3.2174   6.2327   6.2327   6.4055   6.4055
     6.6644   6.6644   6.9749   6.9749   7.2724   7.2724   7.4583   7.4583
     7.9179   7.9179   8.0152   8.0152   8.0703   8.0703   8.1534   8.1534
     8.2737   8.2737   8.4891   8.4891   8.9912   8.9913   9.2941   9.2941
     9.5991   9.5991   9.8123   9.8124   9.9526   9.9526  10.0383  10.0383
    10.2289  10.2289  10.3768  10.3768  10.6765  10.6765  11.0069  11.0070
    11.1955  11.1957  11.3651  11.3652  11.4925  11.4925  11.6558  11.6560
    11.9360  11.9360  12.4503  12.4504  12.7646  12.7648  12.9861  12.9862
    13.1662  13.1663  13.3027  13.3028  13.4666  13.4667  13.7193  13.7194
    13.8064  13.8065

          k = 0.5000 0.3292 0.0000 ( 39138 PWs)   bands (ev):

   -43.0653 -43.0652 -43.0649 -43.0647 -43.0638 -43.0637 -43.0633 -43.0631
   -43.0603 -43.0603 -43.0587 -43.0587 -43.0536 -43.0535 -43.0521 -43.0520
   -43.0520 -43.0519 -43.0506 -43.0506 -43.0351 -43.0350 -43.0347 -43.0345
   -43.0314 -43.0313 -43.0310 -43.0308 -43.0299 -43.0299 -43.0263 -43.0263
   -43.0237 -43.0236 -43.0227 -43.0227 -43.0221 -43.0220 -43.0217 -43.0216
   -43.0197 -43.0196 -43.0178 -43.0178 -43.0170 -43.0170 -43.0106 -43.0105
   -43.0091 -43.0091 -42.9580 -42.9579 -42.9564 -42.9563 -42.9211 -42.9210
   -42.9168 -42.9167 -42.9055 -42.9054 -17.0329 -17.0329 -17.0307 -17.0307
   -17.0279 -17.0279 -17.0241 -17.0241 -17.0066 -17.0066 -17.0043 -17.0043
   -17.0014 -17.0014 -17.0010 -17.0010 -16.9961 -16.9961 -16.9923 -16.9923
   -16.9895 -16.9894 -16.9890 -16.9889 -16.9880 -16.9880 -16.9784 -16.9783
   -16.9774 -16.9774 -16.9744 -16.9743 -16.9708 -16.9708 -16.9693 -16.9693
   -16.9670 -16.9670 -16.9668 -16.9667 -16.9549 -16.9548 -16.9493 -16.9493
   -16.9469 -16.9468 -16.9454 -16.9454 -16.9440 -16.9440 -16.9409 -16.9408
   -16.9328 -16.9327 -16.9288 -16.9288 -16.9135 -16.9135 -16.9108 -16.9106
    -8.1697  -8.1697  -8.1631  -8.1630  -8.1572  -8.1571  -8.1517  -8.1517
    -8.1454  -8.1454  -8.0433  -8.0432  -2.6595  -2.6595  -2.6186  -2.6186
    -2.5650  -2.5650  -2.5092  -2.5091  -2.4665  -2.4665  -2.4205  -2.4205
    -0.0766  -0.0766   0.0304   0.0304   0.1855   0.1855   0.3620   0.3620
     0.4884   0.4884   0.5002   0.5002   0.8791   0.8791   0.9110   0.9110
     1.0407   1.0407   1.2299   1.2299   1.4207   1.4207   1.5508   1.5508
     2.2739   2.2739   2.5011   2.5011   2.7684   2.7684   2.9980   2.9980
     3.1354   3.1354   3.1769   3.1769   6.3683   6.3683   6.5002   6.5002
     6.7096   6.7096   6.9719   6.9719   7.2331   7.2331   7.4173   7.4173
     8.0895   8.0896   8.1603   8.1604   8.2087   8.2087   8.2813   8.2813
     8.3670   8.3670   8.5627   8.5627   9.0930   9.0930   9.4286   9.4286
     9.7672   9.7672   9.9933   9.9933  10.1295  10.1295  10.2059  10.2059
    10.3350  10.3351  10.4504  10.4504  10.7212  10.7212  11.0426  11.0427
    11.2442  11.2443  11.4094  11.4095  11.4783  11.4783  11.6860  11.6861
    12.0128  12.0128  12.4245  12.4245  12.7717  12.7719  12.9430  12.9433
    13.1441  13.1442  13.1995  13.1996  13.3987  13.3988  13.6299  13.6300
    13.7763  13.7764

          k = 0.5000 0.3511 0.0000 ( 39142 PWs)   bands (ev):

   -43.0653 -43.0652 -43.0649 -43.0647 -43.0637 -43.0637 -43.0633 -43.0631
   -43.0603 -43.0603 -43.0587 -43.0587 -43.0536 -43.0535 -43.0520 -43.0520
   -43.0519 -43.0519 -43.0505 -43.0505 -43.0351 -43.0350 -43.0347 -43.0345
   -43.0314 -43.0313 -43.0310 -43.0308 -43.0299 -43.0299 -43.0263 -43.0263
   -43.0237 -43.0236 -43.0226 -43.0226 -43.0221 -43.0220 -43.0217 -43.0216
   -43.0197 -43.0196 -43.0178 -43.0178 -43.0170 -43.0170 -43.0106 -43.0105
   -43.0091 -43.0091 -42.9580 -42.9579 -42.9564 -42.9562 -42.9211 -42.9210
   -42.9168 -42.9167 -42.9055 -42.9054 -17.0333 -17.0333 -17.0310 -17.0310
   -17.0282 -17.0282 -17.0244 -17.0243 -17.0066 -17.0066 -17.0044 -17.0043
   -17.0016 -17.0016 -17.0011 -17.0011 -16.9961 -16.9961 -16.9922 -16.9922
   -16.9894 -16.9894 -16.9892 -16.9892 -16.9879 -16.9879 -16.9784 -16.9783
   -16.9773 -16.9773 -16.9742 -16.9742 -16.9707 -16.9706 -16.9691 -16.9691
   -16.9669 -16.9669 -16.9668 -16.9667 -16.9549 -16.9548 -16.9493 -16.9493
   -16.9469 -16.9468 -16.9454 -16.9454 -16.9439 -16.9439 -16.9407 -16.9406
   -16.9327 -16.9326 -16.9288 -16.9287 -16.9135 -16.9135 -16.9108 -16.9106
    -8.1609  -8.1609  -8.1550  -8.1549  -8.1498  -8.1498  -8.1445  -8.1445
    -8.1382  -8.1382  -8.0359  -8.0358  -2.6217  -2.6217  -2.5856  -2.5856
    -2.5386  -2.5386  -2.4900  -2.4900  -2.4538  -2.4538  -2.4037  -2.4036
    -0.1317  -0.1317  -0.0203  -0.0203   0.1409   0.1409   0.3214   0.3214
     0.4300   0.4300   0.4458   0.4458   0.8256   0.8256   0.8562   0.8563
     0.9655   0.9655   1.1430   1.1430   1.3319   1.3319   1.4630   1.4630
     2.2836   2.2836   2.5131   2.5131   2.7775   2.7775   2.9954   2.9954
     3.1129   3.1129   3.1412   3.1412   6.4947   6.4947   6.5832   6.5832
     6.7432   6.7432   6.9595   6.9595   7.1870   7.1870   7.3577   7.3577
     8.2328   8.2329   8.2824   8.2824   8.3445   8.3445   8.3990   8.3990
     8.4639   8.4639   8.6246   8.6246   9.1704   9.1704   9.5378   9.5378
     9.9096   9.9096  10.1543  10.1544  10.2879  10.2879  10.3515  10.3515
    10.4457  10.4457  10.5373  10.5373  10.7663  10.7663  11.0768  11.0768
    11.2909  11.2910  11.4312  11.4313  11.5124  11.5125  11.7376  11.7378
    12.0966  12.0966  12.3841  12.3841  12.7449  12.7450  12.8999  12.9003
    13.1139  13.1139  13.1575  13.1575  13.3467  13.3467  13.5413  13.5413
    13.7588  13.7589

          k = 0.5000 0.3730 0.0000 ( 39170 PWs)   bands (ev):

   -43.0654 -43.0653 -43.0649 -43.0647 -43.0637 -43.0637 -43.0633 -43.0631
   -43.0603 -43.0603 -43.0587 -43.0587 -43.0536 -43.0535 -43.0520 -43.0520
   -43.0520 -43.0519 -43.0505 -43.0505 -43.0351 -43.0350 -43.0347 -43.0346
   -43.0314 -43.0313 -43.0310 -43.0308 -43.0300 -43.0300 -43.0263 -43.0263
   -43.0237 -43.0236 -43.0227 -43.0227 -43.0221 -43.0220 -43.0217 -43.0216
   -43.0198 -43.0197 -43.0178 -43.0178 -43.0170 -43.0170 -43.0106 -43.0105
   -43.0091 -43.0091 -42.9580 -42.9579 -42.9564 -42.9562 -42.9212 -42.9211
   -42.9168 -42.9167 -42.9055 -42.9054 -17.0335 -17.0335 -17.0312 -17.0312
   -17.0284 -17.0284 -17.0246 -17.0246 -17.0067 -17.0067 -17.0044 -17.0044
   -17.0018 -17.0017 -17.0011 -17.0011 -16.9962 -16.9962 -16.9921 -16.9921
   -16.9895 -16.9894 -16.9893 -16.9893 -16.9879 -16.9878 -16.9784 -16.9783
   -16.9772 -16.9771 -16.9741 -16.9741 -16.9706 -16.9705 -16.9690 -16.9690
   -16.9669 -16.9669 -16.9668 -16.9667 -16.9548 -16.9548 -16.9494 -16.9494
   -16.9469 -16.9468 -16.9454 -16.9453 -16.9438 -16.9438 -16.9406 -16.9405
   -16.9327 -16.9326 -16.9288 -16.9287 -16.9135 -16.9135 -16.9108 -16.9107
    -8.1536  -8.1536  -8.1485  -8.1484  -8.1440  -8.1439  -8.1387  -8.1387
    -8.1323  -8.1323  -8.0300  -8.0299  -2.5893  -2.5893  -2.5579  -2.5579
    -2.5172  -2.5171  -2.4753  -2.4752  -2.4444  -2.4444  -2.3897  -2.3896
    -0.1740  -0.1740  -0.0587  -0.0587   0.1076   0.1076   0.2902   0.2902
     0.3737   0.3737   0.4052   0.4052   0.7847   0.7847   0.8178   0.8178
     0.9112   0.9112   1.0702   1.0702   1.2558   1.2558   1.3858   1.3858
     2.2964   2.2964   2.5262   2.5262   2.7867   2.7867   2.9933   2.9933
     3.0909   3.0910   3.1131   3.1131   6.6085   6.6085   6.6540   6.6540
     6.7707   6.7707   6.9437   6.9437   7.1401   7.1401   7.2894   7.2894
     8.3422   8.3423   8.3739   8.3739   8.4639   8.4639   8.4974   8.4974
     8.5553   8.5553   8.6740   8.6740   9.2280   9.2280   9.6251   9.6251
    10.0228  10.0228  10.2908  10.2908  10.4237  10.4237  10.4745  10.4745
    10.5456  10.5456  10.6253  10.6253  10.8092  10.8092  11.1030  11.1031
    11.3311  11.3312  11.4369  11.4369  11.5792  11.5793  11.8117  11.8119
    12.1710  12.1711  12.3426  12.3427  12.6558  12.6559  12.8694  12.8698
    13.0974  13.0974  13.1780  13.1780  13.3090  13.3090  13.4687  13.4688
    13.7525  13.7527

          k = 0.5000 0.3950 0.0000 ( 39206 PWs)   bands (ev):

   -43.0654 -43.0653 -43.0649 -43.0648 -43.0637 -43.0637 -43.0633 -43.0631
   -43.0603 -43.0603 -43.0587 -43.0587 -43.0537 -43.0536 -43.0521 -43.0520
   -43.0520 -43.0519 -43.0505 -43.0505 -43.0352 -43.0351 -43.0348 -43.0346
   -43.0314 -43.0313 -43.0310 -43.0308 -43.0300 -43.0300 -43.0264 -43.0264
   -43.0238 -43.0237 -43.0227 -43.0227 -43.0221 -43.0221 -43.0217 -43.0216
   -43.0198 -43.0197 -43.0179 -43.0179 -43.0171 -43.0170 -43.0107 -43.0106
   -43.0091 -43.0091 -42.9581 -42.9580 -42.9564 -42.9563 -42.9212 -42.9211
   -42.9168 -42.9167 -42.9055 -42.9054 -17.0337 -17.0337 -17.0314 -17.0314
   -17.0286 -17.0286 -17.0248 -17.0247 -17.0067 -17.0067 -17.0045 -17.0044
   -17.0019 -17.0019 -17.0012 -17.0011 -16.9962 -16.9962 -16.9921 -16.9921
   -16.9896 -16.9895 -16.9892 -16.9892 -16.9878 -16.9878 -16.9784 -16.9784
   -16.9771 -16.9771 -16.9741 -16.9741 -16.9705 -16.9705 -16.9689 -16.9689
   -16.9669 -16.9668 -16.9668 -16.9667 -16.9548 -16.9548 -16.9494 -16.9494
   -16.9469 -16.9468 -16.9454 -16.9453 -16.9437 -16.9437 -16.9404 -16.9404
   -16.9326 -16.9325 -16.9287 -16.9287 -16.9135 -16.9135 -16.9108 -16.9107
    -8.1480  -8.1480  -8.1438  -8.1437  -8.1397  -8.1397  -8.1344  -8.1344
    -8.1280  -8.1280  -8.0257  -8.0256  -2.5640  -2.5640  -2.5367  -2.5367
    -2.5014  -2.5014  -2.4652  -2.4652  -2.4381  -2.4381  -2.3791  -2.3791
    -0.2037  -0.2037  -0.0853  -0.0853   0.0851   0.0851   0.2677   0.2677
     0.3298   0.3298   0.3739   0.3739   0.7580   0.7580   0.7880   0.7880
     0.8805   0.8805   1.0148   1.0148   1.1965   1.1965   1.3244   1.3244
     2.3087   2.3087   2.5379   2.5379   2.7946   2.7946   2.9916   2.9916
     3.0709   3.0709   3.0941   3.0941   6.6999   6.6999   6.7109   6.7109
     6.8018   6.8018   6.9285   6.9285   7.0958   7.0959   7.2201   7.2201
     8.4161   8.4161   8.4349   8.4349   8.5557   8.5558   8.5760   8.5760
     8.6285   8.6285   8.7091   8.7092   9.2685   9.2686   9.6910   9.6910
    10.1041  10.1041  10.3960  10.3960  10.5307  10.5307  10.5732  10.5732
    10.6243  10.6243  10.6988  10.6988  10.8468  10.8468  11.1184  11.1184
    11.3586  11.3587  11.4432  11.4432  11.6529  11.6530  11.9032  11.9035
    12.1829  12.1830  12.3420  12.3421  12.5553  12.5554  12.8192  12.8194
    13.1244  13.1245  13.2159  13.2159  13.2899  13.2900  13.4196  13.4197
    13.7579  13.7580

          k = 0.5000 0.4169 0.0000 ( 39186 PWs)   bands (ev):

   -43.0654 -43.0653 -43.0649 -43.0648 -43.0637 -43.0636 -43.0632 -43.0631
   -43.0603 -43.0603 -43.0586 -43.0586 -43.0536 -43.0535 -43.0520 -43.0520
   -43.0520 -43.0519 -43.0505 -43.0505 -43.0352 -43.0351 -43.0348 -43.0346
   -43.0314 -43.0313 -43.0310 -43.0308 -43.0300 -43.0300 -43.0263 -43.0263
   -43.0238 -43.0237 -43.0227 -43.0227 -43.0221 -43.0220 -43.0217 -43.0215
   -43.0198 -43.0197 -43.0179 -43.0179 -43.0170 -43.0170 -43.0106 -43.0105
   -43.0091 -43.0091 -42.9581 -42.9580 -42.9563 -42.9562 -42.9212 -42.9211
   -42.9168 -42.9167 -42.9055 -42.9054 -17.0338 -17.0338 -17.0315 -17.0315
   -17.0287 -17.0287 -17.0249 -17.0248 -17.0067 -17.0067 -17.0045 -17.0044
   -17.0019 -17.0019 -17.0012 -17.0011 -16.9963 -16.9962 -16.9920 -16.9920
   -16.9897 -16.9896 -16.9892 -16.9892 -16.9878 -16.9878 -16.9784 -16.9784
   -16.9770 -16.9770 -16.9740 -16.9740 -16.9704 -16.9704 -16.9689 -16.9689
   -16.9669 -16.9668 -16.9667 -16.9667 -16.9548 -16.9548 -16.9494 -16.9494
   -16.9469 -16.9468 -16.9454 -16.9453 -16.9437 -16.9437 -16.9404 -16.9403
   -16.9326 -16.9325 -16.9287 -16.9287 -16.9135 -16.9135 -16.9108 -16.9106
    -8.1445  -8.1445  -8.1410  -8.1410  -8.1372  -8.1372  -8.1318  -8.1318
    -8.1254  -8.1254  -8.0230  -8.0229  -2.5477  -2.5477  -2.5233  -2.5233
    -2.4918  -2.4918  -2.4597  -2.4597  -2.4345  -2.4345  -2.3726  -2.3725
    -0.2213  -0.2213  -0.1008  -0.1008   0.0722   0.0722   0.2537   0.2537
     0.3024   0.3024   0.3539   0.3539   0.7440   0.7440   0.7673   0.7673
     0.8681   0.8681   0.9800   0.9800   1.1583   1.1584   1.2843   1.2843
     2.3173   2.3173   2.5459   2.5459   2.7999   2.7999   2.9904   2.9904
     3.0568   3.0568   3.0832   3.0832   6.7444   6.7444   6.7543   6.7543
     6.8485   6.8485   6.9190   6.9190   7.0565   7.0565   7.1621   7.1621
     8.4573   8.4574   8.4688   8.4689   8.6143   8.6144   8.6279   8.6280
     8.6774   8.6774   8.7272   8.7272   9.2928   9.2928   9.7332   9.7332
    10.1525  10.1525  10.4628  10.4628  10.6006  10.6006  10.6421  10.6421
    10.6720  10.6721  10.7463  10.7463  10.8735  10.8735  11.1248  11.1249
    11.3719  11.3720  11.4486  11.4487  11.7199  11.7200  11.9925  11.9928
    12.1492  12.1494  12.3164  12.3164  12.5430  12.5432  12.7415  12.7416
    13.1738  13.1739  13.2439  13.2439  13.2974  13.2974  13.3853  13.3854
    13.7658  13.7659

          k = 0.5000 0.4389 0.0000 ( 39168 PWs)   bands (ev):

   -43.0654 -43.0653 -43.0649 -43.0648 -43.0637 -43.0636 -43.0632 -43.0630
   -43.0603 -43.0603 -43.0586 -43.0586 -43.0536 -43.0535 -43.0520 -43.0520
   -43.0519 -43.0518 -43.0504 -43.0504 -43.0352 -43.0351 -43.0348 -43.0346
   -43.0314 -43.0313 -43.0310 -43.0308 -43.0300 -43.0300 -43.0264 -43.0263
   -43.0238 -43.0237 -43.0227 -43.0227 -43.0221 -43.0220 -43.0217 -43.0215
   -43.0198 -43.0197 -43.0179 -43.0179 -43.0170 -43.0170 -43.0106 -43.0105
   -43.0090 -43.0090 -42.9581 -42.9580 -42.9563 -42.9562 -42.9212 -42.9211
   -42.9168 -42.9167 -42.9054 -42.9053 -17.0339 -17.0339 -17.0316 -17.0315
   -17.0287 -17.0287 -17.0249 -17.0249 -17.0067 -17.0067 -17.0045 -17.0044
   -17.0020 -17.0019 -17.0012 -17.0011 -16.9963 -16.9962 -16.9920 -16.9920
   -16.9898 -16.9897 -16.9892 -16.9892 -16.9878 -16.9878 -16.9784 -16.9784
   -16.9770 -16.9770 -16.9740 -16.9740 -16.9704 -16.9704 -16.9689 -16.9689
   -16.9669 -16.9668 -16.9667 -16.9667 -16.9548 -16.9548 -16.9494 -16.9494
   -16.9469 -16.9468 -16.9454 -16.9453 -16.9437 -16.9437 -16.9403 -16.9403
   -16.9326 -16.9325 -16.9287 -16.9287 -16.9135 -16.9135 -16.9107 -16.9106
    -8.1433  -8.1433  -8.1401  -8.1401  -8.1363  -8.1363  -8.1309  -8.1309
    -8.1245  -8.1245  -8.0221  -8.0220  -2.5420  -2.5420  -2.5187  -2.5187
    -2.4886  -2.4886  -2.4580  -2.4580  -2.4334  -2.4334  -2.3704  -2.3703
    -0.2271  -0.2271  -0.1059  -0.1059   0.0680   0.0680   0.2488   0.2488
     0.2931   0.2931   0.3471   0.3471   0.7397   0.7397   0.7598   0.7599
     0.8652   0.8652   0.9681   0.9681   1.1451   1.1451   1.2703   1.2703
     2.3205   2.3205   2.5488   2.5488   2.8018   2.8018   2.9900   2.9900
     3.0517   3.0517   3.0796   3.0796   6.7546   6.7546   6.7712   6.7712
     6.8735   6.8736   6.9221   6.9221   7.0341   7.0342   7.1380   7.1380
     8.4704   8.4705   8.4796   8.4796   8.6348   8.6348   8.6461   8.6462
     8.6963   8.6963   8.7306   8.7306   9.3008   9.3009   9.7479   9.7479
    10.1684  10.1685  10.4857  10.4857  10.6252  10.6252  10.6697  10.6697
    10.6855  10.6855  10.7626  10.7626  10.8833  10.8833  11.1263  11.1264
    11.3754  11.3754  11.4507  11.4507  11.7505  11.7506  12.0260  12.0263
    12.1562  12.1565  12.2587  12.2589  12.5952  12.5955  12.6763  12.6764
    13.2101  13.2103  13.2396  13.2396  13.3144  13.3145  13.3663  13.3664
    13.7563  13.7563

          k = 0.4750 0.4169 0.0000 ( 39216 PWs)   bands (ev):

   -43.0654 -43.0653 -43.0649 -43.0648 -43.0638 -43.0637 -43.0633 -43.0632
   -43.0604 -43.0603 -43.0587 -43.0587 -43.0537 -43.0536 -43.0521 -43.0520
   -43.0520 -43.0520 -43.0506 -43.0506 -43.0352 -43.0351 -43.0348 -43.0346
   -43.0314 -43.0313 -43.0310 -43.0308 -43.0300 -43.0300 -43.0264 -43.0264
   -43.0238 -43.0237 -43.0228 -43.0227 -43.0221 -43.0220 -43.0217 -43.0216
   -43.0198 -43.0197 -43.0179 -43.0179 -43.0170 -43.0170 -43.0106 -43.0105
   -43.0091 -43.0091 -42.9581 -42.9580 -42.9564 -42.9563 -42.9212 -42.9211
   -42.9168 -42.9167 -42.9055 -42.9054 -17.0338 -17.0337 -17.0316 -17.0312
   -17.0286 -17.0285 -17.0248 -17.0247 -17.0069 -17.0067 -17.0048 -17.0042
   -17.0019 -17.0019 -17.0012 -17.0012 -16.9963 -16.9963 -16.9923 -16.9919
   -16.9896 -16.9896 -16.9895 -16.9888 -16.9879 -16.9876 -16.9784 -16.9783
   -16.9771 -16.9770 -16.9744 -16.9738 -16.9709 -16.9700 -16.9689 -16.9688
   -16.9669 -16.9668 -16.9668 -16.9667 -16.9549 -16.9548 -16.9497 -16.9492
   -16.9472 -16.9466 -16.9454 -16.9453 -16.9437 -16.9436 -16.9404 -16.9403
   -16.9326 -16.9325 -16.9287 -16.9287 -16.9136 -16.9135 -16.9108 -16.9107
    -8.1605  -8.1554  -8.1519  -8.1434  -8.1433  -8.1340  -8.1304  -8.1298
    -8.1199  -8.1199  -8.0258  -8.0257  -2.5811  -2.5611  -2.5559  -2.5365
    -2.5346  -2.4479  -2.4408  -2.4321  -2.4174  -2.4125  -2.3690  -2.3687
    -0.2442  -0.2048  -0.1264  -0.0864   0.0319   0.1020   0.2302   0.2738
     0.3108   0.3179   0.3412   0.3687   0.7357   0.7543   0.7598   0.7926
     0.8579   0.8942   0.9820   1.0322   1.1590   1.2159   1.2819   1.3481
     2.2947   2.3301   2.5224   2.5586   2.7741   2.8190   2.9799   3.0028
     3.0595   3.0685   3.0871   3.0886   6.6811   6.6903   6.7555   6.7639
     6.8084   6.8821   6.9253   6.9295   7.0588   7.0884   7.1705   7.2490
     8.4300   8.4304   8.4780   8.4796   8.5788   8.5942   8.6390   8.6410
     8.6549   8.6877   8.7091   8.7504   9.2861   9.2977   9.7089   9.7444
    10.1227  10.1639  10.4156  10.4792  10.5573  10.6060  10.6103  10.6214
    10.6451  10.6831  10.7124  10.7461  10.8441  10.8726  11.1097  11.1186
    11.3292  11.3977  11.4201  11.4633  11.6348  11.7104  11.9590  12.0204
    12.0700  12.1833  12.3250  12.3840  12.4487  12.6476  12.7236  12.8428
    13.0961  13.1468  13.2316  13.2530  13.3248  13.3552  13.3974  13.4617
    13.7364  13.7643

          k = 0.4500 0.3950 0.0000 ( 39185 PWs)   bands (ev):

   -43.0654 -43.0653 -43.0649 -43.0647 -43.0638 -43.0637 -43.0634 -43.0632
   -43.0603 -43.0603 -43.0588 -43.0587 -43.0536 -43.0535 -43.0521 -43.0520
   -43.0520 -43.0519 -43.0506 -43.0506 -43.0352 -43.0350 -43.0347 -43.0346
   -43.0314 -43.0313 -43.0310 -43.0308 -43.0300 -43.0300 -43.0264 -43.0263
   -43.0237 -43.0237 -43.0227 -43.0227 -43.0222 -43.0220 -43.0217 -43.0216
   -43.0197 -43.0196 -43.0179 -43.0178 -43.0171 -43.0170 -43.0107 -43.0106
   -43.0091 -43.0091 -42.9580 -42.9579 -42.9564 -42.9563 -42.9212 -42.9211
   -42.9168 -42.9167 -42.9055 -42.9054 -17.0336 -17.0332 -17.0314 -17.0306
   -17.0282 -17.0281 -17.0244 -17.0244 -17.0072 -17.0067 -17.0053 -17.0042
   -17.0019 -17.0017 -17.0014 -17.0014 -16.9963 -16.9962 -16.9926 -16.9917
   -16.9899 -16.9893 -16.9892 -16.9885 -16.9879 -16.9873 -16.9784 -16.9783
   -16.9772 -16.9771 -16.9748 -16.9737 -16.9714 -16.9698 -16.9690 -16.9689
   -16.9671 -16.9670 -16.9668 -16.9666 -16.9549 -16.9549 -16.9501 -16.9492
   -16.9477 -16.9466 -16.9454 -16.9452 -16.9436 -16.9436 -16.9405 -16.9404
   -16.9325 -16.9324 -16.9287 -16.9287 -16.9137 -16.9137 -16.9109 -16.9108
    -8.1951  -8.1856  -8.1754  -8.1648  -8.1578  -8.1393  -8.1308  -8.1243
    -8.1167  -8.1162  -8.0345  -8.0344  -2.6571  -2.6281  -2.5973  -2.5756
    -2.5746  -2.4148  -2.4115  -2.4029  -2.3967  -2.3855  -2.3568  -2.3556
    -0.2780  -0.1705  -0.1359  -0.0399  -0.0058   0.1473   0.1972   0.2968
     0.3231   0.3526   0.3877   0.4396   0.7534   0.7823   0.8324   0.8488
     0.8763   0.9973   1.0390   1.1607   1.2248   1.3008   1.3958   1.5269
     2.2316   2.3578   2.4603   2.5821   2.7240   2.8441   2.9586   3.0306
     3.0777   3.1082   3.1098   3.1157   6.4712   6.5556   6.6780   6.7454
     6.8080   6.9040   6.9568   6.9814   7.1079   7.1440   7.2682   7.4142
     8.3342   8.3355   8.3963   8.4218   8.4476   8.5054   8.5649   8.6170
     8.6247   8.6536   8.6810   8.7814   9.2369   9.2815   9.6092   9.7279
     9.9922  10.1301  10.2357  10.3724  10.4231  10.4370  10.4821  10.5488
    10.5832  10.6042  10.6560  10.6870  10.7726  10.8228  11.0547  11.1053
    11.2386  11.3364  11.3971  11.4261  11.5191  11.6375  11.8524  11.9721
    12.0779  12.1679  12.2764  12.4291  12.6022  12.6613  12.8395  12.9348
    13.1041  13.1091  13.2115  13.2423  13.3326  13.3597  13.5021  13.6327
    13.7102  13.7691

          k = 0.4250 0.3730 0.0000 ( 39180 PWs)   bands (ev):

   -43.0654 -43.0653 -43.0649 -43.0647 -43.0639 -43.0637 -43.0634 -43.0632
   -43.0603 -43.0603 -43.0588 -43.0587 -43.0536 -43.0535 -43.0521 -43.0520
   -43.0520 -43.0520 -43.0506 -43.0506 -43.0352 -43.0350 -43.0347 -43.0346
   -43.0314 -43.0313 -43.0310 -43.0308 -43.0300 -43.0299 -43.0264 -43.0263
   -43.0237 -43.0236 -43.0227 -43.0227 -43.0222 -43.0221 -43.0218 -43.0216
   -43.0197 -43.0196 -43.0178 -43.0178 -43.0171 -43.0170 -43.0107 -43.0106
   -43.0092 -43.0091 -42.9580 -42.9579 -42.9564 -42.9563 -42.9212 -42.9211
   -42.9168 -42.9167 -42.9055 -42.9054 -17.0331 -17.0324 -17.0310 -17.0298
   -17.0275 -17.0273 -17.0239 -17.0238 -17.0078 -17.0068 -17.0058 -17.0043
   -17.0021 -17.0018 -17.0015 -17.0014 -16.9963 -16.9962 -16.9929 -16.9917
   -16.9903 -16.9887 -16.9886 -16.9882 -16.9879 -16.9870 -16.9785 -16.9783
   -16.9774 -16.9772 -16.9753 -16.9736 -16.9719 -16.9696 -16.9690 -16.9690
   -16.9674 -16.9673 -16.9668 -16.9665 -16.9551 -16.9550 -16.9507 -16.9494
   -16.9483 -16.9466 -16.9454 -16.9452 -16.9435 -16.9435 -16.9406 -16.9406
   -16.9324 -16.9324 -16.9288 -16.9287 -16.9139 -16.9139 -16.9112 -16.9111
    -8.2441  -8.2306  -8.2146  -8.1969  -8.1758  -8.1599  -8.1409  -8.1247
    -8.1126  -8.1082  -8.0428  -8.0427  -2.7459  -2.7054  -2.6566  -2.6156
    -2.5979  -2.4074  -2.4065  -2.3732  -2.3711  -2.3592  -2.3287  -2.3268
    -0.3032  -0.2020  -0.0631  -0.0328   0.0471   0.1432   0.2328   0.2703
     0.3023   0.4506   0.4915   0.5551   0.7882   0.8344   0.9029   0.9720
     0.9979   1.0939   1.2083   1.2331   1.3442   1.4150   1.6102   1.7467
     2.1608   2.3691   2.4205   2.6081   2.6713   2.8755   2.9335   3.0695
     3.0949   3.1544   3.1555   3.1598   6.2238   6.3858   6.5949   6.7400
     6.8267   6.9444   6.9947   7.0450   7.1533   7.2050   7.3759   7.5451
     8.1367   8.1594   8.1989   8.2753   8.3150   8.4101   8.4506   8.5914
     8.5975   8.6132   8.6772   8.8215   9.1553   9.2310   9.4589   9.6814
     9.7853   9.9534  10.0287  10.1556  10.1601  10.2846  10.3978  10.4276
    10.5068  10.5211  10.5876  10.5997  10.7056  10.7301  10.9403  11.0557
    11.1472  11.1970  11.3673  11.3860  11.5511  11.5965  11.7285  11.9519
    12.1019  12.1447  12.2796  12.4714  12.5969  12.7704  12.8229  12.9175
    13.1314  13.2315  13.2365  13.3157  13.3590  13.3886  13.5294  13.7163
    13.8036  13.8291

          k = 0.4000 0.3511 0.0000 ( 39153 PWs)   bands (ev):

   -43.0653 -43.0652 -43.0649 -43.0647 -43.0638 -43.0637 -43.0634 -43.0632
   -43.0603 -43.0603 -43.0588 -43.0587 -43.0536 -43.0535 -43.0521 -43.0520
   -43.0520 -43.0519 -43.0506 -43.0506 -43.0352 -43.0350 -43.0347 -43.0346
   -43.0314 -43.0312 -43.0310 -43.0308 -43.0300 -43.0300 -43.0263 -43.0263
   -43.0237 -43.0236 -43.0227 -43.0226 -43.0222 -43.0220 -43.0218 -43.0216
   -43.0197 -43.0196 -43.0178 -43.0178 -43.0171 -43.0170 -43.0107 -43.0106
   -43.0092 -43.0091 -42.9580 -42.9579 -42.9565 -42.9563 -42.9212 -42.9210
   -42.9168 -42.9166 -42.9055 -42.9054 -17.0325 -17.0314 -17.0304 -17.0288
   -17.0266 -17.0264 -17.0231 -17.0230 -17.0085 -17.0070 -17.0065 -17.0046
   -17.0026 -17.0024 -17.0014 -17.0013 -16.9960 -16.9960 -16.9932 -16.9918
   -16.9907 -16.9881 -16.9880 -16.9879 -16.9877 -16.9865 -16.9786 -16.9782
   -16.9777 -16.9775 -16.9759 -16.9738 -16.9725 -16.9696 -16.9692 -16.9689
   -16.9678 -16.9677 -16.9667 -16.9663 -16.9552 -16.9552 -16.9513 -16.9498
   -16.9489 -16.9467 -16.9454 -16.9452 -16.9435 -16.9435 -16.9409 -16.9408
   -16.9323 -16.9322 -16.9288 -16.9287 -16.9142 -16.9142 -16.9115 -16.9114
    -8.3058  -8.2884  -8.2667  -8.2418  -8.2089  -8.1970  -8.1528  -8.1274
    -8.1082  -8.0983  -8.0464  -8.0463  -2.8392  -2.7866  -2.7188  -2.6534
    -2.6122  -2.4121  -2.4120  -2.3530  -2.3446  -2.3236  -2.2922  -2.2894
    -0.3073  -0.2134  -0.0836   0.0532   0.1021   0.1890   0.2317   0.2519
     0.3878   0.5708   0.6131   0.7034   0.8307   0.9069   0.9614   1.1310
     1.1770   1.2525   1.3103   1.3803   1.4394   1.6411   1.8416   1.9768
     2.1165   2.3073   2.4879   2.5683   2.6980   2.8643   2.9650   3.0767
     3.1496   3.1901   3.2258   3.2281   5.9703   6.2013   6.5019   6.7416
     6.8572   6.9942   7.0380   7.1003   7.1934   7.2576   7.4599   7.5802
     7.8627   7.8956   7.9636   8.0998   8.1408   8.2877   8.3504   8.5401
     8.5574   8.5833   8.6923   8.8666   9.0585   9.1378   9.2525   9.4608
     9.6043   9.6744   9.7204   9.8477  10.0752  10.1628  10.3114  10.3400
    10.4111  10.4369  10.4781  10.5104  10.5450  10.7029  10.8037  10.8783
    11.0982  11.1742  11.3613  11.4008  11.5037  11.5755  11.7226  11.9599
    12.1327  12.1441  12.3146  12.4768  12.5779  12.7685  12.8779  12.9354
    13.1049  13.2181  13.2813  13.3267  13.3968  13.4613  13.6296  13.7774
    13.7867  13.8295

          k = 0.3750 0.3292 0.0000 ( 39143 PWs)   bands (ev):

   -43.0654 -43.0653 -43.0649 -43.0647 -43.0639 -43.0638 -43.0634 -43.0632
   -43.0603 -43.0603 -43.0588 -43.0588 -43.0536 -43.0535 -43.0521 -43.0521
   -43.0520 -43.0519 -43.0507 -43.0506 -43.0352 -43.0350 -43.0347 -43.0345
   -43.0314 -43.0313 -43.0310 -43.0308 -43.0300 -43.0299 -43.0263 -43.0263
   -43.0237 -43.0236 -43.0227 -43.0226 -43.0222 -43.0221 -43.0218 -43.0216
   -43.0197 -43.0196 -43.0178 -43.0178 -43.0171 -43.0170 -43.0107 -43.0106
   -43.0092 -43.0091 -42.9580 -42.9579 -42.9565 -42.9563 -42.9211 -42.9210
   -42.9168 -42.9166 -42.9055 -42.9054 -17.0318 -17.0302 -17.0296 -17.0277
   -17.0255 -17.0252 -17.0222 -17.0221 -17.0094 -17.0074 -17.0072 -17.0052
   -17.0032 -17.0031 -17.0014 -17.0013 -16.9956 -16.9955 -16.9935 -16.9920
   -16.9911 -16.9881 -16.9875 -16.9871 -16.9870 -16.9860 -16.9789 -16.9782
   -16.9780 -16.9778 -16.9765 -16.9740 -16.9732 -16.9698 -16.9696 -16.9687
   -16.9682 -16.9681 -16.9664 -16.9660 -16.9554 -16.9553 -16.9519 -16.9502
   -16.9496 -16.9469 -16.9454 -16.9453 -16.9435 -16.9435 -16.9411 -16.9410
   -16.9322 -16.9321 -16.9287 -16.9287 -16.9146 -16.9146 -16.9118 -16.9117
    -8.3779  -8.3569  -8.3300  -8.2987  -8.2593  -8.2486  -8.1624  -8.1305
    -8.1044  -8.0883  -8.0453  -8.0452  -2.9306  -2.8667  -2.7802  -2.6887
    -2.6175  -2.4171  -2.4167  -2.3416  -2.3141  -2.2812  -2.2474  -2.2420
    -0.2871  -0.1998  -0.0799   0.0494   0.1600   0.2196   0.2711   0.3680
     0.5143   0.6923   0.7193   0.8687   0.8766   0.9887   1.0648   1.2505
     1.3777   1.4152   1.4248   1.5066   1.6568   1.8691   2.0652   2.1261
     2.1979   2.2818   2.5075   2.6031   2.7318   2.8716   3.0143   3.0916
     3.2101   3.2369   3.3164   3.3210   5.7270   6.0144   6.3931   6.7330
     6.8956   7.0438   7.0794   7.1345   7.2268   7.2829   7.4270   7.4748
     7.5484   7.6412   7.7356   7.9191   7.9844   8.1286   8.1900   8.4759
     8.5120   8.5726   8.7176   8.8808   8.9348   9.0434   9.0639   9.1682
     9.2656   9.3535   9.3884   9.7065  10.0084  10.1337  10.1989  10.2598
    10.2969  10.3363  10.3689  10.3927  10.4185  10.6214  10.6774  10.8067
    11.0202  11.1663  11.3781  11.4281  11.4870  11.5684  11.8025  11.9827
    12.1272  12.1964  12.3702  12.4534  12.6017  12.7881  12.8800  13.0004
    13.0389  13.1997  13.2727  13.3391  13.3493  13.4671  13.6373  13.7101
    13.7501  13.8444

          k = 0.3500 0.3072 0.0000 ( 39136 PWs)   bands (ev):

   -43.0654 -43.0653 -43.0649 -43.0647 -43.0638 -43.0637 -43.0634 -43.0632
   -43.0603 -43.0603 -43.0588 -43.0588 -43.0536 -43.0535 -43.0521 -43.0520
   -43.0520 -43.0520 -43.0506 -43.0506 -43.0352 -43.0350 -43.0347 -43.0346
   -43.0314 -43.0313 -43.0310 -43.0308 -43.0300 -43.0300 -43.0264 -43.0263
   -43.0237 -43.0237 -43.0227 -43.0227 -43.0222 -43.0221 -43.0218 -43.0216
   -43.0198 -43.0197 -43.0178 -43.0178 -43.0171 -43.0170 -43.0107 -43.0106
   -43.0092 -43.0091 -42.9580 -42.9579 -42.9564 -42.9563 -42.9212 -42.9211
   -42.9168 -42.9167 -42.9055 -42.9054 -17.0309 -17.0290 -17.0286 -17.0264
   -17.0242 -17.0239 -17.0211 -17.0210 -17.0105 -17.0084 -17.0077 -17.0059
   -17.0040 -17.0039 -17.0017 -17.0016 -16.9948 -16.9948 -16.9937 -16.9921
   -16.9914 -16.9881 -16.9871 -16.9862 -16.9861 -16.9856 -16.9795 -16.9786
   -16.9780 -16.9780 -16.9771 -16.9743 -16.9738 -16.9701 -16.9700 -16.9687
   -16.9687 -16.9681 -16.9661 -16.9656 -16.9556 -16.9555 -16.9526 -16.9507
   -16.9503 -16.9471 -16.9456 -16.9454 -16.9436 -16.9436 -16.9413 -16.9412
   -16.9320 -16.9319 -16.9286 -16.9286 -16.9150 -16.9150 -16.9121 -16.9121
    -8.4582  -8.4339  -8.4022  -8.3653  -8.3221  -8.3110  -8.1709  -8.1341
    -8.1015  -8.0788  -8.0411  -8.0408  -3.0149  -2.9409  -2.8375  -2.7211
    -2.6160  -2.4224  -2.4136  -2.3252  -2.2759  -2.2307  -2.1923  -2.1837
    -0.2429  -0.1617  -0.0516   0.0652   0.1653   0.2177   0.4304   0.5151
     0.6444   0.7689   0.8041   0.9135   1.0288   1.0889   1.1964   1.3784
     1.4869   1.5158   1.6576   1.7245   1.8731   2.0808   2.1990   2.2555
     2.3284   2.3924   2.4967   2.7138   2.7470   2.9667   3.0101   3.1834
     3.2236   3.3430   3.4215   3.4313   5.5144   5.8415   6.2698   6.6790
     6.9155   7.0649   7.0788   7.1218   7.1465   7.2192   7.2826   7.2945
     7.3718   7.4924   7.5343   7.7242   7.8100   7.9245   7.9519   8.4432
     8.4740   8.5699   8.7175   8.7429   8.8053   8.8705   8.9114   8.9826
     8.9913   9.0369   9.1196   9.6649   9.9134  10.0487  10.0920  10.1521
    10.1967  10.2177  10.2368  10.2889  10.4437  10.4913  10.5722  10.8669
    10.9341  11.1087  11.4238  11.4837  11.5393  11.5568  11.8934  12.0076
    12.1396  12.2764  12.4375  12.4678  12.5950  12.8292  12.9004  12.9196
    13.0250  13.1632  13.1848  13.2728  13.3478  13.3827  13.4872  13.5536
    13.5603  13.5960

          k = 0.3250 0.2853 0.0000 ( 39115 PWs)   bands (ev):

   -43.0654 -43.0653 -43.0649 -43.0647 -43.0639 -43.0637 -43.0634 -43.0632
   -43.0603 -43.0603 -43.0588 -43.0587 -43.0536 -43.0535 -43.0521 -43.0520
   -43.0520 -43.0520 -43.0506 -43.0506 -43.0352 -43.0350 -43.0347 -43.0346
   -43.0314 -43.0312 -43.0310 -43.0308 -43.0300 -43.0300 -43.0263 -43.0263
   -43.0238 -43.0237 -43.0227 -43.0227 -43.0222 -43.0221 -43.0218 -43.0216
   -43.0197 -43.0197 -43.0178 -43.0178 -43.0171 -43.0170 -43.0107 -43.0106
   -43.0092 -43.0091 -42.9581 -42.9579 -42.9564 -42.9563 -42.9212 -42.9211
   -42.9168 -42.9167 -42.9055 -42.9054 -17.0299 -17.0278 -17.0273 -17.0251
   -17.0229 -17.0226 -17.0200 -17.0199 -17.0115 -17.0094 -17.0083 -17.0067
   -17.0048 -17.0048 -17.0021 -17.0021 -16.9939 -16.9938 -16.9937 -16.9922
   -16.9916 -16.9882 -16.9869 -16.9853 -16.9852 -16.9851 -16.9802 -16.9792
   -16.9783 -16.9780 -16.9776 -16.9747 -16.9744 -16.9706 -16.9705 -16.9692
   -16.9692 -16.9676 -16.9656 -16.9652 -16.9557 -16.9557 -16.9533 -16.9512
   -16.9510 -16.9474 -16.9458 -16.9456 -16.9438 -16.9438 -16.9413 -16.9413
   -16.9317 -16.9316 -16.9285 -16.9284 -16.9156 -16.9156 -16.9125 -16.9124
    -8.5440  -8.5168  -8.4808  -8.4391  -8.3932  -8.3809  -8.1795  -8.1383
    -8.0995  -8.0703  -8.0354  -8.0343  -3.0875  -3.0053  -2.8875  -2.7496
    -2.6123  -2.4293  -2.3945  -2.2935  -2.2252  -2.1688  -2.1252  -2.1134
    -0.1771  -0.1015  -0.0010   0.1026   0.1922   0.2417   0.5584   0.6528
     0.7606   0.7949   0.8993   0.9365   1.1595   1.1924   1.3131   1.5101
     1.6245   1.6618   1.8810   1.9458   2.0763   2.2691   2.3311   2.3740
     2.4752   2.5261   2.5563   2.7116   2.8998   3.0120   3.1180   3.2249
     3.3216   3.4616   3.5298   3.5340   5.3627   5.7071   6.1476   6.5486
     6.7611   6.7822   7.0134   7.0297   7.1127   7.1787   7.2189   7.2876
     7.3126   7.3308   7.3702   7.5274   7.5892   7.6348   7.7119   8.4340
     8.4420   8.5338   8.5591   8.5756   8.6140   8.6286   8.6532   8.7353
     8.9011   9.0083   9.1600   9.6405   9.7724   9.8831   9.9330   9.9957
    10.0439  10.0624  10.1997  10.3637  10.3683  10.4011  10.6697  10.8143
    10.9273  11.1308  11.4314  11.4812  11.6001  11.6205  11.9644  12.0631
    12.1924  12.3706  12.4603  12.5160  12.5761  12.7604  12.8154  12.9130
    12.9759  13.0499  13.0758  13.1038  13.1254  13.1543  13.2395  13.3032
    13.3582  13.3890

          k = 0.3000 0.2633 0.0000 ( 39103 PWs)   bands (ev):

   -43.0654 -43.0653 -43.0649 -43.0647 -43.0639 -43.0637 -43.0634 -43.0632
   -43.0603 -43.0603 -43.0588 -43.0588 -43.0536 -43.0535 -43.0521 -43.0521
   -43.0520 -43.0520 -43.0506 -43.0506 -43.0352 -43.0350 -43.0348 -43.0346
   -43.0315 -43.0312 -43.0310 -43.0308 -43.0300 -43.0300 -43.0264 -43.0263
   -43.0238 -43.0237 -43.0227 -43.0227 -43.0222 -43.0220 -43.0218 -43.0216
   -43.0198 -43.0197 -43.0179 -43.0178 -43.0171 -43.0170 -43.0107 -43.0106
   -43.0092 -43.0091 -42.9581 -42.9580 -42.9564 -42.9563 -42.9212 -42.9211
   -42.9168 -42.9167 -42.9055 -42.9054 -17.0289 -17.0268 -17.0259 -17.0237
   -17.0216 -17.0213 -17.0188 -17.0188 -17.0126 -17.0104 -17.0092 -17.0076
   -17.0058 -17.0057 -17.0028 -17.0028 -16.9940 -16.9927 -16.9927 -16.9921
   -16.9917 -16.9884 -16.9869 -16.9850 -16.9845 -16.9843 -16.9811 -16.9798
   -16.9787 -16.9780 -16.9777 -16.9750 -16.9749 -16.9711 -16.9711 -16.9697
   -16.9697 -16.9670 -16.9650 -16.9646 -16.9559 -16.9558 -16.9540 -16.9517
   -16.9516 -16.9477 -16.9460 -16.9458 -16.9442 -16.9442 -16.9413 -16.9413
   -16.9314 -16.9313 -16.9282 -16.9282 -16.9162 -16.9162 -16.9129 -16.9128
    -8.6329  -8.6031  -8.5635  -8.5175  -8.4694  -8.4555  -8.1888  -8.1433
    -8.0987  -8.0632  -8.0289  -8.0266  -3.1453  -3.0566  -2.9273  -2.7718
    -2.6093  -2.4359  -2.3528  -2.2419  -2.1593  -2.0935  -2.0448  -2.0303
    -0.0922  -0.0223   0.0684   0.1578   0.2371   0.2909   0.5685   0.7402
     0.8541   0.8972   0.9539   0.9961   1.2670   1.2851   1.3985   1.6215
     1.7838   1.8489   2.0707   2.1549   2.2719   2.4420   2.4940   2.5147
     2.6106   2.6218   2.6580   2.7463   2.9566   3.1599   3.2164   3.3043
     3.4583   3.5747   3.5973   3.6207   5.3067   5.6403   6.0558   6.3856
     6.4757   6.5036   6.8912   6.9331   7.0136   7.0970   7.1189   7.1501
     7.2063   7.2763   7.3237   7.3252   7.3512   7.4773   7.5233   8.2780
     8.2827   8.3072   8.3660   8.4656   8.4802   8.4933   8.6380   8.6868
     8.9128   9.0145   9.1878   9.5853   9.6232   9.7451   9.7652   9.8286
     9.8669   9.8768  10.1050  10.2693  10.3446  10.5813  10.7244  10.8784
    10.9013  11.2299  11.3848  11.4622  11.6281  11.7446  12.0096  12.1381
    12.2404  12.3787  12.4843  12.4970  12.5658  12.6391  12.6962  12.7201
    12.7265  12.7656  12.8044  12.9244  12.9978  13.0388  13.0685  13.1117
    13.2488  13.2884

          k = 0.2750 0.2414 0.0000 ( 39070 PWs)   bands (ev):

   -43.0654 -43.0652 -43.0649 -43.0647 -43.0639 -43.0637 -43.0634 -43.0632
   -43.0603 -43.0603 -43.0588 -43.0588 -43.0536 -43.0535 -43.0522 -43.0521
   -43.0520 -43.0519 -43.0507 -43.0506 -43.0352 -43.0350 -43.0347 -43.0345
   -43.0314 -43.0312 -43.0309 -43.0308 -43.0300 -43.0299 -43.0263 -43.0263
   -43.0237 -43.0236 -43.0227 -43.0227 -43.0222 -43.0220 -43.0218 -43.0216
   -43.0197 -43.0196 -43.0178 -43.0178 -43.0171 -43.0170 -43.0107 -43.0106
   -43.0092 -43.0091 -42.9580 -42.9579 -42.9565 -42.9563 -42.9212 -42.9210
   -42.9168 -42.9166 -42.9055 -42.9054 -17.0280 -17.0258 -17.0245 -17.0224
   -17.0206 -17.0203 -17.0177 -17.0176 -17.0133 -17.0114 -17.0102 -17.0086
   -17.0067 -17.0066 -17.0037 -17.0036 -16.9940 -16.9922 -16.9919 -16.9913
   -16.9912 -16.9886 -16.9870 -16.9850 -16.9842 -16.9838 -16.9818 -16.9802
   -16.9791 -16.9781 -16.9778 -16.9753 -16.9753 -16.9717 -16.9716 -16.9703
   -16.9702 -16.9662 -16.9643 -16.9638 -16.9562 -16.9561 -16.9547 -16.9523
   -16.9520 -16.9481 -16.9463 -16.9461 -16.9446 -16.9446 -16.9413 -16.9412
   -16.9311 -16.9310 -16.9278 -16.9278 -16.9168 -16.9168 -16.9132 -16.9131
    -8.7225  -8.6906  -8.6476  -8.5980  -8.5478  -8.5324  -8.1990  -8.1494
    -8.0992  -8.0577  -8.0226  -8.0183  -3.1859  -3.0923  -2.9542  -2.7854
    -2.6055  -2.4386  -2.2872  -2.1702  -2.0772  -2.0038  -1.9508  -1.9340
     0.0087   0.0719   0.1518   0.2236   0.2828   0.3625   0.5126   0.7339
     0.9296   1.0139   1.0501   1.0783   1.3640   1.3769   1.4804   1.6936
     1.9210   2.0359   2.2179   2.3286   2.4509   2.5953   2.6704   2.6814
     2.7130   2.7180   2.7395   2.8307   3.0100   3.2545   3.3218   3.4402
     3.5702   3.6295   3.6660   3.6875   5.3560   5.6573   6.0203   6.2376
     6.2569   6.3194   6.6804   6.7306   6.8151   6.8863   6.9498   6.9745
     7.0769   7.1062   7.1809   7.2337   7.3464   7.5000   7.5157   8.0590
     8.0676   8.1135   8.2415   8.3883   8.4644   8.4921   8.6253   8.6750
     8.8920   9.0317   9.1742   9.3975   9.5483   9.5959   9.6146   9.6465
     9.6857   9.7376   9.9976  10.2075  10.3134  10.6572  10.8051  10.9064
    11.1302  11.1883  11.3494  11.5246  11.6521  11.8282  12.0259  12.1388
    12.2035  12.3259  12.3437  12.3484  12.3953  12.4073  12.4637  12.5446
    12.5867  12.6609  12.7067  12.7288  12.7920  12.8834  13.0477  13.1545
    13.2108  13.2761

          k = 0.2500 0.2194 0.0000 ( 39092 PWs)   bands (ev):

   -43.0654 -43.0653 -43.0649 -43.0648 -43.0639 -43.0638 -43.0634 -43.0633
   -43.0604 -43.0603 -43.0588 -43.0588 -43.0537 -43.0536 -43.0522 -43.0521
   -43.0520 -43.0520 -43.0507 -43.0507 -43.0352 -43.0350 -43.0348 -43.0346
   -43.0315 -43.0312 -43.0310 -43.0308 -43.0300 -43.0300 -43.0264 -43.0264
   -43.0238 -43.0236 -43.0227 -43.0227 -43.0222 -43.0221 -43.0218 -43.0216
   -43.0198 -43.0197 -43.0179 -43.0178 -43.0171 -43.0171 -43.0107 -43.0106
   -43.0092 -43.0092 -42.9581 -42.9580 -42.9565 -42.9564 -42.9212 -42.9211
   -42.9168 -42.9167 -42.9056 -42.9055 -17.0273 -17.0252 -17.0232 -17.0214
   -17.0201 -17.0195 -17.0165 -17.0164 -17.0137 -17.0121 -17.0111 -17.0095
   -17.0075 -17.0075 -17.0046 -17.0045 -16.9940 -16.9919 -16.9917 -16.9902
   -16.9902 -16.9890 -16.9873 -16.9854 -16.9846 -16.9834 -16.9822 -16.9804
   -16.9793 -16.9782 -16.9779 -16.9755 -16.9755 -16.9722 -16.9721 -16.9707
   -16.9707 -16.9655 -16.9635 -16.9630 -16.9565 -16.9563 -16.9553 -16.9529
   -16.9524 -16.9485 -16.9467 -16.9464 -16.9451 -16.9450 -16.9412 -16.9411
   -16.9307 -16.9306 -16.9273 -16.9273 -16.9175 -16.9175 -16.9135 -16.9134
    -8.8108  -8.7769  -8.7311  -8.6783  -8.6262  -8.6092  -8.2103  -8.1566
    -8.1009  -8.0538  -8.0166  -8.0101  -3.2082  -3.1112  -2.9666  -2.7881
    -2.5968  -2.4337  -2.2001  -2.0794  -1.9790  -1.8997  -1.8432  -1.8249
     0.1220   0.1735   0.2408   0.2781   0.2878   0.4522   0.5047   0.6929
     0.9383   1.0985   1.1757   1.1857   1.4605   1.4783   1.5770   1.7452
     2.0074   2.1823   2.3217   2.4432   2.5694   2.6798   2.6965   2.7217
     2.8714   2.8726   2.8994   2.9745   3.1078   3.3179   3.3751   3.5209
     3.6292   3.7119   3.7280   3.7570   5.4702   5.7351   6.0210   6.1131
     6.1802   6.2702   6.4511   6.4799   6.6298   6.7010   6.7262   6.7534
     6.9618   6.9876   7.0724   7.2286   7.3791   7.5327   7.5476   7.9326
     7.9600   8.0058   8.1437   8.3121   8.4525   8.4792   8.5983   8.6731
     8.8486   9.0227   9.1191   9.2196   9.3968   9.4028   9.4404   9.4635
     9.5482   9.7185   9.8881  10.1770  10.3035  10.6037  10.7789  11.0794
    11.2028  11.2128  11.3952  11.5167  11.7860  11.8498  11.9580  12.0054
    12.0351  12.0488  12.0793  12.1548  12.1651  12.3257  12.4002  12.4282
    12.4521  12.4970  12.5553  12.6829  12.7553  13.0113  13.0343  13.1498
    13.1902  13.2953

          k = 0.2250 0.1975 0.0000 ( 39078 PWs)   bands (ev):

   -43.0655 -43.0653 -43.0649 -43.0648 -43.0639 -43.0638 -43.0634 -43.0633
   -43.0603 -43.0603 -43.0589 -43.0588 -43.0537 -43.0536 -43.0522 -43.0521
   -43.0520 -43.0520 -43.0507 -43.0507 -43.0352 -43.0350 -43.0348 -43.0346
   -43.0315 -43.0312 -43.0310 -43.0308 -43.0300 -43.0300 -43.0264 -43.0264
   -43.0238 -43.0237 -43.0227 -43.0227 -43.0222 -43.0221 -43.0218 -43.0216
   -43.0198 -43.0197 -43.0179 -43.0179 -43.0171 -43.0171 -43.0107 -43.0106
   -43.0092 -43.0092 -42.9581 -42.9580 -42.9565 -42.9564 -42.9212 -42.9211
   -42.9168 -42.9167 -42.9056 -42.9055 -17.0270 -17.0249 -17.0220 -17.0209
   -17.0200 -17.0189 -17.0154 -17.0152 -17.0136 -17.0125 -17.0118 -17.0105
   -17.0081 -17.0080 -17.0055 -17.0055 -16.9939 -16.9915 -16.9913 -16.9895
   -16.9893 -16.9892 -16.9878 -16.9860 -16.9853 -16.9832 -16.9824 -16.9805
   -16.9794 -16.9782 -16.9780 -16.9756 -16.9755 -16.9726 -16.9725 -16.9711
   -16.9711 -16.9647 -16.9627 -16.9620 -16.9570 -16.9566 -16.9557 -16.9533
   -16.9527 -16.9489 -16.9471 -16.9467 -16.9456 -16.9454 -16.9411 -16.9410
   -16.9303 -16.9302 -16.9268 -16.9268 -16.9182 -16.9182 -16.9138 -16.9137
    -8.8958  -8.8602  -8.8119  -8.7564  -8.7026  -8.6840  -8.2224  -8.1649
    -8.1039  -8.0513  -8.0115  -8.0024  -3.2120  -3.1127  -2.9638  -2.7785
    -2.5800  -2.4192  -2.0944  -1.9715  -1.8657  -1.7821  -1.7231  -1.7039
     0.1828   0.2382   0.3027   0.3041   0.3494   0.5546   0.5739   0.6831
     0.9147   1.1382   1.2685   1.3150   1.5682   1.5842   1.6837   1.8088
     2.0552   2.2709   2.3771   2.4928   2.5958   2.6078   2.6681   2.6756
     3.0299   3.0326   3.0600   3.1199   3.2056   3.3875   3.3966   3.5858
     3.6681   3.7682   3.8081   3.8247   5.5811   5.8100   6.0116   6.0917
     6.1414   6.2146   6.2512   6.4075   6.5268   6.5488   6.6028   6.6409
     6.9063   6.9312   7.0512   7.2308   7.3776   7.5231   7.5693   7.8731
     7.9588   8.0017   8.0701   8.2360   8.4222   8.4428   8.5828   8.6389
     8.8068   8.9578   9.0328   9.0606   9.1837   9.2149   9.2859   9.3176
     9.4784   9.7106   9.8029  10.1663  10.3059  10.5466  10.7273  10.9708
    11.1097  11.2631  11.5584  11.6612  11.7095  11.7515  11.7741  11.7893
    11.8043  11.8597  11.9031  12.0008  12.1437  12.1970  12.2121  12.2833
    12.3634  12.4498  12.5800  12.7193  12.9262  12.9313  13.0113  13.1382
    13.2021  13.3064

          k = 0.2000 0.1756 0.0000 ( 39043 PWs)   bands (ev):

   -43.0655 -43.0652 -43.0649 -43.0647 -43.0640 -43.0638 -43.0635 -43.0633
   -43.0603 -43.0603 -43.0589 -43.0589 -43.0536 -43.0535 -43.0523 -43.0522
   -43.0520 -43.0519 -43.0507 -43.0507 -43.0352 -43.0349 -43.0347 -43.0345
   -43.0315 -43.0312 -43.0310 -43.0308 -43.0299 -43.0299 -43.0263 -43.0263
   -43.0237 -43.0236 -43.0226 -43.0226 -43.0222 -43.0221 -43.0218 -43.0216
   -43.0198 -43.0197 -43.0179 -43.0178 -43.0171 -43.0171 -43.0107 -43.0106
   -43.0092 -43.0092 -42.9581 -42.9579 -42.9566 -42.9564 -42.9211 -42.9210
   -42.9168 -42.9167 -42.9056 -42.9055 -17.0273 -17.0251 -17.0213 -17.0209
   -17.0199 -17.0183 -17.0145 -17.0141 -17.0133 -17.0127 -17.0122 -17.0114
   -17.0084 -17.0084 -17.0063 -17.0062 -16.9938 -16.9913 -16.9909 -16.9899
   -16.9892 -16.9890 -16.9882 -16.9864 -16.9859 -16.9830 -16.9825 -16.9808
   -16.9796 -16.9783 -16.9782 -16.9754 -16.9754 -16.9728 -16.9727 -16.9714
   -16.9714 -16.9640 -16.9619 -16.9609 -16.9575 -16.9570 -16.9560 -16.9537
   -16.9530 -16.9494 -16.9475 -16.9470 -16.9460 -16.9458 -16.9410 -16.9409
   -16.9299 -16.9298 -16.9261 -16.9261 -16.9189 -16.9189 -16.9141 -16.9140
    -8.9757  -8.9387  -8.8883  -8.8304  -8.7751  -8.7552  -8.2352  -8.1740
    -8.1079  -8.0502  -8.0074  -7.9956  -3.1979  -3.0975  -2.9460  -2.7562
    -2.5532  -2.3939  -1.9734  -1.8487  -1.7390  -1.6524  -1.5918  -1.5726
     0.0928   0.2598   0.3879   0.3945   0.4330   0.6621   0.6709   0.7348
     0.9021   1.1400   1.3304   1.4200   1.6825   1.6947   1.7946   1.8951
     2.0924   2.3067   2.3670   2.4508   2.4768   2.5535   2.5643   2.5932
     3.1116   3.1182   3.1613   3.2129   3.2515   3.4446   3.4666   3.6712
     3.7175   3.8141   3.8635   3.8798   5.6230   5.8275   5.9742   6.0370
     6.0766   6.1831   6.2525   6.4223   6.4580   6.5665   6.6081   6.7819
     6.8728   7.0168   7.1291   7.2466   7.3466   7.4865   7.5705   7.8622
     7.9567   8.0680   8.0800   8.1564   8.3707   8.3780   8.5728   8.5874
     8.7646   8.8513   8.9116   8.9517   8.9829   9.0547   9.1690   9.2206
     9.4636   9.6463   9.7828  10.1619  10.3124  10.4817  10.6755  10.8577
    11.0010  11.1299  11.4934  11.5063  11.5151  11.5315  11.5679  11.6009
    11.6979  11.7593  11.8166  11.9445  12.0704  12.1270  12.2352  12.2922
    12.3806  12.4969  12.6962  12.7971  12.8228  12.9131  13.0149  13.1340
    13.1984  13.2555

          k = 0.1750 0.1536 0.0000 ( 39047 PWs)   bands (ev):

   -43.0654 -43.0652 -43.0649 -43.0647 -43.0640 -43.0639 -43.0636 -43.0634
   -43.0603 -43.0603 -43.0590 -43.0589 -43.0536 -43.0535 -43.0523 -43.0522
   -43.0520 -43.0519 -43.0508 -43.0508 -43.0352 -43.0349 -43.0347 -43.0345
   -43.0315 -43.0312 -43.0310 -43.0308 -43.0299 -43.0299 -43.0263 -43.0263
   -43.0237 -43.0236 -43.0226 -43.0226 -43.0223 -43.0221 -43.0219 -43.0217
   -43.0197 -43.0196 -43.0178 -43.0178 -43.0172 -43.0171 -43.0108 -43.0107
   -43.0093 -43.0092 -42.9580 -42.9579 -42.9566 -42.9565 -42.9211 -42.9210
   -42.9168 -42.9167 -42.9056 -42.9055 -17.0282 -17.0256 -17.0215 -17.0212
   -17.0191 -17.0176 -17.0143 -17.0136 -17.0131 -17.0126 -17.0120 -17.0117
   -17.0088 -17.0088 -17.0066 -17.0065 -16.9936 -16.9912 -16.9907 -16.9900
   -16.9898 -16.9894 -16.9887 -16.9864 -16.9862 -16.9826 -16.9824 -16.9811
   -16.9800 -16.9785 -16.9785 -16.9752 -16.9752 -16.9729 -16.9728 -16.9715
   -16.9715 -16.9633 -16.9613 -16.9599 -16.9579 -16.9573 -16.9562 -16.9541
   -16.9533 -16.9499 -16.9478 -16.9474 -16.9464 -16.9461 -16.9409 -16.9409
   -16.9295 -16.9294 -16.9254 -16.9254 -16.9196 -16.9196 -16.9143 -16.9143
    -9.0493  -9.0110  -8.9589  -8.8990  -8.8422  -8.8211  -8.2482  -8.1835
    -8.1127  -8.0503  -8.0042  -7.9898  -3.1680  -3.0671  -2.9144  -2.7220
    -2.5165  -2.3583  -1.8407  -1.7140  -1.6014  -1.5132  -1.4519  -1.4335
     0.0030   0.2026   0.4247   0.5165   0.5305   0.7662   0.7725   0.8298
     0.9343   1.1276   1.3494   1.4860   1.7950   1.8048   1.9053   1.9898
     2.1103   2.2599   2.2735   2.3250   2.4004   2.4484   2.4678   2.4752
     3.1079   3.1213   3.1817   3.2445   3.2808   3.4846   3.5120   3.7264
     3.7620   3.8562   3.9008   3.9190   5.5909   5.8076   5.9656   6.0316
     6.0397   6.2805   6.3052   6.4796   6.5377   6.6634   6.7406   6.9236
     6.9875   7.1480   7.2222   7.3058   7.3109   7.4572   7.5428   7.8811
     7.9356   8.0677   8.1524   8.1755   8.2931   8.3171   8.5224   8.5893
     8.6989   8.7581   8.8181   8.8488   8.9015   8.9602   9.0931   9.1753
     9.4629   9.5763   9.7722  10.1527  10.3205  10.4201  10.6180  10.7436
    10.8929  11.0075  11.2482  11.2625  11.3193  11.3406  11.3906  11.4405
    11.5551  11.6322  11.6518  11.8303  11.9655  12.1939  12.3113  12.4467
    12.5071  12.6385  12.7006  12.7718  12.8010  12.9016  12.9962  13.1618
    13.1930  13.2627

          k = 0.1500 0.1317 0.0000 ( 39043 PWs)   bands (ev):

   -43.0654 -43.0652 -43.0649 -43.0647 -43.0641 -43.0640 -43.0636 -43.0634
   -43.0603 -43.0603 -43.0590 -43.0590 -43.0536 -43.0535 -43.0524 -43.0523
   -43.0520 -43.0519 -43.0509 -43.0508 -43.0352 -43.0348 -43.0347 -43.0345
   -43.0314 -43.0312 -43.0309 -43.0308 -43.0299 -43.0299 -43.0263 -43.0263
   -43.0237 -43.0236 -43.0226 -43.0226 -43.0223 -43.0221 -43.0219 -43.0217
   -43.0197 -43.0196 -43.0178 -43.0178 -43.0172 -43.0171 -43.0108 -43.0107
   -43.0093 -43.0092 -42.9580 -42.9579 -42.9567 -42.9566 -42.9211 -42.9210
   -42.9168 -42.9166 -42.9056 -42.9055 -17.0293 -17.0264 -17.0223 -17.0216
   -17.0182 -17.0172 -17.0146 -17.0135 -17.0133 -17.0124 -17.0113 -17.0109
   -17.0094 -17.0093 -17.0064 -17.0063 -16.9935 -16.9916 -16.9910 -16.9908
   -16.9902 -16.9894 -16.9891 -16.9865 -16.9864 -16.9821 -16.9820 -16.9813
   -16.9804 -16.9790 -16.9789 -16.9751 -16.9751 -16.9727 -16.9727 -16.9715
   -16.9715 -16.9627 -16.9609 -16.9592 -16.9584 -16.9574 -16.9562 -16.9543
   -16.9536 -16.9503 -16.9481 -16.9476 -16.9467 -16.9463 -16.9409 -16.9408
   -16.9291 -16.9290 -16.9247 -16.9247 -16.9202 -16.9202 -16.9145 -16.9145
    -9.1152  -9.0759  -9.0223  -8.9607  -8.9027  -8.8805  -8.2610  -8.1931
    -8.1180  -8.0512  -8.0020  -7.9852  -3.1250  -3.0244  -2.8714  -2.6780
    -2.4711  -2.3140  -1.7008  -1.5714  -1.4563  -1.3676  -1.3067  -1.2900
    -0.0757   0.1346   0.4032   0.6031   0.6421   0.8628   0.8699   0.9390
     1.0106   1.1339   1.3346   1.5028   1.8775   1.8881   1.9801   2.0125
     2.0733   2.1672   2.1898   2.2207   2.2671   2.3146   2.3939   2.4900
     3.0383   3.0581   3.1304   3.2219   3.3013   3.4802   3.5249   3.7257
     3.7713   3.8762   3.9267   3.9422   5.5258   5.7848   6.0393   6.1099
     6.1384   6.3820   6.4116   6.6044   6.6657   6.8488   6.9141   7.0068
     7.1359   7.2197   7.2473   7.2992   7.3491   7.4612   7.5077   7.8721
     7.9658   8.0020   8.1927   8.2244   8.2653   8.3302   8.5005   8.5750
     8.6592   8.7197   8.8146   8.8717   8.9205   8.9572   9.0594   9.1587
     9.4427   9.5334   9.7357  10.1331  10.3362  10.3749  10.5508  10.6309
    10.7823  10.8885  11.0086  11.0489  11.1418  11.2243  11.2652  11.3150
    11.4080  11.4958  11.5500  11.7499  11.9076  12.1822  12.2796  12.4876
    12.6095  12.6574  12.6815  12.7865  12.8095  12.9279  13.0417  13.1229
    13.2312  13.2670

          k = 0.1250 0.1097 0.0000 ( 39048 PWs)   bands (ev):

   -43.0654 -43.0652 -43.0649 -43.0647 -43.0641 -43.0640 -43.0636 -43.0635
   -43.0603 -43.0602 -43.0591 -43.0590 -43.0536 -43.0535 -43.0524 -43.0523
   -43.0520 -43.0519 -43.0509 -43.0509 -43.0351 -43.0349 -43.0346 -43.0344
   -43.0314 -43.0312 -43.0309 -43.0308 -43.0299 -43.0299 -43.0263 -43.0263
   -43.0236 -43.0235 -43.0226 -43.0225 -43.0223 -43.0221 -43.0219 -43.0217
   -43.0197 -43.0196 -43.0178 -43.0178 -43.0172 -43.0172 -43.0108 -43.0107
   -43.0093 -43.0093 -42.9580 -42.9579 -42.9567 -42.9566 -42.9211 -42.9209
   -42.9168 -42.9166 -42.9056 -42.9055 -17.0306 -17.0274 -17.0231 -17.0221
   -17.0175 -17.0171 -17.0147 -17.0141 -17.0131 -17.0118 -17.0111 -17.0107
   -17.0096 -17.0095 -17.0059 -17.0058 -16.9934 -16.9921 -16.9919 -16.9917
   -16.9905 -16.9894 -16.9886 -16.9868 -16.9867 -16.9818 -16.9814 -16.9812
   -16.9807 -16.9795 -16.9794 -16.9750 -16.9750 -16.9726 -16.9726 -16.9712
   -16.9712 -16.9623 -16.9607 -16.9589 -16.9587 -16.9571 -16.9561 -16.9546
   -16.9539 -16.9507 -16.9483 -16.9478 -16.9470 -16.9465 -16.9408 -16.9408
   -16.9287 -16.9287 -16.9241 -16.9241 -16.9207 -16.9207 -16.9147 -16.9147
    -9.1725  -9.1324  -9.0775  -9.0145  -8.9556  -8.9325  -8.2730  -8.2024
    -8.1235  -8.0528  -8.0007  -7.9815  -3.0729  -2.9730  -2.8206  -2.6272
    -2.4201  -2.2641  -1.5597  -1.4261  -1.3087  -1.2203  -1.1604  -1.1462
    -0.1391   0.0704   0.3555   0.6239   0.7488   0.9524   0.9559   1.0425
     1.1019   1.1773   1.3145   1.4747   1.7861   1.8510   1.9172   2.0121
     2.0240   2.0670   2.1111   2.1634   2.2256   2.3053   2.4368   2.5451
     2.9262   2.9470   3.0232   3.1350   3.2835   3.4592   3.5160   3.6745
     3.7680   3.8851   3.9482   3.9603   5.4549   5.7464   6.1323   6.2751
     6.3134   6.5335   6.5564   6.8061   6.8367   6.9919   7.0579   7.0868
     7.1785   7.2069   7.2166   7.2925   7.3195   7.4681   7.4896   7.8710
     7.9257   8.0076   8.1846   8.2127   8.3091   8.4494   8.4797   8.6135
     8.6621   8.8339   8.8769   8.9906   9.0374   9.0738   9.1153   9.1461
     9.4037   9.5036   9.6683  10.1033  10.3424  10.3653  10.4771  10.5343
    10.6661  10.7798  10.8221  10.9006  11.0148  11.1121  11.1989  11.2318
    11.3208  11.4005  11.5225  11.7047  11.8914  12.1889  12.2350  12.4665
    12.5462  12.5821  12.6433  12.7291  12.8168  12.9036  13.0714  13.1252
    13.2112  13.2864

          k = 0.1000 0.0878 0.0000 ( 39031 PWs)   bands (ev):

   -43.0653 -43.0652 -43.0649 -43.0647 -43.0642 -43.0640 -43.0636 -43.0634
   -43.0603 -43.0602 -43.0590 -43.0590 -43.0536 -43.0535 -43.0524 -43.0523
   -43.0519 -43.0519 -43.0509 -43.0509 -43.0351 -43.0348 -43.0346 -43.0344
   -43.0314 -43.0313 -43.0309 -43.0307 -43.0299 -43.0298 -43.0263 -43.0263
   -43.0236 -43.0235 -43.0225 -43.0225 -43.0223 -43.0221 -43.0219 -43.0217
   -43.0197 -43.0196 -43.0178 -43.0178 -43.0172 -43.0171 -43.0108 -43.0107
   -43.0093 -43.0092 -42.9580 -42.9579 -42.9567 -42.9566 -42.9210 -42.9209
   -42.9168 -42.9166 -42.9056 -42.9055 -17.0317 -17.0283 -17.0240 -17.0227
   -17.0176 -17.0167 -17.0149 -17.0142 -17.0128 -17.0117 -17.0115 -17.0107
   -17.0092 -17.0090 -17.0053 -17.0053 -16.9935 -16.9928 -16.9927 -16.9925
   -16.9908 -16.9891 -16.9881 -16.9871 -16.9870 -16.9818 -16.9812 -16.9808
   -16.9807 -16.9798 -16.9798 -16.9750 -16.9750 -16.9725 -16.9724 -16.9709
   -16.9709 -16.9619 -16.9608 -16.9590 -16.9590 -16.9565 -16.9558 -16.9547
   -16.9541 -16.9511 -16.9485 -16.9480 -16.9473 -16.9466 -16.9408 -16.9407
   -16.9284 -16.9284 -16.9236 -16.9236 -16.9210 -16.9210 -16.9149 -16.9148
    -9.2204  -9.1796  -9.1238  -9.0597  -8.9999  -8.9761  -8.2837  -8.2107
    -8.1286  -8.0546  -7.9999  -7.9788  -3.0168  -2.9178  -2.7666  -2.5739
    -2.3673  -2.2125  -1.4257  -1.2857  -1.1652  -1.0774  -1.0185  -1.0070
    -0.1857   0.0155   0.3002   0.5970   0.8109   1.0227   1.0326   1.1253
     1.1809   1.2405   1.3251   1.4278   1.6442   1.7356   1.8003   1.8592
     1.8669   1.9112   2.1901   2.2281   2.2957   2.3892   2.5118   2.6001
     2.8074   2.8195   2.8879   3.0003   3.1822   3.4487   3.4800   3.6404
     3.7757   3.8969   3.9684   3.9819   5.3915   5.6995   6.1620   6.4782
     6.4941   6.6828   6.7349   7.0088   7.0426   7.0488   7.0824   7.1334
     7.1528   7.1876   7.2071   7.2792   7.2908   7.4674   7.4916   7.8757
     7.9250   7.9954   8.1419   8.2614   8.3919   8.4289   8.5724   8.6551
     8.8518   8.8893   9.0892   9.1010   9.1215   9.1463   9.2807   9.3476
     9.3913   9.4668   9.5875  10.0666  10.2825  10.3463  10.4485  10.5021
    10.5596  10.6936  10.7300  10.8411  10.9546  11.0324  11.1632  11.1829
    11.3031  11.3877  11.5410  11.6942  11.9106  12.1549  12.2492  12.4206
    12.4842  12.4977  12.5971  12.6310  12.7891  12.8682  13.0160  13.0580
    13.1232  13.2096

          k = 0.0750 0.0658 0.0000 ( 39020 PWs)   bands (ev):

   -43.0653 -43.0652 -43.0649 -43.0647 -43.0642 -43.0640 -43.0636 -43.0634
   -43.0603 -43.0602 -43.0590 -43.0590 -43.0536 -43.0535 -43.0524 -43.0523
   -43.0519 -43.0519 -43.0509 -43.0509 -43.0350 -43.0347 -43.0345 -43.0344
   -43.0314 -43.0313 -43.0309 -43.0308 -43.0298 -43.0298 -43.0263 -43.0263
   -43.0236 -43.0234 -43.0225 -43.0224 -43.0224 -43.0221 -43.0219 -43.0217
   -43.0197 -43.0196 -43.0178 -43.0178 -43.0172 -43.0171 -43.0108 -43.0107
   -43.0093 -43.0092 -42.9580 -42.9579 -42.9567 -42.9566 -42.9210 -42.9209
   -42.9168 -42.9166 -42.9056 -42.9055 -17.0327 -17.0291 -17.0248 -17.0232
   -17.0181 -17.0165 -17.0151 -17.0138 -17.0125 -17.0121 -17.0119 -17.0103
   -17.0087 -17.0085 -17.0048 -17.0048 -16.9938 -16.9935 -16.9933 -16.9929
   -16.9910 -16.9888 -16.9880 -16.9875 -16.9871 -16.9819 -16.9815 -16.9808
   -16.9807 -16.9796 -16.9796 -16.9750 -16.9750 -16.9723 -16.9723 -16.9706
   -16.9706 -16.9617 -16.9609 -16.9593 -16.9592 -16.9559 -16.9555 -16.9548
   -16.9543 -16.9514 -16.9485 -16.9481 -16.9475 -16.9468 -16.9407 -16.9407
   -16.9282 -16.9281 -16.9233 -16.9233 -16.9212 -16.9212 -16.9150 -16.9150
    -9.2583  -9.2170  -9.1604  -9.0954  -9.0350  -9.0106  -8.2926  -8.2178
    -8.1331  -8.0564  -7.9996  -7.9769  -2.9626  -2.8648  -2.7150  -2.5236
    -2.3179  -2.1644  -1.3092  -1.1601  -1.0346  -0.9466  -0.8881  -0.8782
    -0.2164  -0.0278   0.2477   0.5484   0.8087   1.0749   1.0801   1.1729
     1.2307   1.3017   1.3695   1.4029   1.5394   1.6297   1.6798   1.7125
     1.7256   1.7630   2.2675   2.3100   2.3750   2.4636   2.5566   2.5959
     2.7264   2.7342   2.7766   2.8560   3.0458   3.3422   3.5135   3.6494
     3.7896   3.9105   3.9878   4.0019   5.3417   5.6576   6.1541   6.5822
     6.6647   6.7830   6.8550   6.9395   7.0180   7.0451   7.0908   7.1375
     7.1904   7.2433   7.3090   7.3553   7.4137   7.5221   7.5651   7.8933
     7.9352   7.9787   8.1423   8.3225   8.3419   8.5165   8.6272   8.8161
     8.8932   9.0676   9.1379   9.1522   9.2180   9.2883   9.3808   9.4162
     9.5223   9.5614   9.6490  10.0265  10.1993  10.2746  10.4104  10.4431
    10.5761  10.6937  10.7629  10.8607  10.9645  11.0115  11.1770  11.1929
    11.3114  11.4437  11.5994  11.7186  11.9522  12.1225  12.2770  12.3597
    12.3903  12.4672  12.5055  12.5467  12.7734  12.8502  12.9311  12.9520
    13.0309  13.0898

          k = 0.0500 0.0439 0.0000 ( 39004 PWs)   bands (ev):

   -43.0653 -43.0652 -43.0648 -43.0647 -43.0642 -43.0640 -43.0636 -43.0635
   -43.0603 -43.0602 -43.0591 -43.0590 -43.0536 -43.0535 -43.0524 -43.0523
   -43.0519 -43.0519 -43.0509 -43.0509 -43.0350 -43.0347 -43.0345 -43.0343
   -43.0314 -43.0313 -43.0309 -43.0307 -43.0298 -43.0297 -43.0263 -43.0263
   -43.0235 -43.0234 -43.0224 -43.0224 -43.0224 -43.0221 -43.0219 -43.0217
   -43.0197 -43.0196 -43.0178 -43.0178 -43.0172 -43.0171 -43.0108 -43.0107
   -43.0093 -43.0092 -42.9580 -42.9579 -42.9567 -42.9566 -42.9209 -42.9208
   -42.9167 -42.9166 -42.9056 -42.9055 -17.0334 -17.0298 -17.0253 -17.0236
   -17.0185 -17.0166 -17.0150 -17.0135 -17.0126 -17.0125 -17.0119 -17.0099
   -17.0083 -17.0081 -17.0045 -17.0044 -16.9942 -16.9941 -16.9938 -16.9932
   -16.9911 -16.9886 -16.9882 -16.9878 -16.9867 -16.9822 -16.9817 -16.9811
   -16.9810 -16.9792 -16.9792 -16.9751 -16.9751 -16.9722 -16.9722 -16.9704
   -16.9703 -16.9615 -16.9611 -16.9594 -16.9594 -16.9554 -16.9553 -16.9549
   -16.9544 -16.9516 -16.9485 -16.9481 -16.9477 -16.9469 -16.9407 -16.9407
   -16.9280 -16.9279 -16.9232 -16.9232 -16.9212 -16.9212 -16.9151 -16.9151
    -9.2856  -9.2440  -9.1869  -9.1213  -9.0604  -9.0357  -8.2993  -8.2231
    -8.1366  -8.0579  -7.9995  -7.9757  -2.9172  -2.8204  -2.6720  -2.4819
    -2.2773  -2.1251  -1.2203  -1.0606  -0.9283  -0.8376  -0.7782  -0.7678
    -0.2356  -0.0597   0.2041   0.4993   0.7713   1.0590   1.1045   1.2007
     1.2731   1.3559   1.3918   1.4065   1.4637   1.5464   1.6038   1.6103
     1.6386   1.6512   2.3242   2.3740   2.4206   2.4802   2.5320   2.5455
     2.6594   2.7114   2.7533   2.7871   2.9233   3.2466   3.5452   3.6665
     3.8025   3.9216   4.0035   4.0169   5.3072   5.6266   6.1396   6.6089
     6.7598   6.7775   6.8582   6.8805   6.9621   7.0039   7.0290   7.1424
     7.1649   7.2807   7.4106   7.5397   7.5973   7.6446   7.7362   7.9133
     7.9274   7.9925   8.2195   8.2772   8.4393   8.4758   8.7761   8.8239
     9.0223   9.0830   9.1374   9.2198   9.2311   9.3638   9.3858   9.5204
     9.5957   9.7607   9.8565   9.9879  10.1369  10.2151  10.3529  10.4048
    10.5580  10.8069  10.8781  10.9207  11.0359  11.0690  11.2438  11.2692
    11.3545  11.5268  11.6880  11.7691  12.0019  12.1181  12.2668  12.2881
    12.3041  12.4026  12.4783  12.5173  12.7566  12.7960  12.8299  12.8358
    12.9173  12.9838

          k = 0.0250 0.0219 0.0000 ( 39013 PWs)   bands (ev):

   -43.0653 -43.0652 -43.0648 -43.0647 -43.0642 -43.0640 -43.0637 -43.0635
   -43.0603 -43.0602 -43.0591 -43.0590 -43.0536 -43.0535 -43.0524 -43.0523
   -43.0519 -43.0519 -43.0509 -43.0509 -43.0350 -43.0347 -43.0345 -43.0343
   -43.0314 -43.0313 -43.0309 -43.0307 -43.0298 -43.0297 -43.0263 -43.0263
   -43.0235 -43.0234 -43.0224 -43.0224 -43.0224 -43.0221 -43.0219 -43.0217
   -43.0197 -43.0196 -43.0178 -43.0178 -43.0173 -43.0171 -43.0108 -43.0107
   -43.0093 -43.0093 -42.9580 -42.9579 -42.9567 -42.9566 -42.9209 -42.9208
   -42.9167 -42.9166 -42.9057 -42.9056 -17.0339 -17.0302 -17.0257 -17.0239
   -17.0188 -17.0168 -17.0148 -17.0132 -17.0128 -17.0128 -17.0117 -17.0097
   -17.0080 -17.0078 -17.0043 -17.0042 -16.9945 -16.9944 -16.9941 -16.9934
   -16.9911 -16.9885 -16.9884 -16.9879 -16.9864 -16.9824 -16.9818 -16.9813
   -16.9812 -16.9789 -16.9789 -16.9752 -16.9752 -16.9722 -16.9721 -16.9702
   -16.9701 -16.9614 -16.9612 -16.9596 -16.9595 -16.9552 -16.9552 -16.9549
   -16.9545 -16.9517 -16.9484 -16.9481 -16.9479 -16.9470 -16.9407 -16.9407
   -16.9278 -16.9278 -16.9232 -16.9231 -16.9212 -16.9212 -16.9152 -16.9151
    -9.3022  -9.2603  -9.2029  -9.1370  -9.0758  -9.0508  -8.3035  -8.2264
    -8.1387  -8.0589  -7.9996  -7.9750  -2.8867  -2.7907  -2.6433  -2.4542
    -2.2505  -2.0993  -1.1659  -0.9973  -0.8579  -0.7633  -0.7017  -0.6886
    -0.2482  -0.0802   0.1747   0.4638   0.7362   1.0240   1.0924   1.2394
     1.3132   1.3383   1.3862   1.3968   1.4519   1.4845   1.5462   1.5609
     1.5910   1.6392   2.3505   2.3982   2.4065   2.4578   2.4959   2.5496
     2.6080   2.6872   2.7653   2.8096   2.8417   3.1869   3.5659   3.6789
     3.8108   3.9283   4.0136   4.0261   5.2873   5.6082   6.1293   6.6131
     6.7396   6.7583   6.8148   6.8697   6.9201   6.9655   6.9893   7.1565
     7.1634   7.3127   7.4631   7.6706   7.6892   7.7625   7.8888   7.8901
     7.9308   8.0871   8.2455   8.3229   8.4473   8.5415   8.7377   8.9629
     8.9769   9.0804   9.1818   9.2111   9.2355   9.3435   9.5008   9.5147
     9.7227   9.8891   9.9579   9.9856  10.1033  10.1801  10.3231  10.3876
    10.5609  10.8556  10.9834  11.0079  11.1279  11.1619  11.3391  11.3777
    11.4196  11.6075  11.7751  11.8271  12.0449  12.1270  12.2055  12.2115
    12.3030  12.3798  12.4708  12.5381  12.6344  12.6787  12.7612  12.8028
    12.8094  12.8960

          k = 0.0000 0.0000 0.0000 ( 38967 PWs)   bands (ev):

   -43.0653 -43.0652 -43.0648 -43.0646 -43.0642 -43.0639 -43.0636 -43.0634
   -43.0602 -43.0602 -43.0591 -43.0590 -43.0535 -43.0534 -43.0524 -43.0523
   -43.0519 -43.0519 -43.0509 -43.0508 -43.0349 -43.0346 -43.0344 -43.0342
   -43.0313 -43.0312 -43.0309 -43.0307 -43.0297 -43.0296 -43.0263 -43.0263
   -43.0234 -43.0233 -43.0224 -43.0224 -43.0223 -43.0220 -43.0218 -43.0217
   -43.0197 -43.0196 -43.0178 -43.0177 -43.0172 -43.0171 -43.0108 -43.0107
   -43.0093 -43.0092 -42.9580 -42.9578 -42.9567 -42.9566 -42.9208 -42.9207
   -42.9167 -42.9166 -42.9056 -42.9055 -17.0340 -17.0303 -17.0258 -17.0240
   -17.0189 -17.0169 -17.0148 -17.0131 -17.0129 -17.0129 -17.0117 -17.0096
   -17.0079 -17.0078 -17.0042 -17.0041 -16.9946 -16.9945 -16.9941 -16.9935
   -16.9910 -16.9885 -16.9885 -16.9880 -16.9863 -16.9824 -16.9818 -16.9813
   -16.9812 -16.9788 -16.9788 -16.9752 -16.9752 -16.9721 -16.9721 -16.9702
   -16.9701 -16.9614 -16.9612 -16.9596 -16.9596 -16.9552 -16.9551 -16.9549
   -16.9545 -16.9517 -16.9483 -16.9481 -16.9481 -16.9470 -16.9407 -16.9407
   -16.9278 -16.9277 -16.9232 -16.9231 -16.9211 -16.9211 -16.9152 -16.9151
    -9.3077  -9.2658  -9.2082  -9.1422  -9.0810  -9.0559  -8.3049  -8.2276
    -8.1395  -8.0592  -7.9996  -7.9748  -2.8760  -2.7802  -2.6332  -2.4445
    -2.2412  -2.0903  -1.1478  -0.9756  -0.8333  -0.7365  -0.6736  -0.6588
    -0.2533  -0.0877   0.1642   0.4509   0.7227   1.0089   1.0841   1.2817
     1.2819   1.3355   1.3790   1.4118   1.4126   1.5028   1.5163   1.5322
     1.5914   1.6423   2.3527   2.3924   2.3935   2.4589   2.4838   2.5625
     2.5791   2.6895   2.7738   2.8143   2.8184   3.1675   3.5731   3.6832
     3.8136   3.9305   4.0170   4.0292   5.2808   5.6021   6.1257   6.6130
     6.7268   6.7393   6.8023   6.8596   6.9137   6.9490   6.9736   7.1582
     7.1659   7.3285   7.4823   7.7063   7.7173   7.8103   7.8808   7.9230
     7.9542   8.1448   8.2320   8.3719   8.4356   8.5871   8.7200   8.9559
     9.0161   9.0632   9.1694   9.1986   9.2828   9.3267   9.5050   9.5419
     9.7645   9.9314   9.9472  10.0271  10.0924  10.1687  10.3154  10.3840
    10.5701  10.8652  11.0163  11.0508  11.1752  11.1997  11.3893  11.4333
    11.4535  11.6444  11.8085  11.8591  12.0497  12.1439  12.1767  12.1902
    12.3324  12.4096  12.4347  12.5205  12.5901  12.6063  12.7363  12.7523
    12.8135  12.8835

     Writing all to output data dir ./tri/snse.save/

     init_run     :      3.73s CPU      7.50s WALL (       1 calls)
     electrons    :  12600.64s CPU  13492.14s WALL (       1 calls)

     Called by init_run:
     wfcinit      :      0.00s CPU      0.00s WALL (       1 calls)
     wfcinit:atom :      0.73s CPU      0.75s WALL (      61 calls)
     wfcinit:wfcr :    193.62s CPU    224.44s WALL (      61 calls)
     potinit      :      0.75s CPU      0.82s WALL (       1 calls)
     hinit0       :      1.74s CPU      1.65s WALL (       1 calls)

     Called by electrons:
     c_bands      :  12600.58s CPU  13492.07s WALL (       1 calls)
     v_of_rho     :      0.17s CPU      0.20s WALL (       1 calls)
     v_h          :      0.02s CPU      0.02s WALL (       1 calls)
     v_xc         :      0.15s CPU      0.19s WALL (       1 calls)
     newd         :      0.88s CPU      4.61s WALL (       1 calls)
     PAW_pot      :      0.30s CPU      0.28s WALL (       1 calls)

     Called by c_bands:
     init_us_2    :      1.04s CPU      0.92s WALL (      61 calls)
     init_us_2:cp :      1.04s CPU      0.92s WALL (      61 calls)
     cegterg      :  12380.48s CPU  13237.96s WALL (     235 calls)

     Called by sum_band:

     Called by *egterg:
     cdiaghg      :   2670.86s CPU   1870.21s WALL (    4211 calls)
     cegterg:over :   2487.02s CPU   2903.50s WALL (    4150 calls)
     cegterg:upda :    739.90s CPU    822.88s WALL (    4150 calls)
     cegterg:last :    848.69s CPU    809.61s WALL (    1374 calls)
     h_psi        :   3939.11s CPU   4883.44s WALL (    4446 calls)
     s_psi        :    463.36s CPU    573.42s WALL (    4446 calls)
     g_psi        :      8.70s CPU      4.79s WALL (    4150 calls)

     Called by h_psi:
     h_psi:calbec :   2869.62s CPU   3612.38s WALL (    4446 calls)
     vloc_psi     :    598.37s CPU    624.19s WALL (    4446 calls)
     add_vuspsi   :    454.95s CPU    625.68s WALL (    4446 calls)

     General routines
     calbec       :   2869.58s CPU   3611.84s WALL (    4446 calls)
     fft          :      0.37s CPU      0.36s WALL (      13 calls)
     ffts         :      0.24s CPU      0.22s WALL (       1 calls)
     fftw         :    551.54s CPU    570.11s WALL (  706126 calls)
     interpolate  :      0.26s CPU      0.23s WALL (       1 calls)
     davcio       :      9.09s CPU    273.65s WALL (     122 calls)

     Parallel routines

     PAW routines
     PAW_pot      :      0.30s CPU      0.28s WALL (       1 calls)

     PWSCF        :      3h31m CPU      3h58m WALL


   This run was terminated on:   6: 1:59  25Jun2025            

=------------------------------------------------------------------------------=
   JOB DONE.
=------------------------------------------------------------------------------=
