
     Program PWSCF v.7.0 starts on  1Jul2025 at  9:26:59 

     This program is part of the open-source Quantum ESPRESSO suite
     for quantum simulation of materials; please cite
         "P. Giannozzi et al., J. Phys.:Condens. Matter 21 395502 (2009);
         "P. Giannozzi et al., J. Phys.:Condens. Matter 29 465901 (2017);
         "P. Giannozzi et al., J. Chem. Phys. 152 154105 (2020);
          URL http://www.quantum-espresso.org", 
     in publications or presentations arising from this work. More details at
     http://www.quantum-espresso.org/quote

     Parallel version (MPI), running on     8 processors

     MPI processes distributed on     1 nodes
     R & G space division:  proc/nbgrp/npool/nimage =       8
     5460 MiB available memory on the printing compute node when the environment starts

     Waiting for input...
     Reading input from standard input

     Current dimensions of program PWSCF are:
     Max number of different atomic species (ntypx) = 10
     Max number of k-points (npk) =  40000
     Max angular momentum in pseudopotentials (lmaxx) =  4
     file Sn.pbe-dn-kjpaw_psl.1.0.0.UPF: wavefunction(s)  5S 5P 4D renormalized
     file Se.pbe-dn-kjpaw_psl.1.0.0.UPF: wavefunction(s)  4S 4P 3D renormalized

     IMPORTANT: XC functional enforced from input :
     Exchange-correlation= PBE
                           (   1   4   3   4   0   0   0)
     Any further DFT definition will be discarded
     Please, verify this is what you really want

     Message from routine setup:
     using ibrav=0 with symmetry is DISCOURAGED, use correct ibrav instead

     Subspace diagonalization in iterative solution of the eigenvalue problem:
     a serial algorithm will be used


     Parallelization info
     --------------------
     sticks:   dense  smooth     PW     G-vecs:    dense   smooth      PW
     Min         276     137     40               110552    39071    6094
     Max         277     138     41               110581    39100    6121
     Sum        2209    1101    323               884453   312681   48835

     Using Slab Decomposition



     bravais-lattice index     =            0
     lattice parameter (alat)  =       7.7975  a.u.
     unit-cell volume          =    6544.9140 (a.u.)^3
     number of atoms/cell      =           24
     number of atomic types    =            2
     number of electrons       =       360.00
     number of Kohn-Sham states=          250
     kinetic-energy cutoff     =      50.0000  Ry
     charge density cutoff     =     400.0000  Ry
     scf convergence threshold =      1.0E-08
     mixing beta               =       0.3000
     number of iterations used =            8  plain     mixing
     Exchange-correlation= PBE
                           (   1   4   3   4   0   0   0)

     celldm(1)=   7.797484  celldm(2)=   0.000000  celldm(3)=   0.000000
     celldm(4)=   0.000000  celldm(5)=   0.000000  celldm(6)=   0.000000

     crystal axes: (cart. coord. in units of alat)
               a(1) = (   1.000000   0.000000   0.000000 )  
               a(2) = (   0.000000   1.139268   0.000000 )  
               a(3) = (   0.000000   0.000000  12.117537 )  

     reciprocal axes: (cart. coord. in units 2 pi/alat)
               b(1) = (  1.000000  0.000000  0.000000 )  
               b(2) = (  0.000000  0.877756  0.000000 )  
               b(3) = (  0.000000  0.000000  0.082525 )  


     PseudoPot. # 1 for Sn read from file:
     ./Sn.pbe-dn-kjpaw_psl.1.0.0.UPF
     MD5 check sum: d69e53522d199ccc4f306ae57c56b55d
     Pseudo is Projector augmented-wave + core cor, Zval = 14.0
     Generated using &quot;atomic&quot; code by A. Dal Corso  v.6.3
     Shape of augmentation charge: PSQ
     Using radial grid of 1243 points,  6 beta functions with: 
                l(1) =   0
                l(2) =   0
                l(3) =   1
                l(4) =   1
                l(5) =   2
                l(6) =   2
     Q(r) pseudized with 0 coefficients 


     PseudoPot. # 2 for Se read from file:
     ./Se.pbe-dn-kjpaw_psl.1.0.0.UPF
     MD5 check sum: 4f8dd506ed2a5e2391ebbdbef81d58a8
     Pseudo is Projector augmented-wave + core cor, Zval = 16.0
     Generated using &quot;atomic&quot; code by A. Dal Corso  v.6.3
     Shape of augmentation charge: PSQ
     Using radial grid of 1211 points,  6 beta functions with: 
                l(1) =   0
                l(2) =   0
                l(3) =   1
                l(4) =   1
                l(5) =   2
                l(6) =   2
     Q(r) pseudized with 0 coefficients 


     atomic species   valence    mass     pseudopotential
        Sn            14.00   118.71000     Sn( 1.00)
        Se            16.00    78.96000     Se( 1.00)

      2 Sym. Ops. (no inversion) found ( 1 have fractional translation)


                                    s                        frac. trans.

      isym =  1     identity                                     

 cryst.   s( 1) = (     1          0          0      )
                  (     0          1          0      )
                  (     0          0          1      )

 cart.    s( 1) = (  1.0000000  0.0000000  0.0000000 )
                  (  0.0000000  1.0000000  0.0000000 )
                  (  0.0000000  0.0000000  1.0000000 )


      isym =  2     inv. 180 deg rotation - cart. axis [1,0,0]   

 cryst.   s( 2) = (    -1          0          0      )    f =(  0.5000000 )
                  (     0          1          0      )       (  0.0000000 )
                  (     0          0          1      )       (  0.0000000 )

 cart.    s( 2) = ( -1.0000000  0.0000000  0.0000000 )    f =(  0.5000000 )
                  (  0.0000000  1.0000000  0.0000000 )       (  0.0000000 )
                  (  0.0000000  0.0000000  1.0000000 )       (  0.0000000 )


   Cartesian axes

     site n.     atom                  positions (alat units)
         1           Sn  tau(   1) = (   0.7500000   0.4289964   1.7492425  )
         2           Sn  tau(   2) = (   0.2500000   0.9986306   2.4910929  )
         3           Sn  tau(   3) = (   0.2500000   0.7102720   1.0776477  )
         4           Sn  tau(   4) = (   0.7500000   0.1406378   0.3357974  )
         5           Se  tau(   5) = (   0.2500000   0.5800948   0.4199432  )
         6           Se  tau(   6) = (   0.2500000   1.1288079   1.8333882  )
         7           Se  tau(   7) = (   0.7500000   0.0104605   0.9935020  )
         8           Se  tau(   8) = (   0.7500000   0.5591737   2.4069472  )
         9           Sn  tau(   9) = (   0.7500000   0.4289964   4.5761327  )
        10           Sn  tau(  10) = (   0.2500000   0.9986306   5.3179830  )
        11           Sn  tau(  11) = (   0.2500000   0.7102720   3.9045380  )
        12           Sn  tau(  12) = (   0.7500000   0.1406378   3.1626877  )
        13           Se  tau(  13) = (   0.2500000   0.5800948   3.2468333  )
        14           Se  tau(  14) = (   0.2500000   1.1288079   4.6602785  )
        15           Se  tau(  15) = (   0.7500000   0.0104605   3.8203922  )
        16           Se  tau(  16) = (   0.7500000   0.5591737   5.2338374  )
        17           Sn  tau(  17) = (   0.7500000   0.4289964   7.4030230  )
        18           Sn  tau(  18) = (   0.2500000   0.9986306   8.1448733  )
        19           Sn  tau(  19) = (   0.2500000   0.7102720   6.7314282  )
        20           Sn  tau(  20) = (   0.7500000   0.1406378   5.9895778  )
        21           Se  tau(  21) = (   0.2500000   0.5800948   6.0737235  )
        22           Se  tau(  22) = (   0.2500000   1.1288079   7.4871687  )
        23           Se  tau(  23) = (   0.7500000   0.0104605   6.6472824  )
        24           Se  tau(  24) = (   0.7500000   0.5591737   8.0607275  )

   Crystallographic axes

     site n.     atom                  positions (cryst. coord.)
         1           Sn  tau(   1) = (  0.7500000  0.3765543  0.1443563  )
         2           Sn  tau(   2) = (  0.2500000  0.8765543  0.2055775  )
         3           Sn  tau(   3) = (  0.2500000  0.6234457  0.0889329  )
         4           Sn  tau(   4) = (  0.7500000  0.1234457  0.0277117  )
         5           Se  tau(   5) = (  0.2500000  0.5091818  0.0346558  )
         6           Se  tau(   6) = (  0.2500000  0.9908182  0.1513004  )
         7           Se  tau(   7) = (  0.7500000  0.0091818  0.0819888  )
         8           Se  tau(   8) = (  0.7500000  0.4908182  0.1986334  )
         9           Sn  tau(   9) = (  0.7500000  0.3765543  0.3776454  )
        10           Sn  tau(  10) = (  0.2500000  0.8765543  0.4388667  )
        11           Sn  tau(  11) = (  0.2500000  0.6234457  0.3222221  )
        12           Sn  tau(  12) = (  0.7500000  0.1234457  0.2610009  )
        13           Se  tau(  13) = (  0.2500000  0.5091818  0.2679450  )
        14           Se  tau(  14) = (  0.2500000  0.9908182  0.3845896  )
        15           Se  tau(  15) = (  0.7500000  0.0091818  0.3152779  )
        16           Se  tau(  16) = (  0.7500000  0.4908182  0.4319225  )
        17           Sn  tau(  17) = (  0.7500000  0.3765543  0.6109346  )
        18           Sn  tau(  18) = (  0.2500000  0.8765543  0.6721558  )
        19           Sn  tau(  19) = (  0.2500000  0.6234457  0.5555112  )
        20           Sn  tau(  20) = (  0.7500000  0.1234457  0.4942900  )
        21           Se  tau(  21) = (  0.2500000  0.5091818  0.5012342  )
        22           Se  tau(  22) = (  0.2500000  0.9908182  0.6178787  )
        23           Se  tau(  23) = (  0.7500000  0.0091818  0.5485671  )
        24           Se  tau(  24) = (  0.7500000  0.4908182  0.6652117  )

     number of k points=    16
                       cart. coord. in units 2pi/alat
        k(    1) = (   0.0000000   0.0000000   0.0000000), wk =   0.0555556
        k(    2) = (   0.0000000   0.1462927   0.0000000), wk =   0.1111111
        k(    3) = (   0.0000000   0.2925854   0.0000000), wk =   0.1111111
        k(    4) = (   0.0000000  -0.4388781   0.0000000), wk =   0.0555556
        k(    5) = (   0.1666667   0.0000000   0.0000000), wk =   0.1111111
        k(    6) = (   0.1666667   0.1462927   0.0000000), wk =   0.2222222
        k(    7) = (   0.1666667   0.2925854   0.0000000), wk =   0.2222222
        k(    8) = (   0.1666667  -0.4388781   0.0000000), wk =   0.1111111
        k(    9) = (   0.3333333   0.0000000   0.0000000), wk =   0.1111111
        k(   10) = (   0.3333333   0.1462927   0.0000000), wk =   0.2222222
        k(   11) = (   0.3333333   0.2925854   0.0000000), wk =   0.2222222
        k(   12) = (   0.3333333  -0.4388781   0.0000000), wk =   0.1111111
        k(   13) = (  -0.5000000   0.0000000   0.0000000), wk =   0.0555556
        k(   14) = (  -0.5000000   0.1462927   0.0000000), wk =   0.1111111
        k(   15) = (  -0.5000000   0.2925854   0.0000000), wk =   0.1111111
        k(   16) = (  -0.5000000  -0.4388781   0.0000000), wk =   0.0555556

                       cryst. coord.
        k(    1) = (   0.0000000   0.0000000   0.0000000), wk =   0.0555556
        k(    2) = (   0.0000000   0.1666667   0.0000000), wk =   0.1111111
        k(    3) = (   0.0000000   0.3333333   0.0000000), wk =   0.1111111
        k(    4) = (   0.0000000  -0.5000000   0.0000000), wk =   0.0555556
        k(    5) = (   0.1666667   0.0000000   0.0000000), wk =   0.1111111
        k(    6) = (   0.1666667   0.1666667   0.0000000), wk =   0.2222222
        k(    7) = (   0.1666667   0.3333333   0.0000000), wk =   0.2222222
        k(    8) = (   0.1666667  -0.5000000   0.0000000), wk =   0.1111111
        k(    9) = (   0.3333333   0.0000000   0.0000000), wk =   0.1111111
        k(   10) = (   0.3333333   0.1666667   0.0000000), wk =   0.2222222
        k(   11) = (   0.3333333   0.3333333   0.0000000), wk =   0.2222222
        k(   12) = (   0.3333333  -0.5000000   0.0000000), wk =   0.1111111
        k(   13) = (  -0.5000000   0.0000000   0.0000000), wk =   0.0555556
        k(   14) = (  -0.5000000   0.1666667   0.0000000), wk =   0.1111111
        k(   15) = (  -0.5000000   0.3333333   0.0000000), wk =   0.1111111
        k(   16) = (  -0.5000000  -0.5000000   0.0000000), wk =   0.0555556

     Dense  grid:   884453 G-vectors     FFT dimensions: (  50,  60, 625)

     Smooth grid:   312681 G-vectors     FFT dimensions: (  36,  40, 432)

     Dynamical RAM for                 wfc:      18.63 MB

     Dynamical RAM for     wfc (w. buffer):     316.73 MB

     Dynamical RAM for           str. fact:       3.37 MB

     Dynamical RAM for           local pot:       0.00 MB

     Dynamical RAM for          nlocal pot:      32.19 MB

     Dynamical RAM for                qrad:       3.21 MB

     Dynamical RAM for          rho,v,vnew:      10.49 MB

     Dynamical RAM for               rhoin:       3.50 MB

     Dynamical RAM for            rho*nmix:      26.99 MB

     Dynamical RAM for           G-vectors:       6.62 MB

     Dynamical RAM for          h,s,v(r/c):      11.44 MB

     Dynamical RAM for          <psi|beta>:       1.65 MB

     Dynamical RAM for                 psi:      37.26 MB

     Dynamical RAM for                hpsi:      37.26 MB

     Dynamical RAM for                spsi:      37.26 MB

     Dynamical RAM for      wfcinit/wfcrot:      38.69 MB

     Dynamical RAM for           addusdens:     334.00 MB

     Dynamical RAM for          addusforce:     372.01 MB

     Dynamical RAM for         addusstress:     339.06 MB

     Estimated static dynamical RAM per process >     390.21 MB

     Estimated max dynamical RAM per process >     789.21 MB

     Estimated total dynamical RAM >       6.17 GB

     Initial potential from superposition of free atoms

     starting charge     359.9825, renormalised to     360.0000

     negative rho (up, down):  1.155E-03 0.000E+00
     Starting wfcs are  216 randomized atomic wfcs +   34 random wfcs
     Checking if some PAW data can be deallocated... 
       PAW data deallocated on    2 nodes for type:  1
       PAW data deallocated on    2 nodes for type:  2

     total cpu time spent up to now is       77.1 secs

     Self-consistent Calculation

     iteration #  1     ecut=    50.00 Ry     beta= 0.30
     Davidson diagonalization with overlap

---- Real-time Memory Report at c_bands before calling an iterative solver
           476 MiB given to the printing process from OS
             0 MiB allocation reported by mallinfo(arena+hblkhd)
          2002 MiB available memory on the node where the printing process lives
------------------
     ethr =  1.00E-02,  avg # of iterations =  8.0

     Threshold (ethr) on eigenvalues was too large:
     Diagonalizing with lowered threshold

     Davidson diagonalization with overlap

---- Real-time Memory Report at c_bands before calling an iterative solver
           800 MiB given to the printing process from OS
             0 MiB allocation reported by mallinfo(arena+hblkhd)
          1895 MiB available memory on the node where the printing process lives
------------------
     ethr =  1.97E-04,  avg # of iterations =  8.8

     negative rho (up, down):  1.148E-03 0.000E+00

     total cpu time spent up to now is     1146.3 secs

     total energy              =  -10126.95665410 Ry
     estimated scf accuracy    <       0.69225572 Ry

     iteration #  2     ecut=    50.00 Ry     beta= 0.30
     Davidson diagonalization with overlap

---- Real-time Memory Report at c_bands before calling an iterative solver
           808 MiB given to the printing process from OS
             0 MiB allocation reported by mallinfo(arena+hblkhd)
          2336 MiB available memory on the node where the printing process lives
------------------
     ethr =  1.92E-04,  avg # of iterations =  8.1

     negative rho (up, down):  1.147E-03 0.000E+00

     total cpu time spent up to now is     1549.6 secs

     total energy              =  -10127.01337417 Ry
     estimated scf accuracy    <       0.10592399 Ry

     iteration #  3     ecut=    50.00 Ry     beta= 0.30
     Davidson diagonalization with overlap

---- Real-time Memory Report at c_bands before calling an iterative solver
           809 MiB given to the printing process from OS
             0 MiB allocation reported by mallinfo(arena+hblkhd)
          2412 MiB available memory on the node where the printing process lives
------------------
     c_bands:  1 eigenvalues not converged
     ethr =  2.94E-05,  avg # of iterations = 14.4

     negative rho (up, down):  1.142E-03 0.000E+00

     total cpu time spent up to now is     2163.0 secs

     total energy              =  -10127.00591655 Ry
     estimated scf accuracy    <       0.18911149 Ry

     iteration #  4     ecut=    50.00 Ry     beta= 0.30
     Davidson diagonalization with overlap

---- Real-time Memory Report at c_bands before calling an iterative solver
           810 MiB given to the printing process from OS
             0 MiB allocation reported by mallinfo(arena+hblkhd)
          2401 MiB available memory on the node where the printing process lives
------------------
     ethr =  2.94E-05,  avg # of iterations = 13.1

     negative rho (up, down):  1.151E-03 0.000E+00

     total cpu time spent up to now is     2742.9 secs

     total energy              =  -10127.02082511 Ry
     estimated scf accuracy    <       0.04875556 Ry

     iteration #  5     ecut=    50.00 Ry     beta= 0.30
     Davidson diagonalization with overlap

---- Real-time Memory Report at c_bands before calling an iterative solver
           811 MiB given to the printing process from OS
             0 MiB allocation reported by mallinfo(arena+hblkhd)
          2417 MiB available memory on the node where the printing process lives
------------------
     ethr =  1.35E-05,  avg # of iterations = 13.1

     negative rho (up, down):  1.171E-03 0.000E+00

     total cpu time spent up to now is     3325.6 secs

     total energy              =  -10127.02282520 Ry
     estimated scf accuracy    <       0.03952520 Ry

     iteration #  6     ecut=    50.00 Ry     beta= 0.30
     Davidson diagonalization with overlap

---- Real-time Memory Report at c_bands before calling an iterative solver
           813 MiB given to the printing process from OS
             0 MiB allocation reported by mallinfo(arena+hblkhd)
          2419 MiB available memory on the node where the printing process lives
------------------
     c_bands:  1 eigenvalues not converged
     c_bands:  1 eigenvalues not converged
     c_bands:  2 eigenvalues not converged
     ethr =  1.10E-05,  avg # of iterations = 11.4

     negative rho (up, down):  1.178E-03 0.000E+00

     total cpu time spent up to now is     3821.7 secs

     total energy              =  -10127.02604176 Ry
     estimated scf accuracy    <       0.00336802 Ry

     iteration #  7     ecut=    50.00 Ry     beta= 0.30
     Davidson diagonalization with overlap

---- Real-time Memory Report at c_bands before calling an iterative solver
           814 MiB given to the printing process from OS
             0 MiB allocation reported by mallinfo(arena+hblkhd)
          2421 MiB available memory on the node where the printing process lives
------------------
     c_bands:  2 eigenvalues not converged
     ethr =  9.36E-07,  avg # of iterations = 10.3

     negative rho (up, down):  1.183E-03 0.000E+00

     total cpu time spent up to now is     4342.5 secs

     total energy              =  -10127.02645067 Ry
     estimated scf accuracy    <       0.00113644 Ry

     iteration #  8     ecut=    50.00 Ry     beta= 0.30
     Davidson diagonalization with overlap

---- Real-time Memory Report at c_bands before calling an iterative solver
           815 MiB given to the printing process from OS
             0 MiB allocation reported by mallinfo(arena+hblkhd)
          2438 MiB available memory on the node where the printing process lives
------------------
     ethr =  3.16E-07,  avg # of iterations =  1.8

     negative rho (up, down):  1.183E-03 0.000E+00

     total cpu time spent up to now is     4589.7 secs

     total energy              =  -10127.02655788 Ry
     estimated scf accuracy    <       0.00012256 Ry

     iteration #  9     ecut=    50.00 Ry     beta= 0.30
     Davidson diagonalization with overlap

---- Real-time Memory Report at c_bands before calling an iterative solver
           816 MiB given to the printing process from OS
             0 MiB allocation reported by mallinfo(arena+hblkhd)
          2428 MiB available memory on the node where the printing process lives
------------------
     ethr =  3.40E-08,  avg # of iterations =  2.0

     negative rho (up, down):  1.182E-03 0.000E+00

     total cpu time spent up to now is     5110.1 secs

     total energy              =  -10127.02657301 Ry
     estimated scf accuracy    <       0.00001722 Ry

     iteration # 10     ecut=    50.00 Ry     beta= 0.30
     Davidson diagonalization with overlap

---- Real-time Memory Report at c_bands before calling an iterative solver
           818 MiB given to the printing process from OS
             0 MiB allocation reported by mallinfo(arena+hblkhd)
          2437 MiB available memory on the node where the printing process lives
------------------
     ethr =  4.78E-09,  avg # of iterations =  2.0

     negative rho (up, down):  1.180E-03 0.000E+00

     total cpu time spent up to now is     5327.1 secs

     total energy              =  -10127.02657489 Ry
     estimated scf accuracy    <       0.00000850 Ry

     iteration # 11     ecut=    50.00 Ry     beta= 0.30
     Davidson diagonalization with overlap

---- Real-time Memory Report at c_bands before calling an iterative solver
           818 MiB given to the printing process from OS
             0 MiB allocation reported by mallinfo(arena+hblkhd)
          2437 MiB available memory on the node where the printing process lives
------------------
     ethr =  2.36E-09,  avg # of iterations =  1.0

     negative rho (up, down):  1.179E-03 0.000E+00

     total cpu time spent up to now is     5493.7 secs

     total energy              =  -10127.02657635 Ry
     estimated scf accuracy    <       0.00000536 Ry

     iteration # 12     ecut=    50.00 Ry     beta= 0.30
     Davidson diagonalization with overlap

---- Real-time Memory Report at c_bands before calling an iterative solver
           818 MiB given to the printing process from OS
             0 MiB allocation reported by mallinfo(arena+hblkhd)
          2440 MiB available memory on the node where the printing process lives
------------------
     ethr =  1.49E-09,  avg # of iterations =  1.0

     negative rho (up, down):  1.179E-03 0.000E+00

     total cpu time spent up to now is     5652.8 secs

     total energy              =  -10127.02657698 Ry
     estimated scf accuracy    <       0.00000040 Ry

     iteration # 13     ecut=    50.00 Ry     beta= 0.30
     Davidson diagonalization with overlap

---- Real-time Memory Report at c_bands before calling an iterative solver
           818 MiB given to the printing process from OS
             0 MiB allocation reported by mallinfo(arena+hblkhd)
          2434 MiB available memory on the node where the printing process lives
------------------
     ethr =  1.11E-10,  avg # of iterations =  2.0

     negative rho (up, down):  1.178E-03 0.000E+00

     total cpu time spent up to now is     5862.6 secs

     total energy              =  -10127.02657704 Ry
     estimated scf accuracy    <       0.00000012 Ry

     iteration # 14     ecut=    50.00 Ry     beta= 0.30
     Davidson diagonalization with overlap

---- Real-time Memory Report at c_bands before calling an iterative solver
           818 MiB given to the printing process from OS
             0 MiB allocation reported by mallinfo(arena+hblkhd)
          2429 MiB available memory on the node where the printing process lives
------------------
     ethr =  3.28E-11,  avg # of iterations =  1.2

     negative rho (up, down):  1.178E-03 0.000E+00

     total cpu time spent up to now is     6030.7 secs

     total energy              =  -10127.02657706 Ry
     estimated scf accuracy    <       0.00000005 Ry

     iteration # 15     ecut=    50.00 Ry     beta= 0.30
     Davidson diagonalization with overlap

---- Real-time Memory Report at c_bands before calling an iterative solver
           818 MiB given to the printing process from OS
             0 MiB allocation reported by mallinfo(arena+hblkhd)
          2436 MiB available memory on the node where the printing process lives
------------------
     ethr =  1.52E-11,  avg # of iterations =  1.9

     negative rho (up, down):  1.177E-03 0.000E+00

     total cpu time spent up to now is     6241.0 secs

     total energy              =  -10127.02657707 Ry
     estimated scf accuracy    <       0.00000002 Ry

     iteration # 16     ecut=    50.00 Ry     beta= 0.30
     Davidson diagonalization with overlap

---- Real-time Memory Report at c_bands before calling an iterative solver
           818 MiB given to the printing process from OS
             0 MiB allocation reported by mallinfo(arena+hblkhd)
          2432 MiB available memory on the node where the printing process lives
------------------
     ethr =  4.86E-12,  avg # of iterations =  2.0

     negative rho (up, down):  1.177E-03 0.000E+00

     total cpu time spent up to now is     6446.9 secs

     End of self-consistent calculation

          k = 0.0000 0.0000 0.0000 ( 38967 PWs)   bands (ev):

   -43.0641 -43.0640 -43.0635 -43.0635 -43.0630 -43.0627 -43.0623 -43.0622
   -43.0592 -43.0591 -43.0580 -43.0579 -43.0529 -43.0529 -43.0522 -43.0522
   -43.0518 -43.0517 -43.0511 -43.0511 -43.0337 -43.0335 -43.0332 -43.0330
   -43.0301 -43.0301 -43.0296 -43.0295 -43.0286 -43.0285 -43.0252 -43.0252
   -43.0229 -43.0228 -43.0226 -43.0225 -43.0212 -43.0209 -43.0206 -43.0205
   -43.0190 -43.0190 -43.0181 -43.0180 -43.0162 -43.0160 -43.0102 -43.0101
   -43.0096 -43.0095 -42.9589 -42.9588 -42.9576 -42.9575 -42.9217 -42.9217
   -42.9176 -42.9176 -42.9065 -42.9065 -17.0329 -17.0292 -17.0249 -17.0230
   -17.0178 -17.0157 -17.0136 -17.0122 -17.0122 -17.0120 -17.0105 -17.0085
   -17.0069 -17.0067 -17.0036 -17.0036 -16.9947 -16.9947 -16.9930 -16.9924
   -16.9899 -16.9879 -16.9879 -16.9869 -16.9852 -16.9819 -16.9819 -16.9812
   -16.9805 -16.9790 -16.9790 -16.9747 -16.9747 -16.9720 -16.9720 -16.9708
   -16.9708 -16.9602 -16.9601 -16.9594 -16.9594 -16.9545 -16.9545 -16.9537
   -16.9534 -16.9506 -16.9481 -16.9481 -16.9472 -16.9459 -16.9411 -16.9411
   -16.9285 -16.9285 -16.9235 -16.9235 -16.9214 -16.9214 -16.9160 -16.9159
    -9.3067  -9.2651  -9.2078  -9.1420  -9.0810  -9.0555  -8.3040  -8.2271
    -8.1392  -8.0590  -7.9995  -7.9742  -2.8750  -2.7797  -2.6329  -2.4443
    -2.2410  -2.0897  -1.1470  -0.9751  -0.8328  -0.7360  -0.6736  -0.6584
    -0.2524  -0.0872   0.1645   0.4513   0.7232   1.0089   1.0841   1.2826
     1.2828   1.3361   1.3795   1.4121   1.4130   1.5030   1.5168   1.5326
     1.5915   1.6429   2.3535   2.3931   2.3943   2.4594   2.4841   2.5623
     2.5793   2.6896   2.7740   2.8144   2.8192   3.1681   3.5740   3.6838
     3.8141   3.9311   4.0169   4.0294   5.2813   5.6021   6.1259   6.6133
     6.7278   6.7402   6.8027   6.8602   6.9145   6.9494   6.9743   7.1576
     7.1656   7.3291   7.4826   7.7066   7.7183   7.8109   7.8818   7.9235
     7.9546   8.1452   8.2311   8.3721   8.4349   8.5875   8.7196   8.9561
     9.0166   9.0638   9.1702   9.1986   9.2832   9.3264   9.5054   9.5422
     9.7648   9.9317   9.9467  10.0279  10.0928  10.1696  10.3153  10.3846
    10.5710  10.8644  11.0156  11.0516  11.1757  11.1993  11.3897  11.4337
    11.4541  11.6453  11.8090  11.8587  12.0501  12.1436  12.1773  12.1906
    12.3328  12.4102  12.4356  12.5209  12.5907  12.6071  12.7368  12.7528
    12.8146  12.8837

     occupation numbers 
     1.0000   1.0000   1.0000   1.0000   1.0000   1.0000   1.0000   1.0000
     1.0000   1.0000   1.0000   1.0000   1.0000   1.0000   1.0000   1.0000
     1.0000   1.0000   1.0000   1.0000   1.0000   1.0000   1.0000   1.0000
     1.0000   1.0000   1.0000   1.0000   1.0000   1.0000   1.0000   1.0000
     1.0000   1.0000   1.0000   1.0000   1.0000   1.0000   1.0000   1.0000
     1.0000   1.0000   1.0000   1.0000   1.0000   1.0000   1.0000   1.0000
     1.0000   1.0000   1.0000   1.0000   1.0000   1.0000   1.0000   1.0000
     1.0000   1.0000   1.0000   1.0000   1.0000   1.0000   1.0000   1.0000
     1.0000   1.0000   1.0000   1.0000   1.0000   1.0000   1.0000   1.0000
     1.0000   1.0000   1.0000   1.0000   1.0000   1.0000   1.0000   1.0000
     1.0000   1.0000   1.0000   1.0000   1.0000   1.0000   1.0000   1.0000
     1.0000   1.0000   1.0000   1.0000   1.0000   1.0000   1.0000   1.0000
     1.0000   1.0000   1.0000   1.0000   1.0000   1.0000   1.0000   1.0000
     1.0000   1.0000   1.0000   1.0000   1.0000   1.0000   1.0000   1.0000
     1.0000   1.0000   1.0000   1.0000   1.0000   1.0000   1.0000   1.0000
     1.0000   1.0000   1.0000   1.0000   1.0000   1.0000   1.0000   1.0000
     1.0000   1.0000   1.0000   1.0000   1.0000   1.0000   1.0000   1.0000
     1.0000   1.0000   1.0000   1.0000   1.0000   1.0000   1.0000   1.0000
     1.0000   1.0000   1.0000   1.0000   1.0000   1.0000   1.0000   1.0000
     1.0000   1.0000   1.0000   1.0000   1.0000   1.0000   1.0000   1.0000
     1.0000   1.0000   1.0000   1.0000   1.0000   1.0000   1.0000   1.0000
     1.0000   1.0000   1.0000   1.0000   1.0000   1.0000   1.0000   1.0000
     1.0000   1.0000   1.0000   1.0000   0.0000   0.0000   0.0000   0.0000
     0.0000   0.0000   0.0000   0.0000   0.0000   0.0000   0.0000   0.0000
     0.0000   0.0000   0.0000   0.0000   0.0000   0.0000   0.0000   0.0000
     0.0000   0.0000   0.0000   0.0000   0.0000   0.0000   0.0000   0.0000
     0.0000   0.0000   0.0000   0.0000   0.0000   0.0000   0.0000   0.0000
     0.0000   0.0000   0.0000   0.0000   0.0000   0.0000   0.0000   0.0000
     0.0000   0.0000   0.0000   0.0000   0.0000   0.0000   0.0000   0.0000
     0.0000   0.0000   0.0000   0.0000   0.0000   0.0000   0.0000   0.0000
     0.0000   0.0000   0.0000   0.0000   0.0000   0.0000   0.0000   0.0000
     0.0000   0.0000

          k = 0.0000 0.1463 0.0000 ( 39098 PWs)   bands (ev):

   -43.0642 -43.0640 -43.0636 -43.0635 -43.0631 -43.0629 -43.0624 -43.0624
   -43.0592 -43.0592 -43.0581 -43.0580 -43.0530 -43.0529 -43.0523 -43.0523
   -43.0518 -43.0518 -43.0513 -43.0512 -43.0340 -43.0337 -43.0334 -43.0333
   -43.0302 -43.0301 -43.0297 -43.0296 -43.0289 -43.0289 -43.0253 -43.0252
   -43.0231 -43.0231 -43.0229 -43.0228 -43.0212 -43.0210 -43.0206 -43.0206
   -43.0191 -43.0191 -43.0182 -43.0181 -43.0162 -43.0161 -43.0102 -43.0102
   -43.0096 -43.0096 -42.9589 -42.9589 -42.9577 -42.9576 -42.9220 -42.9220
   -42.9177 -42.9176 -42.9066 -42.9065 -17.0317 -17.0282 -17.0242 -17.0223
   -17.0181 -17.0161 -17.0142 -17.0126 -17.0126 -17.0125 -17.0115 -17.0088
   -17.0072 -17.0070 -17.0042 -17.0042 -16.9937 -16.9937 -16.9914 -16.9905
   -16.9896 -16.9867 -16.9863 -16.9863 -16.9854 -16.9821 -16.9821 -16.9812
   -16.9805 -16.9794 -16.9794 -16.9746 -16.9746 -16.9726 -16.9726 -16.9708
   -16.9708 -16.9604 -16.9596 -16.9586 -16.9586 -16.9544 -16.9542 -16.9540
   -16.9539 -16.9504 -16.9478 -16.9478 -16.9473 -16.9462 -16.9411 -16.9410
   -16.9283 -16.9283 -16.9233 -16.9233 -16.9217 -16.9217 -16.9165 -16.9165
    -9.2135  -9.1732  -9.1175  -9.0532  -8.9930  -8.9679  -8.3187  -8.2462
    -8.1648  -8.0918  -8.0379  -8.0163  -3.1438  -3.0380  -2.8750  -2.6643
    -2.4290  -2.2334  -1.6916  -1.5110  -1.3451  -1.2091  -1.1126  -1.0701
    -0.1511   0.0754   0.3998   0.7533   1.0448   1.3750   1.3843   1.4205
     1.4718   1.5447   1.6319   1.7017   1.7169   1.7279   1.7657   1.8206
     1.8943   1.9143   2.4065   2.5044   2.6133   2.7122   2.7532   2.7690
     2.7870   2.8256   2.8851   3.0274   3.2245   3.2939   3.4241   3.5561
     3.6277   3.7761   3.8994   3.9528   5.4194   5.7155   6.1143   6.1843
     6.3527   6.5289   6.6292   6.8989   6.9233   6.9714   6.9835   6.9960
     7.0701   7.1273   7.1926   7.2176   7.3186   7.4481   7.4748   7.6807
     7.8480   7.9280   8.0875   8.2091   8.4169   8.4807   8.5766   8.7634
     8.8212   9.0052   9.0211   9.0218   9.0465   9.1710   9.2398   9.3142
     9.4039   9.4228   9.4990  10.0408  10.1934  10.1943  10.2474  10.2945
    10.4706  10.8039  10.8098  10.9738  11.1577  11.1640  11.4205  11.4911
    11.5349  11.6520  11.7601  11.8477  12.0490  12.1455  12.2304  12.2610
    12.2857  12.3732  12.5133  12.7192  12.7568  12.8966  13.0407  13.1406
    13.1592  13.2029

     occupation numbers 
     1.0000   1.0000   1.0000   1.0000   1.0000   1.0000   1.0000   1.0000
     1.0000   1.0000   1.0000   1.0000   1.0000   1.0000   1.0000   1.0000
     1.0000   1.0000   1.0000   1.0000   1.0000   1.0000   1.0000   1.0000
     1.0000   1.0000   1.0000   1.0000   1.0000   1.0000   1.0000   1.0000
     1.0000   1.0000   1.0000   1.0000   1.0000   1.0000   1.0000   1.0000
     1.0000   1.0000   1.0000   1.0000   1.0000   1.0000   1.0000   1.0000
     1.0000   1.0000   1.0000   1.0000   1.0000   1.0000   1.0000   1.0000
     1.0000   1.0000   1.0000   1.0000   1.0000   1.0000   1.0000   1.0000
     1.0000   1.0000   1.0000   1.0000   1.0000   1.0000   1.0000   1.0000
     1.0000   1.0000   1.0000   1.0000   1.0000   1.0000   1.0000   1.0000
     1.0000   1.0000   1.0000   1.0000   1.0000   1.0000   1.0000   1.0000
     1.0000   1.0000   1.0000   1.0000   1.0000   1.0000   1.0000   1.0000
     1.0000   1.0000   1.0000   1.0000   1.0000   1.0000   1.0000   1.0000
     1.0000   1.0000   1.0000   1.0000   1.0000   1.0000   1.0000   1.0000
     1.0000   1.0000   1.0000   1.0000   1.0000   1.0000   1.0000   1.0000
     1.0000   1.0000   1.0000   1.0000   1.0000   1.0000   1.0000   1.0000
     1.0000   1.0000   1.0000   1.0000   1.0000   1.0000   1.0000   1.0000
     1.0000   1.0000   1.0000   1.0000   1.0000   1.0000   1.0000   1.0000
     1.0000   1.0000   1.0000   1.0000   1.0000   1.0000   1.0000   1.0000
     1.0000   1.0000   1.0000   1.0000   1.0000   1.0000   1.0000   1.0000
     1.0000   1.0000   1.0000   1.0000   1.0000   1.0000   1.0000   1.0000
     1.0000   1.0000   1.0000   1.0000   1.0000   1.0000   1.0000   1.0000
     1.0000   1.0000   1.0000   1.0000   0.0000   0.0000   0.0000   0.0000
     0.0000   0.0000   0.0000   0.0000   0.0000   0.0000   0.0000   0.0000
     0.0000   0.0000   0.0000   0.0000   0.0000   0.0000   0.0000   0.0000
     0.0000   0.0000   0.0000   0.0000   0.0000   0.0000   0.0000   0.0000
     0.0000   0.0000   0.0000   0.0000   0.0000   0.0000   0.0000   0.0000
     0.0000   0.0000   0.0000   0.0000   0.0000   0.0000   0.0000   0.0000
     0.0000   0.0000   0.0000   0.0000   0.0000   0.0000   0.0000   0.0000
     0.0000   0.0000   0.0000   0.0000   0.0000   0.0000   0.0000   0.0000
     0.0000   0.0000   0.0000   0.0000   0.0000   0.0000   0.0000   0.0000
     0.0000   0.0000

          k = 0.0000 0.2926 0.0000 ( 39122 PWs)   bands (ev):

   -43.0643 -43.0640 -43.0636 -43.0636 -43.0631 -43.0630 -43.0625 -43.0625
   -43.0592 -43.0592 -43.0581 -43.0581 -43.0530 -43.0529 -43.0523 -43.0522
   -43.0519 -43.0519 -43.0514 -43.0513 -43.0342 -43.0338 -43.0336 -43.0334
   -43.0303 -43.0300 -43.0297 -43.0296 -43.0290 -43.0289 -43.0253 -43.0252
   -43.0233 -43.0233 -43.0229 -43.0229 -43.0212 -43.0210 -43.0207 -43.0206
   -43.0191 -43.0191 -43.0182 -43.0181 -43.0162 -43.0161 -43.0102 -43.0102
   -43.0096 -43.0096 -42.9590 -42.9589 -42.9578 -42.9577 -42.9221 -42.9221
   -42.9177 -42.9177 -42.9066 -42.9066 -17.0286 -17.0258 -17.0231 -17.0203
   -17.0185 -17.0174 -17.0153 -17.0141 -17.0140 -17.0136 -17.0133 -17.0095
   -17.0076 -17.0075 -17.0057 -17.0057 -16.9914 -16.9914 -16.9888 -16.9874
   -16.9865 -16.9864 -16.9860 -16.9840 -16.9839 -16.9823 -16.9821 -16.9812
   -16.9805 -16.9802 -16.9801 -16.9747 -16.9747 -16.9737 -16.9737 -16.9707
   -16.9707 -16.9599 -16.9586 -16.9572 -16.9571 -16.9560 -16.9556 -16.9540
   -16.9540 -16.9498 -16.9474 -16.9469 -16.9459 -16.9459 -16.9413 -16.9413
   -16.9277 -16.9277 -16.9228 -16.9227 -16.9224 -16.9224 -16.9179 -16.9178
    -8.9649  -8.9291  -8.8793  -8.8196  -8.7590  -8.7318  -8.4074  -8.3419
    -8.2754  -8.2188  -8.1778  -8.1642  -3.4659  -3.3637  -3.2122  -3.0289
    -2.8451  -2.4952  -2.4724  -2.2531  -2.1054  -1.9545  -1.8247  -1.7442
     0.2468   0.5094   0.8791   1.2814   1.4676   1.7901   1.8036   1.8303
     1.8342   1.8964   1.9715   2.0474   2.0908   2.1445   2.2596   2.4064
     2.4564   2.4610   2.5337   2.5643   2.6131   2.6815   2.7314   2.7533
     2.9409   2.9782   3.1147   3.3074   3.5312   3.7185   3.7403   3.8193
     3.9119   4.0077   4.0980   4.1610   5.3349   5.4694   5.6677   5.8373
     5.9135   5.9270   6.0411   6.3538   6.4774   6.4867   6.5543   6.5569
     6.6531   6.6579   6.7950   6.9401   6.9671   6.9870   7.0581   7.1409
     7.4814   7.6052   7.6277   7.9131   7.9249   8.1123   8.1135   8.1310
     8.2938   8.4417   8.5341   8.9099   8.9152   9.0149   9.0996   9.2549
     9.4090   9.6506   9.7709  10.3833  10.5132  10.5489  10.5946  10.7470
    10.7937  11.1025  11.1337  11.2324  11.5392  11.6362  11.6793  11.8143
    11.9242  11.9712  11.9786  12.0673  12.0924  12.2174  12.2513  12.3374
    12.5129  12.5766  12.5773  12.6929  12.7536  12.9298  13.0178  13.1539
    13.3754  13.4348

     occupation numbers 
     1.0000   1.0000   1.0000   1.0000   1.0000   1.0000   1.0000   1.0000
     1.0000   1.0000   1.0000   1.0000   1.0000   1.0000   1.0000   1.0000
     1.0000   1.0000   1.0000   1.0000   1.0000   1.0000   1.0000   1.0000
     1.0000   1.0000   1.0000   1.0000   1.0000   1.0000   1.0000   1.0000
     1.0000   1.0000   1.0000   1.0000   1.0000   1.0000   1.0000   1.0000
     1.0000   1.0000   1.0000   1.0000   1.0000   1.0000   1.0000   1.0000
     1.0000   1.0000   1.0000   1.0000   1.0000   1.0000   1.0000   1.0000
     1.0000   1.0000   1.0000   1.0000   1.0000   1.0000   1.0000   1.0000
     1.0000   1.0000   1.0000   1.0000   1.0000   1.0000   1.0000   1.0000
     1.0000   1.0000   1.0000   1.0000   1.0000   1.0000   1.0000   1.0000
     1.0000   1.0000   1.0000   1.0000   1.0000   1.0000   1.0000   1.0000
     1.0000   1.0000   1.0000   1.0000   1.0000   1.0000   1.0000   1.0000
     1.0000   1.0000   1.0000   1.0000   1.0000   1.0000   1.0000   1.0000
     1.0000   1.0000   1.0000   1.0000   1.0000   1.0000   1.0000   1.0000
     1.0000   1.0000   1.0000   1.0000   1.0000   1.0000   1.0000   1.0000
     1.0000   1.0000   1.0000   1.0000   1.0000   1.0000   1.0000   1.0000
     1.0000   1.0000   1.0000   1.0000   1.0000   1.0000   1.0000   1.0000
     1.0000   1.0000   1.0000   1.0000   1.0000   1.0000   1.0000   1.0000
     1.0000   1.0000   1.0000   1.0000   1.0000   1.0000   1.0000   1.0000
     1.0000   1.0000   1.0000   1.0000   1.0000   1.0000   1.0000   1.0000
     1.0000   1.0000   1.0000   1.0000   1.0000   1.0000   1.0000   1.0000
     1.0000   1.0000   1.0000   1.0000   1.0000   1.0000   1.0000   1.0000
     1.0000   1.0000   1.0000   1.0000   0.0000   0.0000   0.0000   0.0000
     0.0000   0.0000   0.0000   0.0000   0.0000   0.0000   0.0000   0.0000
     0.0000   0.0000   0.0000   0.0000   0.0000   0.0000   0.0000   0.0000
     0.0000   0.0000   0.0000   0.0000   0.0000   0.0000   0.0000   0.0000
     0.0000   0.0000   0.0000   0.0000   0.0000   0.0000   0.0000   0.0000
     0.0000   0.0000   0.0000   0.0000   0.0000   0.0000   0.0000   0.0000
     0.0000   0.0000   0.0000   0.0000   0.0000   0.0000   0.0000   0.0000
     0.0000   0.0000   0.0000   0.0000   0.0000   0.0000   0.0000   0.0000
     0.0000   0.0000   0.0000   0.0000   0.0000   0.0000   0.0000   0.0000
     0.0000   0.0000

          k = 0.0000-0.4389 0.0000 ( 39128 PWs)   bands (ev):

   -43.0643 -43.0641 -43.0637 -43.0637 -43.0631 -43.0630 -43.0625 -43.0625
   -43.0593 -43.0593 -43.0582 -43.0581 -43.0531 -43.0531 -43.0524 -43.0523
   -43.0519 -43.0519 -43.0514 -43.0514 -43.0342 -43.0338 -43.0336 -43.0334
   -43.0304 -43.0300 -43.0297 -43.0297 -43.0290 -43.0289 -43.0253 -43.0253
   -43.0233 -43.0233 -43.0229 -43.0229 -43.0212 -43.0210 -43.0207 -43.0206
   -43.0192 -43.0192 -43.0182 -43.0182 -43.0162 -43.0161 -43.0102 -43.0102
   -43.0096 -43.0096 -42.9591 -42.9590 -42.9578 -42.9577 -42.9221 -42.9221
   -42.9178 -42.9177 -42.9066 -42.9065 -17.0256 -17.0242 -17.0241 -17.0194
   -17.0175 -17.0174 -17.0159 -17.0159 -17.0157 -17.0143 -17.0141 -17.0098
   -17.0077 -17.0076 -17.0066 -17.0066 -16.9898 -16.9898 -16.9882 -16.9864
   -16.9864 -16.9847 -16.9846 -16.9841 -16.9831 -16.9829 -16.9823 -16.9805
   -16.9805 -16.9799 -16.9799 -16.9750 -16.9750 -16.9743 -16.9743 -16.9707
   -16.9707 -16.9587 -16.9580 -16.9575 -16.9569 -16.9561 -16.9561 -16.9546
   -16.9545 -16.9493 -16.9474 -16.9474 -16.9432 -16.9431 -16.9427 -16.9427
   -16.9274 -16.9273 -16.9228 -16.9228 -16.9223 -16.9223 -16.9187 -16.9186
    -8.6681  -8.6661  -8.6650  -8.6550  -8.6549  -8.4388  -8.4388  -8.4322
    -8.4302  -8.4288  -8.4189  -8.4188  -3.3628  -3.3622  -3.3290  -3.3228
    -3.3071  -2.6811  -2.6798  -2.3372  -2.3279  -2.2678  -2.2559  -2.2298
     0.9083   0.9204   1.1394   1.1873   1.4242   1.6734   1.9406   2.0568
     2.2161   2.2173   2.2208   2.2315   2.2319   2.4012   2.4422   2.4423
     2.4493   2.4759   2.4770   2.4816   2.4922   2.4928   2.7605   2.7852
     3.3954   3.4223   3.5376   3.5803   3.6339   3.7882   3.7943   4.0452
     4.0478   4.0623   4.0860   4.0869   5.5812   5.5823   5.5970   5.6090
     5.6233   5.8786   5.8815   6.1035   6.1044   6.1147   6.1290   6.1383
     6.5274   6.5282   6.5489   6.5576   6.5658   6.9508   6.9765   7.1418
     7.2254   7.3262   7.3263   7.4042   7.6053   7.7032   7.8055   7.8076
     7.8460   7.8473   7.8650   9.0447   9.1831   9.2947   9.5502   9.6326
     9.8720   9.9139  10.0495  10.1758  10.4790  10.7505  11.2132  11.5698
    11.7507  11.7551  11.7846  11.8289  11.8401  11.9731  11.9825  12.1238
    12.1848  12.2691  12.3572  12.5203  12.5886  12.6127  12.7009  12.7173
    12.7308  12.8211  12.8380  12.8983  12.8987  12.9670  13.0143  13.0801
    13.1192  13.1941

     occupation numbers 
     1.0000   1.0000   1.0000   1.0000   1.0000   1.0000   1.0000   1.0000
     1.0000   1.0000   1.0000   1.0000   1.0000   1.0000   1.0000   1.0000
     1.0000   1.0000   1.0000   1.0000   1.0000   1.0000   1.0000   1.0000
     1.0000   1.0000   1.0000   1.0000   1.0000   1.0000   1.0000   1.0000
     1.0000   1.0000   1.0000   1.0000   1.0000   1.0000   1.0000   1.0000
     1.0000   1.0000   1.0000   1.0000   1.0000   1.0000   1.0000   1.0000
     1.0000   1.0000   1.0000   1.0000   1.0000   1.0000   1.0000   1.0000
     1.0000   1.0000   1.0000   1.0000   1.0000   1.0000   1.0000   1.0000
     1.0000   1.0000   1.0000   1.0000   1.0000   1.0000   1.0000   1.0000
     1.0000   1.0000   1.0000   1.0000   1.0000   1.0000   1.0000   1.0000
     1.0000   1.0000   1.0000   1.0000   1.0000   1.0000   1.0000   1.0000
     1.0000   1.0000   1.0000   1.0000   1.0000   1.0000   1.0000   1.0000
     1.0000   1.0000   1.0000   1.0000   1.0000   1.0000   1.0000   1.0000
     1.0000   1.0000   1.0000   1.0000   1.0000   1.0000   1.0000   1.0000
     1.0000   1.0000   1.0000   1.0000   1.0000   1.0000   1.0000   1.0000
     1.0000   1.0000   1.0000   1.0000   1.0000   1.0000   1.0000   1.0000
     1.0000   1.0000   1.0000   1.0000   1.0000   1.0000   1.0000   1.0000
     1.0000   1.0000   1.0000   1.0000   1.0000   1.0000   1.0000   1.0000
     1.0000   1.0000   1.0000   1.0000   1.0000   1.0000   1.0000   1.0000
     1.0000   1.0000   1.0000   1.0000   1.0000   1.0000   1.0000   1.0000
     1.0000   1.0000   1.0000   1.0000   1.0000   1.0000   1.0000   1.0000
     1.0000   1.0000   1.0000   1.0000   1.0000   1.0000   1.0000   1.0000
     1.0000   1.0000   1.0000   1.0000   0.0000   0.0000   0.0000   0.0000
     0.0000   0.0000   0.0000   0.0000   0.0000   0.0000   0.0000   0.0000
     0.0000   0.0000   0.0000   0.0000   0.0000   0.0000   0.0000   0.0000
     0.0000   0.0000   0.0000   0.0000   0.0000   0.0000   0.0000   0.0000
     0.0000   0.0000   0.0000   0.0000   0.0000   0.0000   0.0000   0.0000
     0.0000   0.0000   0.0000   0.0000   0.0000   0.0000   0.0000   0.0000
     0.0000   0.0000   0.0000   0.0000   0.0000   0.0000   0.0000   0.0000
     0.0000   0.0000   0.0000   0.0000   0.0000   0.0000   0.0000   0.0000
     0.0000   0.0000   0.0000   0.0000   0.0000   0.0000   0.0000   0.0000
     0.0000   0.0000

          k = 0.1667 0.0000 0.0000 ( 38963 PWs)   bands (ev):

   -43.0642 -43.0641 -43.0636 -43.0636 -43.0627 -43.0627 -43.0622 -43.0622
   -43.0592 -43.0592 -43.0578 -43.0578 -43.0530 -43.0529 -43.0523 -43.0523
   -43.0516 -43.0516 -43.0511 -43.0511 -43.0337 -43.0334 -43.0331 -43.0330
   -43.0302 -43.0301 -43.0297 -43.0296 -43.0286 -43.0285 -43.0253 -43.0252
   -43.0228 -43.0228 -43.0226 -43.0225 -43.0211 -43.0209 -43.0205 -43.0205
   -43.0191 -43.0191 -43.0182 -43.0181 -43.0161 -43.0160 -43.0101 -43.0101
   -43.0095 -43.0095 -42.9590 -42.9589 -42.9575 -42.9574 -42.9217 -42.9217
   -42.9177 -42.9176 -42.9065 -42.9065 -17.0280 -17.0252 -17.0213 -17.0207
   -17.0166 -17.0154 -17.0130 -17.0119 -17.0117 -17.0113 -17.0101 -17.0095
   -17.0081 -17.0081 -17.0054 -17.0054 -16.9924 -16.9921 -16.9912 -16.9911
   -16.9896 -16.9893 -16.9885 -16.9867 -16.9866 -16.9819 -16.9818 -16.9802
   -16.9794 -16.9789 -16.9788 -16.9750 -16.9749 -16.9733 -16.9732 -16.9711
   -16.9711 -16.9622 -16.9602 -16.9589 -16.9582 -16.9573 -16.9554 -16.9532
   -16.9521 -16.9494 -16.9482 -16.9478 -16.9459 -16.9451 -16.9415 -16.9415
   -16.9302 -16.9302 -16.9252 -16.9252 -16.9203 -16.9203 -16.9147 -16.9147
    -9.1599  -9.1204  -9.0662  -9.0041  -8.9465  -8.9240  -8.2397  -8.1707
    -8.0931  -8.0235  -7.9723  -7.9538  -3.0057  -2.9159  -2.7801  -2.6113
    -2.4392  -2.3202  -1.3755  -1.3057  -1.2714  -1.2678  -1.1938  -1.1937
    -0.1466   0.0477   0.3229   0.6221   0.8977   1.0241   1.0952   1.1469
     1.2248   1.2409   1.3333   1.3944   1.4484   1.5702   1.5954   1.6936
     1.7306   1.7765   2.3767   2.3776   2.4114   2.4460   2.5052   2.5318
     2.5826   2.5839   2.6727   2.8302   3.0992   3.4464   3.6262   3.7824
     3.8692   3.8763   3.9254   3.9329   5.4557   5.7450   6.1426   6.2001
     6.4395   6.4637   6.7195   6.8485   6.9428   7.0013   7.1503   7.1518
     7.3023   7.3060   7.3514   7.4134   7.4900   7.5185   7.5754   7.6433
     7.7415   7.8330   8.0238   8.1030   8.2242   8.4292   8.4804   8.6543
     8.7153   8.9248   9.0085   9.1428   9.2203   9.2509   9.2800   9.3097
     9.3435   9.3688   9.5500   9.9938  10.0165  10.0730  10.0754  10.1824
    10.1982  10.3370  10.6161  10.6572  10.7310  10.8002  10.9087  10.9252
    10.9804  10.9926  11.2624  11.3798  11.6220  11.9885  12.1407  12.3174
    12.5047  12.6966  12.7852  12.8317  12.8559  12.9543  13.2022  13.4715
    13.6830  13.7057

     occupation numbers 
     1.0000   1.0000   1.0000   1.0000   1.0000   1.0000   1.0000   1.0000
     1.0000   1.0000   1.0000   1.0000   1.0000   1.0000   1.0000   1.0000
     1.0000   1.0000   1.0000   1.0000   1.0000   1.0000   1.0000   1.0000
     1.0000   1.0000   1.0000   1.0000   1.0000   1.0000   1.0000   1.0000
     1.0000   1.0000   1.0000   1.0000   1.0000   1.0000   1.0000   1.0000
     1.0000   1.0000   1.0000   1.0000   1.0000   1.0000   1.0000   1.0000
     1.0000   1.0000   1.0000   1.0000   1.0000   1.0000   1.0000   1.0000
     1.0000   1.0000   1.0000   1.0000   1.0000   1.0000   1.0000   1.0000
     1.0000   1.0000   1.0000   1.0000   1.0000   1.0000   1.0000   1.0000
     1.0000   1.0000   1.0000   1.0000   1.0000   1.0000   1.0000   1.0000
     1.0000   1.0000   1.0000   1.0000   1.0000   1.0000   1.0000   1.0000
     1.0000   1.0000   1.0000   1.0000   1.0000   1.0000   1.0000   1.0000
     1.0000   1.0000   1.0000   1.0000   1.0000   1.0000   1.0000   1.0000
     1.0000   1.0000   1.0000   1.0000   1.0000   1.0000   1.0000   1.0000
     1.0000   1.0000   1.0000   1.0000   1.0000   1.0000   1.0000   1.0000
     1.0000   1.0000   1.0000   1.0000   1.0000   1.0000   1.0000   1.0000
     1.0000   1.0000   1.0000   1.0000   1.0000   1.0000   1.0000   1.0000
     1.0000   1.0000   1.0000   1.0000   1.0000   1.0000   1.0000   1.0000
     1.0000   1.0000   1.0000   1.0000   1.0000   1.0000   1.0000   1.0000
     1.0000   1.0000   1.0000   1.0000   1.0000   1.0000   1.0000   1.0000
     1.0000   1.0000   1.0000   1.0000   1.0000   1.0000   1.0000   1.0000
     1.0000   1.0000   1.0000   1.0000   1.0000   1.0000   1.0000   1.0000
     1.0000   1.0000   1.0000   1.0000   0.0000   0.0000   0.0000   0.0000
     0.0000   0.0000   0.0000   0.0000   0.0000   0.0000   0.0000   0.0000
     0.0000   0.0000   0.0000   0.0000   0.0000   0.0000   0.0000   0.0000
     0.0000   0.0000   0.0000   0.0000   0.0000   0.0000   0.0000   0.0000
     0.0000   0.0000   0.0000   0.0000   0.0000   0.0000   0.0000   0.0000
     0.0000   0.0000   0.0000   0.0000   0.0000   0.0000   0.0000   0.0000
     0.0000   0.0000   0.0000   0.0000   0.0000   0.0000   0.0000   0.0000
     0.0000   0.0000   0.0000   0.0000   0.0000   0.0000   0.0000   0.0000
     0.0000   0.0000   0.0000   0.0000   0.0000   0.0000   0.0000   0.0000
     0.0000   0.0000

          k = 0.1667 0.1463 0.0000 ( 39051 PWs)   bands (ev):

   -43.0642 -43.0640 -43.0636 -43.0635 -43.0628 -43.0628 -43.0623 -43.0622
   -43.0592 -43.0592 -43.0579 -43.0579 -43.0530 -43.0529 -43.0523 -43.0522
   -43.0517 -43.0517 -43.0512 -43.0511 -43.0340 -43.0337 -43.0334 -43.0333
   -43.0303 -43.0300 -43.0297 -43.0296 -43.0289 -43.0288 -43.0253 -43.0252
   -43.0232 -43.0231 -43.0228 -43.0228 -43.0211 -43.0210 -43.0206 -43.0205
   -43.0191 -43.0191 -43.0181 -43.0181 -43.0161 -43.0161 -43.0101 -43.0101
   -43.0096 -43.0095 -42.9589 -42.9589 -42.9576 -42.9575 -42.9220 -42.9220
   -42.9177 -42.9176 -42.9065 -42.9065 -17.0274 -17.0247 -17.0209 -17.0204
   -17.0176 -17.0163 -17.0132 -17.0125 -17.0121 -17.0116 -17.0108 -17.0103
   -17.0082 -17.0081 -17.0060 -17.0060 -16.9925 -16.9904 -16.9903 -16.9902
   -16.9893 -16.9885 -16.9879 -16.9858 -16.9857 -16.9822 -16.9821 -16.9803
   -16.9794 -16.9789 -16.9786 -16.9751 -16.9751 -16.9735 -16.9734 -16.9713
   -16.9713 -16.9620 -16.9600 -16.9587 -16.9576 -16.9570 -16.9554 -16.9533
   -16.9525 -16.9490 -16.9478 -16.9475 -16.9459 -16.9453 -16.9413 -16.9413
   -16.9301 -16.9301 -16.9255 -16.9255 -16.9201 -16.9201 -16.9151 -16.9151
    -9.0712  -9.0329  -8.9804  -8.9200  -8.8632  -8.8413  -8.2516  -8.1862
    -8.1141  -8.0503  -8.0034  -7.9877  -3.1540  -3.0536  -2.9008  -2.7081
    -2.5020  -2.3438  -1.7938  -1.6667  -1.5532  -1.4648  -1.4039  -1.3855
    -0.0239   0.1806   0.4225   0.5580   0.5622   0.7989   0.8053   0.8667
     0.9567   1.1265   1.3474   1.4979   1.8298   1.8393   1.9411   2.0150
     2.0933   2.2291   2.2444   2.2872   2.3584   2.4049   2.4312   2.4716
     3.0922   3.1076   3.1722   3.2437   3.2896   3.4875   3.5189   3.7332
     3.7698   3.8657   3.9110   3.9289   5.5716   5.8009   5.9822   6.0515
     6.0581   6.3038   6.3402   6.5112   6.5899   6.7038   6.8061   6.9514
     7.0472   7.1826   7.2412   7.3024   7.3293   7.4548   7.5305   7.8791
     7.9476   8.0415   8.1735   8.2100   8.2664   8.3085   8.5076   8.5953
     8.6677   8.7474   8.7959   8.8436   8.8969   8.9485   9.0769   9.1683
     9.4593   9.5580   9.7643  10.1470  10.3248  10.4032  10.5969  10.7058
    10.8568  10.9683  11.1652  11.1863  11.2574  11.2984  11.3421  11.3942
    11.5030  11.5947  11.5988  11.7994  11.9415  12.1871  12.3048  12.4808
    12.5855  12.6547  12.6881  12.7699  12.8016  12.9126  12.9954  13.1486
    13.2069  13.2630

     occupation numbers 
     1.0000   1.0000   1.0000   1.0000   1.0000   1.0000   1.0000   1.0000
     1.0000   1.0000   1.0000   1.0000   1.0000   1.0000   1.0000   1.0000
     1.0000   1.0000   1.0000   1.0000   1.0000   1.0000   1.0000   1.0000
     1.0000   1.0000   1.0000   1.0000   1.0000   1.0000   1.0000   1.0000
     1.0000   1.0000   1.0000   1.0000   1.0000   1.0000   1.0000   1.0000
     1.0000   1.0000   1.0000   1.0000   1.0000   1.0000   1.0000   1.0000
     1.0000   1.0000   1.0000   1.0000   1.0000   1.0000   1.0000   1.0000
     1.0000   1.0000   1.0000   1.0000   1.0000   1.0000   1.0000   1.0000
     1.0000   1.0000   1.0000   1.0000   1.0000   1.0000   1.0000   1.0000
     1.0000   1.0000   1.0000   1.0000   1.0000   1.0000   1.0000   1.0000
     1.0000   1.0000   1.0000   1.0000   1.0000   1.0000   1.0000   1.0000
     1.0000   1.0000   1.0000   1.0000   1.0000   1.0000   1.0000   1.0000
     1.0000   1.0000   1.0000   1.0000   1.0000   1.0000   1.0000   1.0000
     1.0000   1.0000   1.0000   1.0000   1.0000   1.0000   1.0000   1.0000
     1.0000   1.0000   1.0000   1.0000   1.0000   1.0000   1.0000   1.0000
     1.0000   1.0000   1.0000   1.0000   1.0000   1.0000   1.0000   1.0000
     1.0000   1.0000   1.0000   1.0000   1.0000   1.0000   1.0000   1.0000
     1.0000   1.0000   1.0000   1.0000   1.0000   1.0000   1.0000   1.0000
     1.0000   1.0000   1.0000   1.0000   1.0000   1.0000   1.0000   1.0000
     1.0000   1.0000   1.0000   1.0000   1.0000   1.0000   1.0000   1.0000
     1.0000   1.0000   1.0000   1.0000   1.0000   1.0000   1.0000   1.0000
     1.0000   1.0000   1.0000   1.0000   1.0000   1.0000   1.0000   1.0000
     1.0000   1.0000   1.0000   1.0000   0.0000   0.0000   0.0000   0.0000
     0.0000   0.0000   0.0000   0.0000   0.0000   0.0000   0.0000   0.0000
     0.0000   0.0000   0.0000   0.0000   0.0000   0.0000   0.0000   0.0000
     0.0000   0.0000   0.0000   0.0000   0.0000   0.0000   0.0000   0.0000
     0.0000   0.0000   0.0000   0.0000   0.0000   0.0000   0.0000   0.0000
     0.0000   0.0000   0.0000   0.0000   0.0000   0.0000   0.0000   0.0000
     0.0000   0.0000   0.0000   0.0000   0.0000   0.0000   0.0000   0.0000
     0.0000   0.0000   0.0000   0.0000   0.0000   0.0000   0.0000   0.0000
     0.0000   0.0000   0.0000   0.0000   0.0000   0.0000   0.0000   0.0000
     0.0000   0.0000

          k = 0.1667 0.2926 0.0000 ( 39099 PWs)   bands (ev):

   -43.0643 -43.0640 -43.0637 -43.0635 -43.0628 -43.0628 -43.0623 -43.0622
   -43.0592 -43.0592 -43.0579 -43.0579 -43.0530 -43.0530 -43.0523 -43.0523
   -43.0517 -43.0516 -43.0512 -43.0511 -43.0341 -43.0338 -43.0335 -43.0334
   -43.0303 -43.0300 -43.0297 -43.0296 -43.0290 -43.0289 -43.0253 -43.0253
   -43.0232 -43.0232 -43.0229 -43.0229 -43.0211 -43.0209 -43.0206 -43.0205
   -43.0191 -43.0191 -43.0182 -43.0181 -43.0161 -43.0160 -43.0101 -43.0101
   -43.0096 -43.0095 -42.9590 -42.9589 -42.9575 -42.9575 -42.9221 -42.9220
   -42.9177 -42.9177 -42.9065 -42.9065 -17.0256 -17.0233 -17.0203 -17.0197
   -17.0194 -17.0184 -17.0142 -17.0138 -17.0135 -17.0119 -17.0117 -17.0115
   -17.0088 -17.0088 -17.0070 -17.0070 -16.9916 -16.9894 -16.9892 -16.9888
   -16.9888 -16.9861 -16.9851 -16.9848 -16.9844 -16.9823 -16.9815 -16.9804
   -16.9799 -16.9789 -16.9784 -16.9757 -16.9756 -16.9734 -16.9734 -16.9715
   -16.9715 -16.9613 -16.9596 -16.9588 -16.9566 -16.9562 -16.9558 -16.9538
   -16.9535 -16.9483 -16.9464 -16.9461 -16.9449 -16.9449 -16.9412 -16.9412
   -16.9297 -16.9297 -16.9260 -16.9260 -16.9195 -16.9195 -16.9161 -16.9161
    -8.8368  -8.8031  -8.7566  -8.7011  -8.6443  -8.6207  -8.3280  -8.2682
    -8.2084  -8.1583  -8.1214  -8.1117  -3.3437  -3.2456  -3.1010  -2.9268
    -2.7516  -2.4377  -2.4124  -2.2164  -2.0869  -1.9615  -1.8583  -1.7987
     0.3662   0.5071   0.5731   0.5894   0.6191   0.8326   0.8599   0.9416
     1.1702   1.4042   1.5329   1.5411   1.5620   1.6258   1.6904   1.8137
     2.1126   2.1410   2.3296   2.3755   2.5315   2.7120   2.8240   2.8436
     3.2483   3.2568   3.2917   3.3275   3.3436   3.5112   3.5141   3.6515
     3.6809   3.7482   3.8284   3.8747   5.6696   5.9026   6.0710   6.1556
     6.2013   6.2948   6.3141   6.4762   6.5093   6.5377   6.6527   6.6990
     6.9274   6.9801   7.0756   7.2140   7.3362   7.3764   7.3922   7.6138
     7.6618   7.7523   7.8554   8.0445   8.2943   8.3639   8.5809   8.6323
     8.7442   8.8060   8.8607   9.0153   9.0693   9.1624   9.2323   9.3916
     9.4284   9.6576   9.9174  10.3844  10.5389  10.7165  10.9860  11.0566
    11.2257  11.3395  11.3955  11.4802  11.5622  11.7440  11.8069  11.8128
    11.9000  11.9537  12.0975  12.1361  12.2858  12.3339  12.4212  12.5182
    12.6143  12.6494  12.6827  12.6981  12.7936  12.8832  13.0244  13.1662
    13.2721  13.3880

     occupation numbers 
     1.0000   1.0000   1.0000   1.0000   1.0000   1.0000   1.0000   1.0000
     1.0000   1.0000   1.0000   1.0000   1.0000   1.0000   1.0000   1.0000
     1.0000   1.0000   1.0000   1.0000   1.0000   1.0000   1.0000   1.0000
     1.0000   1.0000   1.0000   1.0000   1.0000   1.0000   1.0000   1.0000
     1.0000   1.0000   1.0000   1.0000   1.0000   1.0000   1.0000   1.0000
     1.0000   1.0000   1.0000   1.0000   1.0000   1.0000   1.0000   1.0000
     1.0000   1.0000   1.0000   1.0000   1.0000   1.0000   1.0000   1.0000
     1.0000   1.0000   1.0000   1.0000   1.0000   1.0000   1.0000   1.0000
     1.0000   1.0000   1.0000   1.0000   1.0000   1.0000   1.0000   1.0000
     1.0000   1.0000   1.0000   1.0000   1.0000   1.0000   1.0000   1.0000
     1.0000   1.0000   1.0000   1.0000   1.0000   1.0000   1.0000   1.0000
     1.0000   1.0000   1.0000   1.0000   1.0000   1.0000   1.0000   1.0000
     1.0000   1.0000   1.0000   1.0000   1.0000   1.0000   1.0000   1.0000
     1.0000   1.0000   1.0000   1.0000   1.0000   1.0000   1.0000   1.0000
     1.0000   1.0000   1.0000   1.0000   1.0000   1.0000   1.0000   1.0000
     1.0000   1.0000   1.0000   1.0000   1.0000   1.0000   1.0000   1.0000
     1.0000   1.0000   1.0000   1.0000   1.0000   1.0000   1.0000   1.0000
     1.0000   1.0000   1.0000   1.0000   1.0000   1.0000   1.0000   1.0000
     1.0000   1.0000   1.0000   1.0000   1.0000   1.0000   1.0000   1.0000
     1.0000   1.0000   1.0000   1.0000   1.0000   1.0000   1.0000   1.0000
     1.0000   1.0000   1.0000   1.0000   1.0000   1.0000   1.0000   1.0000
     1.0000   1.0000   1.0000   1.0000   1.0000   1.0000   1.0000   1.0000
     1.0000   1.0000   1.0000   1.0000   0.0000   0.0000   0.0000   0.0000
     0.0000   0.0000   0.0000   0.0000   0.0000   0.0000   0.0000   0.0000
     0.0000   0.0000   0.0000   0.0000   0.0000   0.0000   0.0000   0.0000
     0.0000   0.0000   0.0000   0.0000   0.0000   0.0000   0.0000   0.0000
     0.0000   0.0000   0.0000   0.0000   0.0000   0.0000   0.0000   0.0000
     0.0000   0.0000   0.0000   0.0000   0.0000   0.0000   0.0000   0.0000
     0.0000   0.0000   0.0000   0.0000   0.0000   0.0000   0.0000   0.0000
     0.0000   0.0000   0.0000   0.0000   0.0000   0.0000   0.0000   0.0000
     0.0000   0.0000   0.0000   0.0000   0.0000   0.0000   0.0000   0.0000
     0.0000   0.0000

          k = 0.1667-0.4389 0.0000 ( 39058 PWs)   bands (ev):

   -43.0641 -43.0640 -43.0636 -43.0635 -43.0629 -43.0627 -43.0623 -43.0622
   -43.0592 -43.0591 -43.0579 -43.0579 -43.0529 -43.0529 -43.0523 -43.0522
   -43.0517 -43.0516 -43.0511 -43.0511 -43.0340 -43.0338 -43.0335 -43.0334
   -43.0302 -43.0300 -43.0297 -43.0296 -43.0290 -43.0289 -43.0252 -43.0252
   -43.0232 -43.0231 -43.0229 -43.0229 -43.0211 -43.0209 -43.0206 -43.0204
   -43.0191 -43.0190 -43.0181 -43.0181 -43.0161 -43.0160 -43.0101 -43.0101
   -43.0095 -43.0095 -42.9589 -42.9589 -42.9575 -42.9575 -42.9221 -42.9220
   -42.9177 -42.9176 -42.9065 -42.9065 -17.0233 -17.0230 -17.0214 -17.0208
   -17.0187 -17.0185 -17.0153 -17.0152 -17.0133 -17.0128 -17.0120 -17.0117
   -17.0093 -17.0093 -17.0074 -17.0074 -16.9910 -16.9894 -16.9892 -16.9882
   -16.9881 -16.9848 -16.9848 -16.9838 -16.9829 -16.9825 -16.9809 -16.9809
   -16.9798 -16.9787 -16.9785 -16.9759 -16.9759 -16.9732 -16.9731 -16.9718
   -16.9718 -16.9608 -16.9593 -16.9591 -16.9564 -16.9557 -16.9557 -16.9543
   -16.9543 -16.9479 -16.9463 -16.9462 -16.9426 -16.9426 -16.9422 -16.9422
   -16.9295 -16.9294 -16.9263 -16.9263 -16.9190 -16.9190 -16.9168 -16.9168
    -8.5629  -8.5608  -8.5598  -8.5499  -8.5498  -8.3501  -8.3482  -8.3471
    -8.3439  -8.3439  -8.3367  -8.3366  -3.2125  -3.2116  -3.1834  -3.1749
    -3.1623  -2.5748  -2.5739  -2.2528  -2.2471  -2.1925  -2.1884  -2.1636
     0.7922   0.7991   0.8771   0.8930   0.9333   1.1158   1.1297   1.1403
     1.1543   1.1557   1.3101   1.3112   1.5296   1.5504   1.6164   1.6796
     1.8080   1.9961   2.1741   2.2952   2.5008   2.5210   2.6466   2.6474
     3.3821   3.3830   3.4094   3.4261   3.4443   3.5254   3.5529   3.5931
     3.6463   3.6744   3.7384   3.7440   5.7302   5.7419   6.0194   6.0392
     6.3585   6.3727   6.5779   6.5799   6.5893   6.6100   6.6539   6.6559
     7.0916   7.1962   7.2311   7.3318   7.4396   7.4707   7.5428   7.7104
     7.8179   7.8509   7.9345   7.9571   8.2066   8.2286   8.4025   8.4026
     8.4507   8.4569   8.4944   9.0550   9.1522   9.1816   9.3894   9.4216
     9.9625  10.0023  10.1989  10.3127  10.5965  10.6909  10.7873  10.8821
    11.0116  11.0529  11.4435  11.4937  11.6265  11.6771  11.9680  12.0649
    12.0756  12.1073  12.2097  12.2903  12.5008  12.5441  12.6291  12.8475
    13.0299  13.1060  13.1902  13.2265  13.3192  13.3303  13.4312  13.4693
    13.5471  13.5879

     occupation numbers 
     1.0000   1.0000   1.0000   1.0000   1.0000   1.0000   1.0000   1.0000
     1.0000   1.0000   1.0000   1.0000   1.0000   1.0000   1.0000   1.0000
     1.0000   1.0000   1.0000   1.0000   1.0000   1.0000   1.0000   1.0000
     1.0000   1.0000   1.0000   1.0000   1.0000   1.0000   1.0000   1.0000
     1.0000   1.0000   1.0000   1.0000   1.0000   1.0000   1.0000   1.0000
     1.0000   1.0000   1.0000   1.0000   1.0000   1.0000   1.0000   1.0000
     1.0000   1.0000   1.0000   1.0000   1.0000   1.0000   1.0000   1.0000
     1.0000   1.0000   1.0000   1.0000   1.0000   1.0000   1.0000   1.0000
     1.0000   1.0000   1.0000   1.0000   1.0000   1.0000   1.0000   1.0000
     1.0000   1.0000   1.0000   1.0000   1.0000   1.0000   1.0000   1.0000
     1.0000   1.0000   1.0000   1.0000   1.0000   1.0000   1.0000   1.0000
     1.0000   1.0000   1.0000   1.0000   1.0000   1.0000   1.0000   1.0000
     1.0000   1.0000   1.0000   1.0000   1.0000   1.0000   1.0000   1.0000
     1.0000   1.0000   1.0000   1.0000   1.0000   1.0000   1.0000   1.0000
     1.0000   1.0000   1.0000   1.0000   1.0000   1.0000   1.0000   1.0000
     1.0000   1.0000   1.0000   1.0000   1.0000   1.0000   1.0000   1.0000
     1.0000   1.0000   1.0000   1.0000   1.0000   1.0000   1.0000   1.0000
     1.0000   1.0000   1.0000   1.0000   1.0000   1.0000   1.0000   1.0000
     1.0000   1.0000   1.0000   1.0000   1.0000   1.0000   1.0000   1.0000
     1.0000   1.0000   1.0000   1.0000   1.0000   1.0000   1.0000   1.0000
     1.0000   1.0000   1.0000   1.0000   1.0000   1.0000   1.0000   1.0000
     1.0000   1.0000   1.0000   1.0000   1.0000   1.0000   1.0000   1.0000
     1.0000   1.0000   1.0000   1.0000   0.0000   0.0000   0.0000   0.0000
     0.0000   0.0000   0.0000   0.0000   0.0000   0.0000   0.0000   0.0000
     0.0000   0.0000   0.0000   0.0000   0.0000   0.0000   0.0000   0.0000
     0.0000   0.0000   0.0000   0.0000   0.0000   0.0000   0.0000   0.0000
     0.0000   0.0000   0.0000   0.0000   0.0000   0.0000   0.0000   0.0000
     0.0000   0.0000   0.0000   0.0000   0.0000   0.0000   0.0000   0.0000
     0.0000   0.0000   0.0000   0.0000   0.0000   0.0000   0.0000   0.0000
     0.0000   0.0000   0.0000   0.0000   0.0000   0.0000   0.0000   0.0000
     0.0000   0.0000   0.0000   0.0000   0.0000   0.0000   0.0000   0.0000
     0.0000   0.0000

          k = 0.3333 0.0000 0.0000 ( 38974 PWs)   bands (ev):

   -43.0642 -43.0640 -43.0636 -43.0636 -43.0625 -43.0625 -43.0620 -43.0619
   -43.0593 -43.0592 -43.0576 -43.0576 -43.0530 -43.0530 -43.0523 -43.0523
   -43.0514 -43.0514 -43.0509 -43.0508 -43.0337 -43.0336 -43.0332 -43.0331
   -43.0303 -43.0300 -43.0297 -43.0296 -43.0286 -43.0286 -43.0253 -43.0252
   -43.0228 -43.0228 -43.0227 -43.0227 -43.0209 -43.0209 -43.0205 -43.0204
   -43.0191 -43.0191 -43.0182 -43.0181 -43.0160 -43.0160 -43.0100 -43.0100
   -43.0095 -43.0094 -42.9590 -42.9589 -42.9573 -42.9572 -42.9218 -42.9218
   -42.9177 -42.9176 -42.9064 -42.9064 -17.0251 -17.0239 -17.0222 -17.0216
   -17.0196 -17.0195 -17.0165 -17.0165 -17.0099 -17.0078 -17.0056 -17.0054
   -17.0038 -17.0038 -17.0001 -17.0000 -16.9933 -16.9918 -16.9917 -16.9917
   -16.9915 -16.9913 -16.9885 -16.9858 -16.9845 -16.9839 -16.9818 -16.9803
   -16.9786 -16.9770 -16.9766 -16.9758 -16.9754 -16.9705 -16.9705 -16.9687
   -16.9687 -16.9683 -16.9665 -16.9664 -16.9560 -16.9560 -16.9518 -16.9495
   -16.9486 -16.9476 -16.9474 -16.9465 -16.9444 -16.9443 -16.9435 -16.9435
   -16.9332 -16.9332 -16.9285 -16.9285 -16.9161 -16.9160 -16.9126 -16.9126
    -8.7690  -8.7371  -8.6946  -8.6468  -8.6001  -8.5881  -8.1493  -8.1067
    -8.0626  -8.0269  -7.9903  -7.9884  -3.2520  -3.1715  -3.0552  -2.9199
    -2.7949  -2.7179  -2.3502  -2.2898  -2.2094  -2.1262  -2.0592  -2.0402
     0.3205   0.5267   0.8098   1.1126   1.1277   1.1965   1.2791   1.3440
     1.3879   1.4051   1.4324   1.6292   1.8078   1.8179   1.9621   1.9785
     2.1050   2.1087   2.3487   2.3491   2.3857   2.4362   2.5173   2.6061
     2.7192   2.7344   2.8469   3.0292   3.2303   3.3864   3.4714   3.4769
     3.5652   3.6419   3.7223   3.8046   5.0007   5.1816   5.4097   5.6222
     5.8063   5.8512   5.9490   6.1179   6.2404   6.3018   6.3966   6.4082
     6.5754   6.7480   6.7549   6.8820   6.9114   7.0084   7.0983   7.1433
     7.1725   7.3950   7.6371   7.6723   7.7522   7.7652   7.9515   8.0466
     8.1047   8.3741   8.4713   8.4781   8.5581   8.5665   8.8039   9.0880
     9.2089   9.4094   9.9203  10.6363  10.7330  10.8392  11.0770  11.1679
    11.3562  11.3591  11.3882  11.4317  11.4964  11.5141  11.6724  11.7278
    11.7994  11.9372  12.0345  12.2099  12.2518  12.3027  12.3451  12.4156
    12.5153  12.5443  12.6903  12.8651  12.8935  12.9091  13.0815  13.1256
    13.2171  13.2320

     occupation numbers 
     1.0000   1.0000   1.0000   1.0000   1.0000   1.0000   1.0000   1.0000
     1.0000   1.0000   1.0000   1.0000   1.0000   1.0000   1.0000   1.0000
     1.0000   1.0000   1.0000   1.0000   1.0000   1.0000   1.0000   1.0000
     1.0000   1.0000   1.0000   1.0000   1.0000   1.0000   1.0000   1.0000
     1.0000   1.0000   1.0000   1.0000   1.0000   1.0000   1.0000   1.0000
     1.0000   1.0000   1.0000   1.0000   1.0000   1.0000   1.0000   1.0000
     1.0000   1.0000   1.0000   1.0000   1.0000   1.0000   1.0000   1.0000
     1.0000   1.0000   1.0000   1.0000   1.0000   1.0000   1.0000   1.0000
     1.0000   1.0000   1.0000   1.0000   1.0000   1.0000   1.0000   1.0000
     1.0000   1.0000   1.0000   1.0000   1.0000   1.0000   1.0000   1.0000
     1.0000   1.0000   1.0000   1.0000   1.0000   1.0000   1.0000   1.0000
     1.0000   1.0000   1.0000   1.0000   1.0000   1.0000   1.0000   1.0000
     1.0000   1.0000   1.0000   1.0000   1.0000   1.0000   1.0000   1.0000
     1.0000   1.0000   1.0000   1.0000   1.0000   1.0000   1.0000   1.0000
     1.0000   1.0000   1.0000   1.0000   1.0000   1.0000   1.0000   1.0000
     1.0000   1.0000   1.0000   1.0000   1.0000   1.0000   1.0000   1.0000
     1.0000   1.0000   1.0000   1.0000   1.0000   1.0000   1.0000   1.0000
     1.0000   1.0000   1.0000   1.0000   1.0000   1.0000   1.0000   1.0000
     1.0000   1.0000   1.0000   1.0000   1.0000   1.0000   1.0000   1.0000
     1.0000   1.0000   1.0000   1.0000   1.0000   1.0000   1.0000   1.0000
     1.0000   1.0000   1.0000   1.0000   1.0000   1.0000   1.0000   1.0000
     1.0000   1.0000   1.0000   1.0000   1.0000   1.0000   1.0000   1.0000
     1.0000   1.0000   1.0000   1.0000   0.0000   0.0000   0.0000   0.0000
     0.0000   0.0000   0.0000   0.0000   0.0000   0.0000   0.0000   0.0000
     0.0000   0.0000   0.0000   0.0000   0.0000   0.0000   0.0000   0.0000
     0.0000   0.0000   0.0000   0.0000   0.0000   0.0000   0.0000   0.0000
     0.0000   0.0000   0.0000   0.0000   0.0000   0.0000   0.0000   0.0000
     0.0000   0.0000   0.0000   0.0000   0.0000   0.0000   0.0000   0.0000
     0.0000   0.0000   0.0000   0.0000   0.0000   0.0000   0.0000   0.0000
     0.0000   0.0000   0.0000   0.0000   0.0000   0.0000   0.0000   0.0000
     0.0000   0.0000   0.0000   0.0000   0.0000   0.0000   0.0000   0.0000
     0.0000   0.0000

          k = 0.3333 0.1463 0.0000 ( 39062 PWs)   bands (ev):

   -43.0643 -43.0641 -43.0637 -43.0636 -43.0626 -43.0625 -43.0621 -43.0620
   -43.0593 -43.0592 -43.0577 -43.0576 -43.0530 -43.0530 -43.0523 -43.0523
   -43.0514 -43.0514 -43.0509 -43.0509 -43.0339 -43.0337 -43.0334 -43.0333
   -43.0303 -43.0301 -43.0297 -43.0297 -43.0288 -43.0288 -43.0253 -43.0252
   -43.0231 -43.0231 -43.0229 -43.0228 -43.0210 -43.0209 -43.0205 -43.0204
   -43.0191 -43.0191 -43.0182 -43.0182 -43.0160 -43.0160 -43.0100 -43.0100
   -43.0095 -43.0094 -42.9590 -42.9590 -42.9573 -42.9573 -42.9220 -42.9219
   -42.9177 -42.9177 -42.9064 -42.9064 -17.0267 -17.0249 -17.0235 -17.0225
   -17.0204 -17.0203 -17.0176 -17.0176 -17.0102 -17.0079 -17.0059 -17.0052
   -17.0037 -17.0037 -17.0004 -17.0004 -16.9932 -16.9927 -16.9926 -16.9917
   -16.9911 -16.9897 -16.9876 -16.9854 -16.9849 -16.9844 -16.9813 -16.9799
   -16.9782 -16.9772 -16.9767 -16.9750 -16.9748 -16.9707 -16.9707 -16.9689
   -16.9689 -16.9678 -16.9659 -16.9656 -16.9558 -16.9557 -16.9519 -16.9496
   -16.9490 -16.9467 -16.9467 -16.9463 -16.9444 -16.9442 -16.9429 -16.9429
   -16.9331 -16.9330 -16.9285 -16.9285 -16.9159 -16.9159 -16.9128 -16.9128
    -8.6967  -8.6662  -8.6256  -8.5798  -8.5340  -8.5226  -8.1475  -8.1064
    -8.0646  -8.0313  -7.9954  -7.9938  -3.1980  -3.1136  -2.9911  -2.8474
    -2.7107  -2.6223  -2.3310  -2.2750  -2.2113  -2.1515  -2.0990  -2.0928
     0.3183   0.3546   0.4170   0.4227   0.4626   0.6919   0.7100   0.8411
     1.0601   1.2230   1.2931   1.3000   1.7474   1.7581   1.8441   1.8956
     2.0371   2.1637   2.1809   2.2846   2.4158   2.5193   2.5292   2.5515
     2.6920   2.7051   2.7509   2.8661   3.0592   3.3148   3.3716   3.4439
     3.4871   3.5215   3.5808   3.5934   5.4401   5.6511   5.8171   5.8649
     5.9252   5.9632   6.0345   6.1243   6.2125   6.2777   6.3255   6.3575
     6.9110   6.9240   7.0821   7.2174   7.4378   7.5141   7.5557   7.6603
     7.7124   7.7787   7.8540   7.8765   8.0880   8.1776   8.2670   8.3076
     8.4715   8.7047   8.8042   9.0198   9.1346   9.1787   9.2774   9.2974
     9.3725   9.5436  10.0151  10.3818  10.4271  10.7730  10.8813  11.1812
    11.2114  11.4097  11.5412  11.6591  11.7548  11.8497  11.8686  11.8935
    11.9181  11.9768  12.0380  12.0532  12.1562  12.2431  12.3577  12.4484
    12.5217  12.6037  12.6611  12.7328  12.8096  12.8658  13.1636  13.2670
    13.3815  13.4629

     occupation numbers 
     1.0000   1.0000   1.0000   1.0000   1.0000   1.0000   1.0000   1.0000
     1.0000   1.0000   1.0000   1.0000   1.0000   1.0000   1.0000   1.0000
     1.0000   1.0000   1.0000   1.0000   1.0000   1.0000   1.0000   1.0000
     1.0000   1.0000   1.0000   1.0000   1.0000   1.0000   1.0000   1.0000
     1.0000   1.0000   1.0000   1.0000   1.0000   1.0000   1.0000   1.0000
     1.0000   1.0000   1.0000   1.0000   1.0000   1.0000   1.0000   1.0000
     1.0000   1.0000   1.0000   1.0000   1.0000   1.0000   1.0000   1.0000
     1.0000   1.0000   1.0000   1.0000   1.0000   1.0000   1.0000   1.0000
     1.0000   1.0000   1.0000   1.0000   1.0000   1.0000   1.0000   1.0000
     1.0000   1.0000   1.0000   1.0000   1.0000   1.0000   1.0000   1.0000
     1.0000   1.0000   1.0000   1.0000   1.0000   1.0000   1.0000   1.0000
     1.0000   1.0000   1.0000   1.0000   1.0000   1.0000   1.0000   1.0000
     1.0000   1.0000   1.0000   1.0000   1.0000   1.0000   1.0000   1.0000
     1.0000   1.0000   1.0000   1.0000   1.0000   1.0000   1.0000   1.0000
     1.0000   1.0000   1.0000   1.0000   1.0000   1.0000   1.0000   1.0000
     1.0000   1.0000   1.0000   1.0000   1.0000   1.0000   1.0000   1.0000
     1.0000   1.0000   1.0000   1.0000   1.0000   1.0000   1.0000   1.0000
     1.0000   1.0000   1.0000   1.0000   1.0000   1.0000   1.0000   1.0000
     1.0000   1.0000   1.0000   1.0000   1.0000   1.0000   1.0000   1.0000
     1.0000   1.0000   1.0000   1.0000   1.0000   1.0000   1.0000   1.0000
     1.0000   1.0000   1.0000   1.0000   1.0000   1.0000   1.0000   1.0000
     1.0000   1.0000   1.0000   1.0000   1.0000   1.0000   1.0000   1.0000
     1.0000   1.0000   1.0000   1.0000   0.0000   0.0000   0.0000   0.0000
     0.0000   0.0000   0.0000   0.0000   0.0000   0.0000   0.0000   0.0000
     0.0000   0.0000   0.0000   0.0000   0.0000   0.0000   0.0000   0.0000
     0.0000   0.0000   0.0000   0.0000   0.0000   0.0000   0.0000   0.0000
     0.0000   0.0000   0.0000   0.0000   0.0000   0.0000   0.0000   0.0000
     0.0000   0.0000   0.0000   0.0000   0.0000   0.0000   0.0000   0.0000
     0.0000   0.0000   0.0000   0.0000   0.0000   0.0000   0.0000   0.0000
     0.0000   0.0000   0.0000   0.0000   0.0000   0.0000   0.0000   0.0000
     0.0000   0.0000   0.0000   0.0000   0.0000   0.0000   0.0000   0.0000
     0.0000   0.0000

          k = 0.3333 0.2926 0.0000 ( 39131 PWs)   bands (ev):

   -43.0642 -43.0641 -43.0636 -43.0636 -43.0627 -43.0626 -43.0621 -43.0620
   -43.0592 -43.0592 -43.0577 -43.0577 -43.0530 -43.0529 -43.0523 -43.0523
   -43.0515 -43.0515 -43.0510 -43.0509 -43.0340 -43.0339 -43.0335 -43.0334
   -43.0303 -43.0301 -43.0297 -43.0296 -43.0289 -43.0289 -43.0253 -43.0252
   -43.0231 -43.0231 -43.0230 -43.0230 -43.0210 -43.0209 -43.0205 -43.0204
   -43.0191 -43.0191 -43.0182 -43.0181 -43.0160 -43.0160 -43.0100 -43.0100
   -43.0095 -43.0095 -42.9590 -42.9589 -42.9574 -42.9573 -42.9221 -42.9220
   -42.9177 -42.9177 -42.9065 -42.9064 -17.0291 -17.0270 -17.0266 -17.0244
   -17.0223 -17.0220 -17.0198 -17.0197 -17.0100 -17.0079 -17.0070 -17.0053
   -17.0035 -17.0035 -17.0014 -17.0014 -16.9943 -16.9942 -16.9927 -16.9911
   -16.9905 -16.9870 -16.9864 -16.9864 -16.9859 -16.9843 -16.9792 -16.9785
   -16.9778 -16.9775 -16.9765 -16.9738 -16.9735 -16.9708 -16.9707 -16.9694
   -16.9693 -16.9667 -16.9649 -16.9644 -16.9554 -16.9553 -16.9520 -16.9499
   -16.9497 -16.9461 -16.9451 -16.9450 -16.9437 -16.9436 -16.9420 -16.9420
   -16.9326 -16.9326 -16.9286 -16.9286 -16.9156 -16.9156 -16.9132 -16.9132
    -8.5139  -8.4879  -8.4535  -8.4134  -8.3689  -8.3567  -8.1757  -8.1361
    -8.0994  -8.0721  -8.0378  -8.0370  -3.0639  -2.9846  -2.8715  -2.7403
    -2.6129  -2.4268  -2.4031  -2.3054  -2.2431  -2.1903  -2.1489  -2.1378
    -0.2004  -0.1233  -0.0198   0.0882   0.1809   0.2313   0.5255   0.6102
     0.7266   0.7814   0.8702   0.9296   1.1196   1.1596   1.2781   1.4672
     1.5750   1.6077   1.8104   1.8733   2.0101   2.2085   2.2837   2.3347
     2.4246   2.4916   2.5254   2.7096   2.8534   2.9991   3.0688   3.2201
     3.2776   3.4219   3.4949   3.5033   5.4050   5.7460   6.1868   6.6000
     6.8416   6.8909   7.0365   7.0522   7.1223   7.1837   7.2544   7.2945
     7.3133   7.3826   7.4228   7.5944   7.6638   7.7335   7.7932   8.4394
     8.4543   8.5585   8.6216   8.6470   8.6857   8.7112   8.7405   8.7757
     8.8992   9.0108   9.1455   9.6479   9.8255   9.9350   9.9872  10.0494
    10.0992  10.1225  10.2284  10.3085  10.4064  10.4230  10.6172  10.8462
    10.9247  11.1075  11.4345  11.5023  11.5596  11.6007  11.9444  12.0397
    12.1718  12.3396  12.4584  12.4989  12.5816  12.8100  12.8354  12.9248
    13.0031  13.0822  13.1168  13.2001  13.2132  13.2650  13.3186  13.3546
    13.4173  13.4366

     occupation numbers 
     1.0000   1.0000   1.0000   1.0000   1.0000   1.0000   1.0000   1.0000
     1.0000   1.0000   1.0000   1.0000   1.0000   1.0000   1.0000   1.0000
     1.0000   1.0000   1.0000   1.0000   1.0000   1.0000   1.0000   1.0000
     1.0000   1.0000   1.0000   1.0000   1.0000   1.0000   1.0000   1.0000
     1.0000   1.0000   1.0000   1.0000   1.0000   1.0000   1.0000   1.0000
     1.0000   1.0000   1.0000   1.0000   1.0000   1.0000   1.0000   1.0000
     1.0000   1.0000   1.0000   1.0000   1.0000   1.0000   1.0000   1.0000
     1.0000   1.0000   1.0000   1.0000   1.0000   1.0000   1.0000   1.0000
     1.0000   1.0000   1.0000   1.0000   1.0000   1.0000   1.0000   1.0000
     1.0000   1.0000   1.0000   1.0000   1.0000   1.0000   1.0000   1.0000
     1.0000   1.0000   1.0000   1.0000   1.0000   1.0000   1.0000   1.0000
     1.0000   1.0000   1.0000   1.0000   1.0000   1.0000   1.0000   1.0000
     1.0000   1.0000   1.0000   1.0000   1.0000   1.0000   1.0000   1.0000
     1.0000   1.0000   1.0000   1.0000   1.0000   1.0000   1.0000   1.0000
     1.0000   1.0000   1.0000   1.0000   1.0000   1.0000   1.0000   1.0000
     1.0000   1.0000   1.0000   1.0000   1.0000   1.0000   1.0000   1.0000
     1.0000   1.0000   1.0000   1.0000   1.0000   1.0000   1.0000   1.0000
     1.0000   1.0000   1.0000   1.0000   1.0000   1.0000   1.0000   1.0000
     1.0000   1.0000   1.0000   1.0000   1.0000   1.0000   1.0000   1.0000
     1.0000   1.0000   1.0000   1.0000   1.0000   1.0000   1.0000   1.0000
     1.0000   1.0000   1.0000   1.0000   1.0000   1.0000   1.0000   1.0000
     1.0000   1.0000   1.0000   1.0000   1.0000   1.0000   1.0000   1.0000
     1.0000   1.0000   1.0000   1.0000   0.0000   0.0000   0.0000   0.0000
     0.0000   0.0000   0.0000   0.0000   0.0000   0.0000   0.0000   0.0000
     0.0000   0.0000   0.0000   0.0000   0.0000   0.0000   0.0000   0.0000
     0.0000   0.0000   0.0000   0.0000   0.0000   0.0000   0.0000   0.0000
     0.0000   0.0000   0.0000   0.0000   0.0000   0.0000   0.0000   0.0000
     0.0000   0.0000   0.0000   0.0000   0.0000   0.0000   0.0000   0.0000
     0.0000   0.0000   0.0000   0.0000   0.0000   0.0000   0.0000   0.0000
     0.0000   0.0000   0.0000   0.0000   0.0000   0.0000   0.0000   0.0000
     0.0000   0.0000   0.0000   0.0000   0.0000   0.0000   0.0000   0.0000
     0.0000   0.0000

          k = 0.3333-0.4389 0.0000 ( 39104 PWs)   bands (ev):

   -43.0641 -43.0639 -43.0635 -43.0634 -43.0626 -43.0625 -43.0621 -43.0620
   -43.0591 -43.0591 -43.0577 -43.0576 -43.0528 -43.0528 -43.0522 -43.0522
   -43.0514 -43.0514 -43.0509 -43.0509 -43.0340 -43.0338 -43.0335 -43.0334
   -43.0301 -43.0300 -43.0296 -43.0295 -43.0289 -43.0289 -43.0252 -43.0252
   -43.0231 -43.0231 -43.0230 -43.0229 -43.0209 -43.0209 -43.0205 -43.0204
   -43.0190 -43.0190 -43.0181 -43.0180 -43.0160 -43.0159 -43.0100 -43.0100
   -43.0094 -43.0094 -42.9588 -42.9588 -42.9573 -42.9573 -42.9221 -42.9220
   -42.9176 -42.9176 -42.9064 -42.9064 -17.0297 -17.0287 -17.0279 -17.0253
   -17.0233 -17.0230 -17.0208 -17.0208 -17.0092 -17.0082 -17.0078 -17.0054
   -17.0034 -17.0033 -17.0020 -17.0020 -16.9950 -16.9950 -16.9924 -16.9908
   -16.9903 -16.9872 -16.9872 -16.9855 -16.9852 -16.9844 -16.9780 -16.9780
   -16.9777 -16.9775 -16.9761 -16.9734 -16.9728 -16.9703 -16.9702 -16.9699
   -16.9698 -16.9661 -16.9644 -16.9638 -16.9552 -16.9552 -16.9520 -16.9503
   -16.9498 -16.9459 -16.9447 -16.9446 -16.9428 -16.9428 -16.9416 -16.9416
   -16.9323 -16.9323 -16.9287 -16.9286 -16.9154 -16.9154 -16.9135 -16.9134
    -8.3200  -8.3177  -8.3171  -8.3073  -8.3073  -8.1849  -8.1827  -8.1819
    -8.1722  -8.1722  -8.1370  -8.1370  -2.8544  -2.8531  -2.8400  -2.8242
    -2.8202  -2.4041  -2.4039  -2.2170  -2.2156  -2.1939  -2.1779  -2.1712
    -0.0699  -0.0691   0.0064   0.0087   0.1091   0.1369   0.2558   0.2660
     0.3865   0.3893   0.4731   0.4737   1.1615   1.1629   1.2692   1.2728
     1.4292   1.4895   1.6768   1.6833   1.8492   1.8558   1.9407   1.9411
     2.3867   2.4081   2.4670   2.5368   2.6384   2.8645   2.9648   3.0967
     3.2095   3.2274   3.3042   3.3056   6.2029   6.2064   6.3798   6.4083
     6.5754   6.8632   6.9708   7.4452   7.5475   7.6692   7.7333   7.7548
     8.0997   8.1173   8.1384   8.1868   8.2583   8.2685   8.3146   8.3978
     8.4776   8.5078   8.6117   8.6192   8.9445   9.0315   9.2834   9.3622
     9.5396   9.5523   9.6110   9.9101   9.9108   9.9127   9.9319   9.9327
    10.1983  10.2244  10.3299  10.3314  10.5378  10.6188  10.8305  10.8542
    10.9786  11.0350  11.1872  11.2841  11.5149  11.5192  11.5453  11.5570
    11.7234  11.8465  12.3536  12.4824  12.6998  12.9172  13.1351  13.1399
    13.2855  13.4694  13.5184  13.5250  13.7362  13.8474  13.9688  13.9808
    14.1015  14.1046

     occupation numbers 
     1.0000   1.0000   1.0000   1.0000   1.0000   1.0000   1.0000   1.0000
     1.0000   1.0000   1.0000   1.0000   1.0000   1.0000   1.0000   1.0000
     1.0000   1.0000   1.0000   1.0000   1.0000   1.0000   1.0000   1.0000
     1.0000   1.0000   1.0000   1.0000   1.0000   1.0000   1.0000   1.0000
     1.0000   1.0000   1.0000   1.0000   1.0000   1.0000   1.0000   1.0000
     1.0000   1.0000   1.0000   1.0000   1.0000   1.0000   1.0000   1.0000
     1.0000   1.0000   1.0000   1.0000   1.0000   1.0000   1.0000   1.0000
     1.0000   1.0000   1.0000   1.0000   1.0000   1.0000   1.0000   1.0000
     1.0000   1.0000   1.0000   1.0000   1.0000   1.0000   1.0000   1.0000
     1.0000   1.0000   1.0000   1.0000   1.0000   1.0000   1.0000   1.0000
     1.0000   1.0000   1.0000   1.0000   1.0000   1.0000   1.0000   1.0000
     1.0000   1.0000   1.0000   1.0000   1.0000   1.0000   1.0000   1.0000
     1.0000   1.0000   1.0000   1.0000   1.0000   1.0000   1.0000   1.0000
     1.0000   1.0000   1.0000   1.0000   1.0000   1.0000   1.0000   1.0000
     1.0000   1.0000   1.0000   1.0000   1.0000   1.0000   1.0000   1.0000
     1.0000   1.0000   1.0000   1.0000   1.0000   1.0000   1.0000   1.0000
     1.0000   1.0000   1.0000   1.0000   1.0000   1.0000   1.0000   1.0000
     1.0000   1.0000   1.0000   1.0000   1.0000   1.0000   1.0000   1.0000
     1.0000   1.0000   1.0000   1.0000   1.0000   1.0000   1.0000   1.0000
     1.0000   1.0000   1.0000   1.0000   1.0000   1.0000   1.0000   1.0000
     1.0000   1.0000   1.0000   1.0000   1.0000   1.0000   1.0000   1.0000
     1.0000   1.0000   1.0000   1.0000   1.0000   1.0000   1.0000   1.0000
     1.0000   1.0000   1.0000   1.0000   0.0000   0.0000   0.0000   0.0000
     0.0000   0.0000   0.0000   0.0000   0.0000   0.0000   0.0000   0.0000
     0.0000   0.0000   0.0000   0.0000   0.0000   0.0000   0.0000   0.0000
     0.0000   0.0000   0.0000   0.0000   0.0000   0.0000   0.0000   0.0000
     0.0000   0.0000   0.0000   0.0000   0.0000   0.0000   0.0000   0.0000
     0.0000   0.0000   0.0000   0.0000   0.0000   0.0000   0.0000   0.0000
     0.0000   0.0000   0.0000   0.0000   0.0000   0.0000   0.0000   0.0000
     0.0000   0.0000   0.0000   0.0000   0.0000   0.0000   0.0000   0.0000
     0.0000   0.0000   0.0000   0.0000   0.0000   0.0000   0.0000   0.0000
     0.0000   0.0000

          k =-0.5000 0.0000 0.0000 ( 39038 PWs)   bands (ev):

   -43.0642 -43.0642 -43.0637 -43.0637 -43.0625 -43.0625 -43.0620 -43.0620
   -43.0593 -43.0593 -43.0576 -43.0576 -43.0531 -43.0530 -43.0524 -43.0524
   -43.0514 -43.0514 -43.0509 -43.0509 -43.0337 -43.0337 -43.0332 -43.0332
   -43.0302 -43.0302 -43.0298 -43.0297 -43.0287 -43.0286 -43.0253 -43.0253
   -43.0228 -43.0228 -43.0228 -43.0228 -43.0209 -43.0209 -43.0205 -43.0204
   -43.0191 -43.0191 -43.0182 -43.0182 -43.0160 -43.0160 -43.0100 -43.0100
   -43.0094 -43.0094 -42.9591 -42.9590 -42.9572 -42.9572 -42.9218 -42.9218
   -42.9178 -42.9177 -42.9064 -42.9064 -17.0262 -17.0262 -17.0250 -17.0250
   -17.0223 -17.0223 -17.0190 -17.0190 -17.0044 -17.0044 -17.0027 -17.0027
   -17.0000 -17.0000 -16.9973 -16.9973 -16.9946 -16.9946 -16.9929 -16.9929
   -16.9901 -16.9901 -16.9889 -16.9889 -16.9857 -16.9856 -16.9796 -16.9796
   -16.9772 -16.9772 -16.9749 -16.9749 -16.9723 -16.9723 -16.9717 -16.9717
   -16.9675 -16.9675 -16.9671 -16.9671 -16.9550 -16.9550 -16.9473 -16.9473
   -16.9467 -16.9467 -16.9462 -16.9462 -16.9455 -16.9455 -16.9444 -16.9444
   -16.9348 -16.9348 -16.9290 -16.9290 -16.9135 -16.9135 -16.9116 -16.9116
    -8.3030  -8.3030  -8.2914  -8.2914  -8.2796  -8.2796  -8.2693  -8.2693
    -8.2630  -8.2630  -8.1620  -8.1619  -3.1236  -3.1236  -3.0468  -3.0468
    -2.9398  -2.9398  -2.8216  -2.8216  -2.7183  -2.7182  -2.6592  -2.6592
     1.0067   1.0067   1.1807   1.1807   1.3999   1.3999   1.5910   1.5910
     1.7070   1.7070   1.7526   1.7526   1.9930   1.9930   2.0548   2.0548
     2.1577   2.1577   2.2958   2.2958   2.4226   2.4226   2.5334   2.5334
     3.0400   3.0401   3.0607   3.0608   3.1006   3.1006   3.1216   3.1216
     3.2126   3.2126   3.2681   3.2681   5.5096   5.5096   5.5340   5.5340
     5.6233   5.6233   5.6317   5.6317   5.7105   5.7106   5.7215   5.7215
     6.3514   6.3514   6.4802   6.4802   6.6262   6.6262   6.7654   6.7654
     6.8857   6.8857   6.9582   6.9582   7.2207   7.2207   7.7008   7.7008
     7.8007   7.8007   8.0769   8.0769   8.4412   8.4412   8.7550   8.7550
    10.0781  10.0783  10.5015  10.5017  10.9810  10.9811  11.5389  11.5389
    11.6386  11.6388  11.6745  11.6745  11.7973  11.7973  12.0494  12.0494
    12.0948  12.0949  12.3349  12.3349  12.8350  12.8350  13.0778  13.0778
    13.2635  13.2635  13.3054  13.3054  13.4424  13.4425  13.4659  13.4659
    13.6718  13.6718

     occupation numbers 
     1.0000   1.0000   1.0000   1.0000   1.0000   1.0000   1.0000   1.0000
     1.0000   1.0000   1.0000   1.0000   1.0000   1.0000   1.0000   1.0000
     1.0000   1.0000   1.0000   1.0000   1.0000   1.0000   1.0000   1.0000
     1.0000   1.0000   1.0000   1.0000   1.0000   1.0000   1.0000   1.0000
     1.0000   1.0000   1.0000   1.0000   1.0000   1.0000   1.0000   1.0000
     1.0000   1.0000   1.0000   1.0000   1.0000   1.0000   1.0000   1.0000
     1.0000   1.0000   1.0000   1.0000   1.0000   1.0000   1.0000   1.0000
     1.0000   1.0000   1.0000   1.0000   1.0000   1.0000   1.0000   1.0000
     1.0000   1.0000   1.0000   1.0000   1.0000   1.0000   1.0000   1.0000
     1.0000   1.0000   1.0000   1.0000   1.0000   1.0000   1.0000   1.0000
     1.0000   1.0000   1.0000   1.0000   1.0000   1.0000   1.0000   1.0000
     1.0000   1.0000   1.0000   1.0000   1.0000   1.0000   1.0000   1.0000
     1.0000   1.0000   1.0000   1.0000   1.0000   1.0000   1.0000   1.0000
     1.0000   1.0000   1.0000   1.0000   1.0000   1.0000   1.0000   1.0000
     1.0000   1.0000   1.0000   1.0000   1.0000   1.0000   1.0000   1.0000
     1.0000   1.0000   1.0000   1.0000   1.0000   1.0000   1.0000   1.0000
     1.0000   1.0000   1.0000   1.0000   1.0000   1.0000   1.0000   1.0000
     1.0000   1.0000   1.0000   1.0000   1.0000   1.0000   1.0000   1.0000
     1.0000   1.0000   1.0000   1.0000   1.0000   1.0000   1.0000   1.0000
     1.0000   1.0000   1.0000   1.0000   1.0000   1.0000   1.0000   1.0000
     1.0000   1.0000   1.0000   1.0000   1.0000   1.0000   1.0000   1.0000
     1.0000   1.0000   1.0000   1.0000   1.0000   1.0000   1.0000   1.0000
     1.0000   1.0000   1.0000   1.0000   0.0000   0.0000   0.0000   0.0000
     0.0000   0.0000   0.0000   0.0000   0.0000   0.0000   0.0000   0.0000
     0.0000   0.0000   0.0000   0.0000   0.0000   0.0000   0.0000   0.0000
     0.0000   0.0000   0.0000   0.0000   0.0000   0.0000   0.0000   0.0000
     0.0000   0.0000   0.0000   0.0000   0.0000   0.0000   0.0000   0.0000
     0.0000   0.0000   0.0000   0.0000   0.0000   0.0000   0.0000   0.0000
     0.0000   0.0000   0.0000   0.0000   0.0000   0.0000   0.0000   0.0000
     0.0000   0.0000   0.0000   0.0000   0.0000   0.0000   0.0000   0.0000
     0.0000   0.0000   0.0000   0.0000   0.0000   0.0000   0.0000   0.0000
     0.0000   0.0000

          k =-0.5000 0.1463 0.0000 ( 39050 PWs)   bands (ev):

   -43.0641 -43.0641 -43.0636 -43.0635 -43.0625 -43.0625 -43.0620 -43.0620
   -43.0592 -43.0592 -43.0576 -43.0576 -43.0529 -43.0529 -43.0523 -43.0522
   -43.0514 -43.0514 -43.0509 -43.0509 -43.0338 -43.0338 -43.0333 -43.0333
   -43.0301 -43.0301 -43.0297 -43.0296 -43.0288 -43.0288 -43.0252 -43.0252
   -43.0230 -43.0229 -43.0229 -43.0229 -43.0209 -43.0209 -43.0205 -43.0204
   -43.0190 -43.0190 -43.0181 -43.0181 -43.0160 -43.0160 -43.0100 -43.0100
   -43.0095 -43.0094 -42.9589 -42.9589 -42.9573 -42.9573 -42.9220 -42.9219
   -42.9177 -42.9176 -42.9064 -42.9064 -17.0278 -17.0278 -17.0263 -17.0263
   -17.0236 -17.0236 -17.0203 -17.0203 -17.0047 -17.0047 -17.0028 -17.0028
   -17.0000 -17.0000 -16.9983 -16.9983 -16.9951 -16.9950 -16.9924 -16.9924
   -16.9896 -16.9896 -16.9882 -16.9882 -16.9869 -16.9868 -16.9788 -16.9788
   -16.9774 -16.9774 -16.9746 -16.9746 -16.9715 -16.9715 -16.9705 -16.9705
   -16.9674 -16.9674 -16.9673 -16.9673 -16.9549 -16.9549 -16.9477 -16.9477
   -16.9461 -16.9461 -16.9460 -16.9460 -16.9444 -16.9444 -16.9443 -16.9443
   -16.9345 -16.9345 -16.9290 -16.9290 -16.9136 -16.9136 -16.9116 -16.9116
    -8.2653  -8.2653  -8.2548  -8.2548  -8.2442  -8.2442  -8.2352  -8.2352
    -8.2293  -8.2293  -8.1283  -8.1283  -3.0086  -3.0086  -2.9384  -2.9384
    -2.8415  -2.8415  -2.7355  -2.7355  -2.6443  -2.6443  -2.5935  -2.5935
     0.7420   0.7420   0.8351   0.8351   0.9477   0.9477   1.0519   1.0519
     1.1095   1.1095   1.2329   1.2330   1.5826   1.5826   1.6693   1.6693
     1.8523   1.8523   2.0739   2.0739   2.2495   2.2495   2.3105   2.3105
     2.6909   2.6909   2.7657   2.7657   2.9142   2.9142   3.1034   3.1034
     3.3064   3.3064   3.4716   3.4716   5.2926   5.2926   5.5684   5.5684
     5.8824   5.8824   6.1348   6.1348   6.2772   6.2772   6.3422   6.3422
     7.1876   7.1876   7.2616   7.2616   7.3927   7.3927   7.5378   7.5378
     7.6492   7.6492   7.7663   7.7663   7.8976   7.8976   8.2153   8.2153
     8.2380   8.2380   8.3041   8.3041   8.4162   8.4162   8.5759   8.5759
    10.1016  10.1017  10.4809  10.4810  10.6236  10.6237  10.9019  10.9020
    11.0245  11.0245  11.4690  11.4691  11.6851  11.6852  12.0074  12.0075
    12.2098  12.2098  12.3983  12.3985  12.9392  12.9392  13.2304  13.2304
    13.2714  13.2714  13.5066  13.5067  13.6991  13.6991  13.8410  13.8411
    13.9000  13.9000

     occupation numbers 
     1.0000   1.0000   1.0000   1.0000   1.0000   1.0000   1.0000   1.0000
     1.0000   1.0000   1.0000   1.0000   1.0000   1.0000   1.0000   1.0000
     1.0000   1.0000   1.0000   1.0000   1.0000   1.0000   1.0000   1.0000
     1.0000   1.0000   1.0000   1.0000   1.0000   1.0000   1.0000   1.0000
     1.0000   1.0000   1.0000   1.0000   1.0000   1.0000   1.0000   1.0000
     1.0000   1.0000   1.0000   1.0000   1.0000   1.0000   1.0000   1.0000
     1.0000   1.0000   1.0000   1.0000   1.0000   1.0000   1.0000   1.0000
     1.0000   1.0000   1.0000   1.0000   1.0000   1.0000   1.0000   1.0000
     1.0000   1.0000   1.0000   1.0000   1.0000   1.0000   1.0000   1.0000
     1.0000   1.0000   1.0000   1.0000   1.0000   1.0000   1.0000   1.0000
     1.0000   1.0000   1.0000   1.0000   1.0000   1.0000   1.0000   1.0000
     1.0000   1.0000   1.0000   1.0000   1.0000   1.0000   1.0000   1.0000
     1.0000   1.0000   1.0000   1.0000   1.0000   1.0000   1.0000   1.0000
     1.0000   1.0000   1.0000   1.0000   1.0000   1.0000   1.0000   1.0000
     1.0000   1.0000   1.0000   1.0000   1.0000   1.0000   1.0000   1.0000
     1.0000   1.0000   1.0000   1.0000   1.0000   1.0000   1.0000   1.0000
     1.0000   1.0000   1.0000   1.0000   1.0000   1.0000   1.0000   1.0000
     1.0000   1.0000   1.0000   1.0000   1.0000   1.0000   1.0000   1.0000
     1.0000   1.0000   1.0000   1.0000   1.0000   1.0000   1.0000   1.0000
     1.0000   1.0000   1.0000   1.0000   1.0000   1.0000   1.0000   1.0000
     1.0000   1.0000   1.0000   1.0000   1.0000   1.0000   1.0000   1.0000
     1.0000   1.0000   1.0000   1.0000   1.0000   1.0000   1.0000   1.0000
     1.0000   1.0000   1.0000   1.0000   0.0000   0.0000   0.0000   0.0000
     0.0000   0.0000   0.0000   0.0000   0.0000   0.0000   0.0000   0.0000
     0.0000   0.0000   0.0000   0.0000   0.0000   0.0000   0.0000   0.0000
     0.0000   0.0000   0.0000   0.0000   0.0000   0.0000   0.0000   0.0000
     0.0000   0.0000   0.0000   0.0000   0.0000   0.0000   0.0000   0.0000
     0.0000   0.0000   0.0000   0.0000   0.0000   0.0000   0.0000   0.0000
     0.0000   0.0000   0.0000   0.0000   0.0000   0.0000   0.0000   0.0000
     0.0000   0.0000   0.0000   0.0000   0.0000   0.0000   0.0000   0.0000
     0.0000   0.0000   0.0000   0.0000   0.0000   0.0000   0.0000   0.0000
     0.0000   0.0000

          k =-0.5000 0.2926 0.0000 ( 39142 PWs)   bands (ev):

   -43.0641 -43.0641 -43.0636 -43.0636 -43.0626 -43.0626 -43.0621 -43.0620
   -43.0592 -43.0592 -43.0577 -43.0576 -43.0529 -43.0529 -43.0523 -43.0523
   -43.0514 -43.0514 -43.0509 -43.0509 -43.0339 -43.0339 -43.0334 -43.0334
   -43.0301 -43.0301 -43.0297 -43.0297 -43.0289 -43.0289 -43.0253 -43.0252
   -43.0231 -43.0231 -43.0230 -43.0230 -43.0209 -43.0209 -43.0205 -43.0204
   -43.0191 -43.0191 -43.0182 -43.0181 -43.0160 -43.0160 -43.0100 -43.0100
   -43.0095 -43.0094 -42.9589 -42.9589 -42.9573 -42.9573 -42.9221 -42.9220
   -42.9177 -42.9177 -42.9064 -42.9064 -17.0311 -17.0311 -17.0290 -17.0290
   -17.0263 -17.0263 -17.0230 -17.0230 -17.0053 -17.0053 -17.0031 -17.0031
   -17.0006 -17.0006 -17.0001 -17.0001 -16.9957 -16.9957 -16.9914 -16.9914
   -16.9894 -16.9893 -16.9886 -16.9886 -16.9871 -16.9871 -16.9778 -16.9778
   -16.9772 -16.9772 -16.9736 -16.9736 -16.9701 -16.9701 -16.9688 -16.9688
   -16.9675 -16.9675 -16.9669 -16.9669 -16.9547 -16.9547 -16.9481 -16.9481
   -16.9458 -16.9458 -16.9449 -16.9449 -16.9440 -16.9440 -16.9422 -16.9422
   -16.9337 -16.9337 -16.9288 -16.9288 -16.9136 -16.9136 -16.9117 -16.9116
    -8.1861  -8.1860  -8.1784  -8.1784  -8.1714  -8.1714  -8.1656  -8.1656
    -8.1602  -8.1602  -8.0589  -8.0589  -2.7294  -2.7294  -2.6811  -2.6811
    -2.6167  -2.6167  -2.5486  -2.5486  -2.4941  -2.4941  -2.4533  -2.4533
     0.0443   0.0443   0.1431   0.1431   0.2867   0.2867   0.4522   0.4522
     0.5811   0.5811   0.6203   0.6203   0.9958   0.9958   1.0456   1.0456
     1.1978   1.1978   1.3973   1.3973   1.5871   1.5871   1.7079   1.7079
     2.2772   2.2772   2.4915   2.4915   2.7583   2.7583   3.0045   3.0045
     3.1746   3.1746   3.2468   3.2468   6.1392   6.1392   6.3363   6.3363
     6.6258   6.6258   6.9672   6.9672   7.2896   7.2896   7.4681   7.4681
     7.7905   7.7905   7.9177   7.9178   7.9799   7.9799   8.0755   8.0755
     8.2147   8.2147   8.4352   8.4352   8.9083   8.9083   9.1897   9.1897
     9.4749   9.4749   9.6823   9.6823   9.8255   9.8255   9.9156   9.9156
    10.1699  10.1699  10.3384  10.3384  10.6486  10.6487  10.9847  10.9847
    11.1621  11.1622  11.3403  11.3404  11.5167  11.5167  11.6464  11.6465
    11.8911  11.8911  12.4577  12.4578  12.7601  12.7602  13.0084  13.0084
    13.1898  13.1899  13.3674  13.3676  13.5255  13.5258  13.7633  13.7634
    13.8477  13.8477

     occupation numbers 
     1.0000   1.0000   1.0000   1.0000   1.0000   1.0000   1.0000   1.0000
     1.0000   1.0000   1.0000   1.0000   1.0000   1.0000   1.0000   1.0000
     1.0000   1.0000   1.0000   1.0000   1.0000   1.0000   1.0000   1.0000
     1.0000   1.0000   1.0000   1.0000   1.0000   1.0000   1.0000   1.0000
     1.0000   1.0000   1.0000   1.0000   1.0000   1.0000   1.0000   1.0000
     1.0000   1.0000   1.0000   1.0000   1.0000   1.0000   1.0000   1.0000
     1.0000   1.0000   1.0000   1.0000   1.0000   1.0000   1.0000   1.0000
     1.0000   1.0000   1.0000   1.0000   1.0000   1.0000   1.0000   1.0000
     1.0000   1.0000   1.0000   1.0000   1.0000   1.0000   1.0000   1.0000
     1.0000   1.0000   1.0000   1.0000   1.0000   1.0000   1.0000   1.0000
     1.0000   1.0000   1.0000   1.0000   1.0000   1.0000   1.0000   1.0000
     1.0000   1.0000   1.0000   1.0000   1.0000   1.0000   1.0000   1.0000
     1.0000   1.0000   1.0000   1.0000   1.0000   1.0000   1.0000   1.0000
     1.0000   1.0000   1.0000   1.0000   1.0000   1.0000   1.0000   1.0000
     1.0000   1.0000   1.0000   1.0000   1.0000   1.0000   1.0000   1.0000
     1.0000   1.0000   1.0000   1.0000   1.0000   1.0000   1.0000   1.0000
     1.0000   1.0000   1.0000   1.0000   1.0000   1.0000   1.0000   1.0000
     1.0000   1.0000   1.0000   1.0000   1.0000   1.0000   1.0000   1.0000
     1.0000   1.0000   1.0000   1.0000   1.0000   1.0000   1.0000   1.0000
     1.0000   1.0000   1.0000   1.0000   1.0000   1.0000   1.0000   1.0000
     1.0000   1.0000   1.0000   1.0000   1.0000   1.0000   1.0000   1.0000
     1.0000   1.0000   1.0000   1.0000   1.0000   1.0000   1.0000   1.0000
     1.0000   1.0000   1.0000   1.0000   0.0000   0.0000   0.0000   0.0000
     0.0000   0.0000   0.0000   0.0000   0.0000   0.0000   0.0000   0.0000
     0.0000   0.0000   0.0000   0.0000   0.0000   0.0000   0.0000   0.0000
     0.0000   0.0000   0.0000   0.0000   0.0000   0.0000   0.0000   0.0000
     0.0000   0.0000   0.0000   0.0000   0.0000   0.0000   0.0000   0.0000
     0.0000   0.0000   0.0000   0.0000   0.0000   0.0000   0.0000   0.0000
     0.0000   0.0000   0.0000   0.0000   0.0000   0.0000   0.0000   0.0000
     0.0000   0.0000   0.0000   0.0000   0.0000   0.0000   0.0000   0.0000
     0.0000   0.0000   0.0000   0.0000   0.0000   0.0000   0.0000   0.0000
     0.0000   0.0000

          k =-0.5000-0.4389 0.0000 ( 39168 PWs)   bands (ev):

   -43.0642 -43.0642 -43.0636 -43.0636 -43.0624 -43.0624 -43.0619 -43.0619
   -43.0592 -43.0592 -43.0575 -43.0575 -43.0530 -43.0530 -43.0523 -43.0523
   -43.0513 -43.0513 -43.0508 -43.0508 -43.0340 -43.0339 -43.0335 -43.0335
   -43.0302 -43.0302 -43.0297 -43.0297 -43.0289 -43.0289 -43.0253 -43.0253
   -43.0231 -43.0231 -43.0230 -43.0230 -43.0208 -43.0208 -43.0204 -43.0203
   -43.0191 -43.0191 -43.0182 -43.0182 -43.0159 -43.0159 -43.0099 -43.0099
   -43.0094 -43.0093 -42.9590 -42.9589 -42.9572 -42.9571 -42.9221 -42.9221
   -42.9177 -42.9177 -42.9063 -42.9063 -17.0327 -17.0327 -17.0304 -17.0304
   -17.0277 -17.0277 -17.0243 -17.0243 -17.0056 -17.0056 -17.0034 -17.0034
   -17.0016 -17.0016 -17.0002 -17.0002 -16.9959 -16.9959 -16.9909 -16.9909
   -16.9906 -16.9906 -16.9881 -16.9881 -16.9867 -16.9867 -16.9779 -16.9779
   -16.9765 -16.9765 -16.9730 -16.9730 -16.9696 -16.9696 -16.9683 -16.9683
   -16.9675 -16.9674 -16.9664 -16.9664 -16.9545 -16.9545 -16.9483 -16.9483
   -16.9457 -16.9457 -16.9446 -16.9446 -16.9437 -16.9437 -16.9412 -16.9411
   -16.9333 -16.9333 -16.9288 -16.9288 -16.9137 -16.9137 -16.9117 -16.9116
    -8.1422  -8.1422  -8.1390  -8.1390  -8.1353  -8.1353  -8.1303  -8.1303
    -8.1248  -8.1248  -8.0230  -8.0230  -2.5410  -2.5410  -2.5179  -2.5179
    -2.4879  -2.4879  -2.4573  -2.4573  -2.4331  -2.4331  -2.3711  -2.3710
    -0.2262  -0.2262  -0.1054  -0.1054   0.0683   0.0683   0.2494   0.2494
     0.2936   0.2936   0.3472   0.3472   0.7404   0.7404   0.7606   0.7606
     0.8655   0.8655   0.9681   0.9681   1.1452   1.1452   1.2709   1.2709
     2.3212   2.3212   2.5491   2.5491   2.8020   2.8020   2.9903   2.9903
     3.0526   3.0526   3.0798   3.0798   6.7554   6.7554   6.7721   6.7721
     6.8741   6.8741   6.9220   6.9220   7.0344   7.0344   7.1383   7.1383
     8.4697   8.4697   8.4792   8.4793   8.6357   8.6357   8.6471   8.6471
     8.6969   8.6969   8.7313   8.7313   9.3008   9.3008   9.7484   9.7484
    10.1688  10.1688  10.4862  10.4862  10.6259  10.6259  10.6705  10.6705
    10.6864  10.6865  10.7625  10.7625  10.8832  10.8832  11.1264  11.1264
    11.3757  11.3757  11.4515  11.4515  11.7499  11.7500  12.0251  12.0254
    12.1555  12.1558  12.2578  12.2579  12.5943  12.5946  12.6755  12.6756
    13.2098  13.2100  13.2396  13.2397  13.3144  13.3145  13.3667  13.3667
    13.7586  13.7590

     occupation numbers 
     1.0000   1.0000   1.0000   1.0000   1.0000   1.0000   1.0000   1.0000
     1.0000   1.0000   1.0000   1.0000   1.0000   1.0000   1.0000   1.0000
     1.0000   1.0000   1.0000   1.0000   1.0000   1.0000   1.0000   1.0000
     1.0000   1.0000   1.0000   1.0000   1.0000   1.0000   1.0000   1.0000
     1.0000   1.0000   1.0000   1.0000   1.0000   1.0000   1.0000   1.0000
     1.0000   1.0000   1.0000   1.0000   1.0000   1.0000   1.0000   1.0000
     1.0000   1.0000   1.0000   1.0000   1.0000   1.0000   1.0000   1.0000
     1.0000   1.0000   1.0000   1.0000   1.0000   1.0000   1.0000   1.0000
     1.0000   1.0000   1.0000   1.0000   1.0000   1.0000   1.0000   1.0000
     1.0000   1.0000   1.0000   1.0000   1.0000   1.0000   1.0000   1.0000
     1.0000   1.0000   1.0000   1.0000   1.0000   1.0000   1.0000   1.0000
     1.0000   1.0000   1.0000   1.0000   1.0000   1.0000   1.0000   1.0000
     1.0000   1.0000   1.0000   1.0000   1.0000   1.0000   1.0000   1.0000
     1.0000   1.0000   1.0000   1.0000   1.0000   1.0000   1.0000   1.0000
     1.0000   1.0000   1.0000   1.0000   1.0000   1.0000   1.0000   1.0000
     1.0000   1.0000   1.0000   1.0000   1.0000   1.0000   1.0000   1.0000
     1.0000   1.0000   1.0000   1.0000   1.0000   1.0000   1.0000   1.0000
     1.0000   1.0000   1.0000   1.0000   1.0000   1.0000   1.0000   1.0000
     1.0000   1.0000   1.0000   1.0000   1.0000   1.0000   1.0000   1.0000
     1.0000   1.0000   1.0000   1.0000   1.0000   1.0000   1.0000   1.0000
     1.0000   1.0000   1.0000   1.0000   1.0000   1.0000   1.0000   1.0000
     1.0000   1.0000   1.0000   1.0000   1.0000   1.0000   1.0000   1.0000
     1.0000   1.0000   1.0000   1.0000   0.0000   0.0000   0.0000   0.0000
     0.0000   0.0000   0.0000   0.0000   0.0000   0.0000   0.0000   0.0000
     0.0000   0.0000   0.0000   0.0000   0.0000   0.0000   0.0000   0.0000
     0.0000   0.0000   0.0000   0.0000   0.0000   0.0000   0.0000   0.0000
     0.0000   0.0000   0.0000   0.0000   0.0000   0.0000   0.0000   0.0000
     0.0000   0.0000   0.0000   0.0000   0.0000   0.0000   0.0000   0.0000
     0.0000   0.0000   0.0000   0.0000   0.0000   0.0000   0.0000   0.0000
     0.0000   0.0000   0.0000   0.0000   0.0000   0.0000   0.0000   0.0000
     0.0000   0.0000   0.0000   0.0000   0.0000   0.0000   0.0000   0.0000
     0.0000   0.0000

     highest occupied, lowest unoccupied level (ev):     4.1610    5.0007

!    total energy              =  -10127.02657707 Ry

     total all-electron energy =   -206579.035680 Ry
     estimated scf accuracy    <          5.2E-09 Ry

     The total energy is the sum of the following terms:
     one-electron contribution =  -37347.36148541 Ry
     hartree contribution      =   18779.69360035 Ry
     xc contribution           =    -918.77312939 Ry
     ewald contribution        =   14421.81588166 Ry
     one-center paw contrib.   =   -5062.40144429 Ry
      -> PAW hartree energy AE =     328.29158961 Ry
      -> PAW hartree energy PS =    -326.02160812 Ry
      -> PAW xc energy AE      =    -987.06206563 Ry
      -> PAW xc energy PS      =     141.96954021 Ry
      -> total E_H with PAW    =   18781.96358184 Ry
      -> total E_XC with PAW   =   -1763.86565482 Ry

     convergence has been achieved in  16 iterations

     negative rho (up, down):  1.177E-03 0.000E+00

     Forces acting on atoms (cartesian axes, Ry/au):

     atom    1 type  1   force =     0.00000000    0.00621282   -0.00590670
     atom    2 type  1   force =     0.00000000    0.00619137    0.00568097
     atom    3 type  1   force =     0.00000000   -0.00766499    0.00380292
     atom    4 type  1   force =     0.00000000   -0.00825669    0.00241134
     atom    5 type  2   force =     0.00000000    0.00762870   -0.00574771
     atom    6 type  2   force =     0.00000000   -0.00669806   -0.00500751
     atom    7 type  2   force =     0.00000000    0.00879129   -0.00005248
     atom    8 type  2   force =     0.00000000   -0.00710396    0.00514784
     atom    9 type  1   force =     0.00000000    0.00619962   -0.00576329
     atom   10 type  1   force =     0.00000000    0.00617184    0.00584036
     atom   11 type  1   force =     0.00000000   -0.00619880    0.00574132
     atom   12 type  1   force =     0.00000000   -0.00616862   -0.00583432
     atom   13 type  2   force =     0.00000000    0.00702632   -0.00513882
     atom   14 type  2   force =     0.00000000   -0.00707638   -0.00513167
     atom   15 type  2   force =     0.00000000    0.00708387    0.00511397
     atom   16 type  2   force =     0.00000000   -0.00702993    0.00513127
     atom   17 type  1   force =     0.00000000    0.00766372   -0.00381389
     atom   18 type  1   force =     0.00000000    0.00825952   -0.00241341
     atom   19 type  1   force =     0.00000000   -0.00621177    0.00591767
     atom   20 type  1   force =     0.00000000   -0.00619333   -0.00565749
     atom   21 type  2   force =     0.00000000    0.00710105   -0.00511071
     atom   22 type  2   force =     0.00000000   -0.00878533    0.00005822
     atom   23 type  2   force =     0.00000000    0.00669222    0.00500989
     atom   24 type  2   force =     0.00000000   -0.00763451    0.00572223
     The non-local contrib.  to forces
     atom    1 type  1   force =     0.00000000   -0.29208758    0.33318144
     atom    2 type  1   force =     0.00000000   -0.29435655   -0.33113616
     atom    3 type  1   force =     0.00000000    0.29264447   -0.34004676
     atom    4 type  1   force =     0.00000000    0.28781887    0.42110799
     atom    5 type  2   force =     0.00000000   -0.27718786    0.26670842
     atom    6 type  2   force =     0.00000000    0.27131345    0.23353718
     atom    7 type  2   force =     0.00000000   -0.26700662   -0.25545854
     atom    8 type  2   force =     0.00000000    0.27228130   -0.23216453
     atom    9 type  1   force =     0.00000000   -0.29423693    0.33103078
     atom   10 type  1   force =     0.00000000   -0.29408097   -0.33130535
     atom   11 type  1   force =     0.00000000    0.29423758   -0.33105202
     atom   12 type  1   force =     0.00000000    0.29408290    0.33130879
     atom   13 type  2   force =     0.00000000   -0.27211157    0.23278391
     atom   14 type  2   force =     0.00000000    0.27230139    0.23247943
     atom   15 type  2   force =     0.00000000   -0.27229810   -0.23248586
     atom   16 type  2   force =     0.00000000    0.27210867   -0.23279045
     atom   17 type  1   force =     0.00000000   -0.29264660    0.34003542
     atom   18 type  1   force =     0.00000000   -0.28781634   -0.42111099
     atom   19 type  1   force =     0.00000000    0.29208907   -0.33317299
     atom   20 type  1   force =     0.00000000    0.29435436    0.33115741
     atom   21 type  2   force =     0.00000000   -0.27228220    0.23220400
     atom   22 type  2   force =     0.00000000    0.26701082    0.25547436
     atom   23 type  2   force =     0.00000000   -0.27131596   -0.23354757
     atom   24 type  2   force =     0.00000000    0.27718304   -0.26674131
     The ionic contribution  to forces
     atom    1 type  1   force =     0.00000000    5.08386233 -169.39903205
     atom    2 type  1   force =    -0.00000000    5.08353015 -105.02223413
     atom    3 type  1   force =     0.00000000   -5.06867795 -196.51196368
     atom    4 type  1   force =    -0.00000000   -5.46039486 -259.53555660
     atom    5 type  2   force =     0.00000000    5.47880992 -288.86960268
     atom    6 type  2   force =     0.00000000   -4.53529505 -184.41829216
     atom    7 type  2   force =     0.00000000    4.50168689 -233.73745875
     atom    8 type  2   force =     0.00000000   -4.53494477 -129.20649900
     atom    9 type  1   force =    -0.00000000    5.08353491   13.54834352
     atom   10 type  1   force =    -0.00000000    5.08353447   77.92553261
     atom   11 type  1   force =     0.00000000   -5.08353491  -13.54834352
     atom   12 type  1   force =     0.00000000   -5.08353447  -77.92553261
     atom   13 type  2   force =     0.00000000    4.53495918  -79.87665791
     atom   14 type  2   force =     0.00000000   -4.53495751   24.66491458
     atom   15 type  2   force =     0.00000000    4.53495751  -24.66491458
     atom   16 type  2   force =     0.00000000   -4.53495918   79.87665791
     atom   17 type  1   force =    -0.00000000    5.06867795  196.51196368
     atom   18 type  1   force =     0.00000000    5.46039486  259.53555660
     atom   19 type  1   force =    -0.00000000   -5.08386233  169.39903205
     atom   20 type  1   force =     0.00000000   -5.08353015  105.02223413
     atom   21 type  2   force =    -0.00000000    4.53494477  129.20649900
     atom   22 type  2   force =     0.00000000   -4.50168689  233.73745875
     atom   23 type  2   force =     0.00000000    4.53529505  184.41829216
     atom   24 type  2   force =    -0.00000000   -5.47880992  288.86960268
     The local contribution  to forces
     atom    1 type  1   force =     0.00000000   -4.78464268  169.05912594
     atom    2 type  1   force =    -0.00000000   -4.78210174  105.35961806
     atom    3 type  1   force =    -0.00000000    4.76743704  196.85607243
     atom    4 type  1   force =     0.00000000    5.16237674  259.11669423
     atom    5 type  2   force =     0.00000000   -5.19490972  288.59793488
     atom    6 type  2   force =     0.00000000    4.25818571  184.18041190
     atom    7 type  2   force =     0.00000000   -4.22674196  233.99176026
     atom    8 type  2   force =     0.00000000    4.25645407  129.44289905
     atom    9 type  1   force =     0.00000000   -4.78222047  -13.88579671
     atom   10 type  1   force =     0.00000000   -4.78240953  -77.58771713
     atom   11 type  1   force =     0.00000000    4.78222352   13.88583168
     atom   12 type  1   force =    -0.00000000    4.78240825   77.58771101
     atom   13 type  2   force =     0.00000000   -4.25672024   79.63955188
     atom   14 type  2   force =     0.00000000    4.25647691  -24.90171969
     atom   15 type  2   force =     0.00000000   -4.25647420   24.90174731
     atom   16 type  2   force =    -0.00000000    4.25672076  -79.63954821
     atom   17 type  1   force =     0.00000000   -4.76743386 -196.85604474
     atom   18 type  1   force =    -0.00000000   -5.16238020 -259.11668325
     atom   19 type  1   force =    -0.00000000    4.78464204 -169.05913043
     atom   20 type  1   force =     0.00000000    4.78210291 -105.35965549
     atom   21 type  2   force =    -0.00000000   -4.25645515 -129.44294312
     atom   22 type  2   force =    -0.00000000    4.22673874 -233.99174071
     atom   23 type  2   force =    -0.00000000   -4.25818385 -184.18041919
     atom   24 type  2   force =     0.00000000    5.19491383 -288.59791056
     The core correction contribution to forces
     atom    1 type  1   force =     0.00000000   -0.00089375    0.00067260
     atom    2 type  1   force =     0.00000000   -0.00084658   -0.00064387
     atom    3 type  1   force =    -0.00000000    0.00090136   -0.00039993
     atom    4 type  1   force =     0.00000000    0.00192806    0.00004995
     atom    5 type  2   force =     0.00000000    0.00093271   -0.00093784
     atom    6 type  2   force =     0.00000000   -0.00092236   -0.00080842
     atom    7 type  2   force =     0.00000000    0.00088985    0.00093211
     atom    8 type  2   force =    -0.00000000   -0.00092341    0.00080299
     atom    9 type  1   force =    -0.00000000   -0.00084819    0.00066199
     atom   10 type  1   force =    -0.00000000   -0.00085027   -0.00066509
     atom   11 type  1   force =     0.00000000    0.00084835   -0.00066159
     atom   12 type  1   force =    -0.00000000    0.00085000    0.00066627
     atom   13 type  2   force =     0.00000000    0.00092330   -0.00080518
     atom   14 type  2   force =    -0.00000000   -0.00092369   -0.00080405
     atom   15 type  2   force =    -0.00000000    0.00092370    0.00080383
     atom   16 type  2   force =     0.00000000   -0.00092330    0.00080521
     atom   17 type  1   force =    -0.00000000   -0.00090113    0.00039922
     atom   18 type  1   force =     0.00000000   -0.00192815   -0.00004943
     atom   19 type  1   force =    -0.00000000    0.00089385   -0.00067259
     atom   20 type  1   force =     0.00000000    0.00084671    0.00064302
     atom   21 type  2   force =    -0.00000000    0.00092342   -0.00080340
     atom   22 type  2   force =     0.00000000   -0.00088985   -0.00093255
     atom   23 type  2   force =    -0.00000000    0.00092237    0.00080869
     atom   24 type  2   force =     0.00000000   -0.00093270    0.00093827
     The Hubbard contrib.    to forces
     atom    1 type  1   force =     0.00000000    0.00000000    0.00000000
     atom    2 type  1   force =     0.00000000    0.00000000    0.00000000
     atom    3 type  1   force =     0.00000000    0.00000000    0.00000000
     atom    4 type  1   force =     0.00000000    0.00000000    0.00000000
     atom    5 type  2   force =     0.00000000    0.00000000    0.00000000
     atom    6 type  2   force =     0.00000000    0.00000000    0.00000000
     atom    7 type  2   force =     0.00000000    0.00000000    0.00000000
     atom    8 type  2   force =     0.00000000    0.00000000    0.00000000
     atom    9 type  1   force =     0.00000000    0.00000000    0.00000000
     atom   10 type  1   force =     0.00000000    0.00000000    0.00000000
     atom   11 type  1   force =     0.00000000    0.00000000    0.00000000
     atom   12 type  1   force =     0.00000000    0.00000000    0.00000000
     atom   13 type  2   force =     0.00000000    0.00000000    0.00000000
     atom   14 type  2   force =     0.00000000    0.00000000    0.00000000
     atom   15 type  2   force =     0.00000000    0.00000000    0.00000000
     atom   16 type  2   force =     0.00000000    0.00000000    0.00000000
     atom   17 type  1   force =     0.00000000    0.00000000    0.00000000
     atom   18 type  1   force =     0.00000000    0.00000000    0.00000000
     atom   19 type  1   force =     0.00000000    0.00000000    0.00000000
     atom   20 type  1   force =     0.00000000    0.00000000    0.00000000
     atom   21 type  2   force =     0.00000000    0.00000000    0.00000000
     atom   22 type  2   force =     0.00000000    0.00000000    0.00000000
     atom   23 type  2   force =     0.00000000    0.00000000    0.00000000
     atom   24 type  2   force =     0.00000000    0.00000000    0.00000000
     The SCF correction term to forces
     atom    1 type  1   force =    -0.00000000   -0.00002538    0.00014436
     atom    2 type  1   force =     0.00000000   -0.00003378    0.00007605
     atom    3 type  1   force =     0.00000000    0.00003020    0.00013985
     atom    4 type  1   force =     0.00000000    0.00001463    0.00011476
     atom    5 type  2   force =    -0.00000000   -0.00001623    0.00014850
     atom    6 type  2   force =     0.00000000    0.00002031    0.00014298
     atom    7 type  2   force =    -0.00000000   -0.00003675    0.00017142
     atom    8 type  2   force =    -0.00000000    0.00002897    0.00010832
     atom    9 type  1   force =     0.00000000   -0.00002957   -0.00000388
     atom   10 type  1   force =     0.00000000   -0.00002175   -0.00000570
     atom   11 type  1   force =    -0.00000000    0.00002677   -0.00003425
     atom   12 type  1   force =    -0.00000000    0.00002482    0.00001120
     atom   13 type  2   force =    -0.00000000   -0.00002423   -0.00001254
     atom   14 type  2   force =    -0.00000000    0.00002665   -0.00000296
     atom   15 type  2   force =     0.00000000   -0.00002492   -0.00003774
     atom   16 type  2   force =    -0.00000000    0.00002323    0.00000581
     atom   17 type  1   force =    -0.00000000   -0.00003251   -0.00016850
     atom   18 type  1   force =    -0.00000000   -0.00001053   -0.00012735
     atom   19 type  1   force =    -0.00000000    0.00002572   -0.00013937
     atom   20 type  1   force =     0.00000000    0.00003296   -0.00003758
     atom   21 type  2   force =    -0.00000000   -0.00002966   -0.00006820
     atom   22 type  2   force =     0.00000000    0.00004198   -0.00020264
     atom   23 type  2   force =    -0.00000000   -0.00002528   -0.00012520
     atom   24 type  2   force =    -0.00000000    0.00001136   -0.00016786

     Total force =     0.042477     Total SCF correction =     0.000564


     Computing stress (Cartesian axis) and pressure


     negative rho (up, down):  1.177E-03 0.000E+00
          total   stress  (Ry/bohr**3)                   (kbar)     P=       -1.28
   0.00000704   0.00000000   0.00000000            1.04        0.00        0.00
   0.00000000  -0.00001354   0.00000071            0.00       -1.99        0.10
   0.00000000   0.00000071  -0.00001950            0.00        0.10       -2.87

     kinetic stress (kbar)  14994.69      0.00      0.00
                                0.00  15025.41      0.13
                                0.00      0.13  15031.14

     local   stress (kbar)-767683.06      0.00      0.00
                                0.00-764863.69   -159.30
                                0.00   -159.30 763638.88

     nonloc. stress (kbar)  -2731.93      0.00      0.00
                                0.00  -2730.43     -0.44
                                0.00     -0.44  -2716.15

     hartree stress (kbar) 395523.92     -0.00      0.00
                               -0.00 394368.79     71.08
                                0.00     71.08-367795.74

     exc-cor stress (kbar)   3420.25     -0.00     -0.00
                               -0.00   3419.72      0.04
                               -0.00      0.04   3419.98

     corecor stress (kbar)  -8157.90     -0.00     -0.00
                               -0.00  -8157.75      0.02
                               -0.00      0.02  -8158.21

     ewald   stress (kbar) 364635.06     -0.00      0.00
                               -0.00 362935.95     88.59
                                0.00     88.59-403422.77

     hubbard stress (kbar)      0.00      0.00      0.00
                                0.00      0.00      0.00
                                0.00      0.00      0.00

     DFT-D   stress (kbar)      0.00      0.00      0.00
                                0.00      0.00      0.00
                                0.00      0.00      0.00

     XDM     stress (kbar)      0.00      0.00      0.00
                                0.00      0.00      0.00
                                0.00      0.00      0.00

     dft-nl  stress (kbar)      0.00      0.00      0.00
                                0.00      0.00      0.00
                                0.00      0.00      0.00

     TS-vdW  stress (kbar)      0.00      0.00      0.00
                                0.00      0.00      0.00
                                0.00      0.00      0.00


                                0.00      0.00      0.00
                                0.00      0.00      0.00


                                0.00      0.00      0.00


     Writing all to output data dir ./tri/snse.save/

     init_run     :     64.08s CPU     76.89s WALL (       1 calls)
     electrons    :   5616.17s CPU   6370.07s WALL (       1 calls)
     forces       :     67.57s CPU     94.96s WALL (       1 calls)
     stress       :    220.96s CPU    256.81s WALL (       1 calls)

     Called by init_run:
     wfcinit      :     58.26s CPU     69.66s WALL (       1 calls)
     wfcinit:atom :      0.24s CPU      0.34s WALL (      16 calls)
     wfcinit:wfcr :     57.29s CPU     68.48s WALL (      16 calls)
     potinit      :      2.06s CPU      1.95s WALL (       1 calls)
     hinit0       :      1.78s CPU      1.76s WALL (       1 calls)

     Called by electrons:
     c_bands      :   5215.04s CPU   5855.51s WALL (      17 calls)
     sum_band     :    371.53s CPU    470.53s WALL (      17 calls)
     v_of_rho     :      3.26s CPU      3.21s WALL (      17 calls)
     v_h          :      0.28s CPU      0.27s WALL (      17 calls)
     v_xc         :      3.32s CPU      3.27s WALL (      19 calls)
     newd         :     20.64s CPU     37.18s WALL (      17 calls)
     PAW_pot      :      5.44s CPU      4.99s WALL (      17 calls)
     mix_rho      :      1.34s CPU      1.27s WALL (      17 calls)

     Called by c_bands:
     init_us_2    :     10.23s CPU     11.77s WALL (     592 calls)
     init_us_2:cp :     10.22s CPU     11.77s WALL (     592 calls)
     cegterg      :   5106.32s CPU   5719.82s WALL (     272 calls)

     Called by sum_band:
     sum_band:wei :      0.01s CPU      0.02s WALL (      17 calls)
     sum_band:loo :    340.13s CPU    427.39s WALL (      17 calls)
     sum_band:buf :     18.29s CPU     28.87s WALL (     272 calls)
     sum_band:ini :      4.02s CPU      3.55s WALL (     272 calls)
     sum_band:cal :    255.86s CPU    331.70s WALL (     272 calls)
     sum_band:bec :      0.18s CPU      0.23s WALL (     272 calls)
     addusdens    :     21.75s CPU     31.56s WALL (      17 calls)
     addusd:skk   :      0.36s CPU      1.51s WALL (      34 calls)
     addusd:dgemm :      9.29s CPU     12.86s WALL (      34 calls)
     addusd:qvan2 :     10.60s CPU     12.02s WALL (      34 calls)

     Called by *egterg:
     cdiaghg      :   1060.18s CPU    795.23s WALL (    1888 calls)
     cegterg:over :    902.28s CPU   1022.76s WALL (    1632 calls)
     cegterg:upda :    249.19s CPU    314.12s WALL (    1632 calls)
     cegterg:last :    292.61s CPU    321.60s WALL (     492 calls)
     h_psi        :   1762.30s CPU   2293.15s WALL (    1920 calls)
     s_psi        :    187.67s CPU    262.15s WALL (    1920 calls)
     g_psi        :      2.73s CPU      2.12s WALL (    1632 calls)

     Called by h_psi:
     h_psi:calbec :   1255.13s CPU   1623.08s WALL (    1920 calls)
     vloc_psi     :    296.53s CPU    329.35s WALL (    1920 calls)
     add_vuspsi   :    204.37s CPU    318.45s WALL (    1920 calls)

     General routines
     calbec       :   1641.16s CPU   2137.89s WALL (    2272 calls)
     fft          :      2.97s CPU      2.97s WALL (     245 calls)
     ffts         :      0.66s CPU      0.58s WALL (      34 calls)
     fftw         :    326.34s CPU    350.78s WALL (  376350 calls)
     interpolate  :      0.50s CPU      0.46s WALL (      17 calls)

     Parallel routines

     PAW routines
     PAW_pot      :      5.44s CPU      4.99s WALL (      17 calls)
     PAW_symme    :      0.33s CPU      0.28s WALL (      34 calls)

     PWSCF        :      1h39m CPU      1h53m WALL


   This run was terminated on:  11:20:28   1Jul2025            

=------------------------------------------------------------------------------=
   JOB DONE.
=------------------------------------------------------------------------------=
