
     Program PWSCF v.7.0 starts on  8Jul2025 at  9:56:21 

     This program is part of the open-source Quantum ESPRESSO suite
     for quantum simulation of materials; please cite
         "P. Giannozzi et al., J. Phys.:Condens. Matter 21 395502 (2009);
         "P. Giannozzi et al., J. Phys.:Condens. Matter 29 465901 (2017);
         "P. Giannozzi et al., J. Chem. Phys. 152 154105 (2020);
          URL http://www.quantum-espresso.org", 
     in publications or presentations arising from this work. More details at
     http://www.quantum-espresso.org/quote

     Parallel version (MPI & OpenMP), running on      16 processor cores
     Number of MPI processes:                 8
     Threads/MPI process:                     2

     MPI processes distributed on     1 nodes
     R & G space division:  proc/nbgrp/npool/nimage =       8
     90375 MiB available memory on the printing compute node when the environment starts

     Waiting for input...
     Reading input from standard input

     Current dimensions of program PWSCF are:
     Max number of different atomic species (ntypx) = 10
     Max number of k-points (npk) =  40000
     Max angular momentum in pseudopotentials (lmaxx) =  4
     file Na.pbe-spn-kjpaw_psl.1.0.0.UPF: wavefunction(s)  2P renormalized
     file K.pbe-spn-kjpaw_psl.1.0.0.UPF: wavefunction(s)  3S renormalized
     file Nb.pbe-spn-kjpaw_psl.1.0.0.UPF: wavefunction(s)  4S 4P 4D renormalized
     file O.pbe-n-kjpaw_psl.1.0.0.UPF: wavefunction(s)  2S 2P renormalized

     IMPORTANT: XC functional enforced from input :
     Exchange-correlation= PBE
                           (   1   4   3   4   0   0   0)
     Any further DFT definition will be discarded
     Please, verify this is what you really want


     Subspace diagonalization in iterative solution of the eigenvalue problem:
     one sub-group per band group will be used
     scalapack distributed-memory algorithm (size of sub-group:  2*  2 procs)


     Parallelization info
     --------------------
     sticks:   dense  smooth     PW     G-vecs:    dense   smooth      PW
     Min         381     192     54                38031    13440    2046
     Max         382     194     55                38036    13441    2049
     Sum        3051    1541    435               304259   107521   16375

     Using Slab Decomposition



     bravais-lattice index     =            0
     lattice parameter (alat)  =      10.6907  a.u.
     unit-cell volume          =    1712.7995 (a.u.)^3
     number of atoms/cell      =            8
     number of atomic types    =            4
     number of electrons       =        68.00
     number of Kohn-Sham states=           70
     kinetic-energy cutoff     =      60.0000  Ry
     charge density cutoff     =     480.0000  Ry
     scf convergence threshold =      1.0E-08
     mixing beta               =       0.3000
     number of iterations used =            8  plain     mixing
     Exchange-correlation= PBE
                           (   1   4   3   4   0   0   0)

     celldm(1)=  10.690748  celldm(2)=   0.000000  celldm(3)=   0.000000
     celldm(4)=   0.000000  celldm(5)=   0.000000  celldm(6)=   0.000000

     crystal axes: (cart. coord. in units of alat)
               a(1) = (   1.000000   0.000000   0.000000 )  
               a(2) = (   0.000000   0.699114   0.000000 )  
               a(3) = (   0.000000   0.000000   2.005091 )  

     reciprocal axes: (cart. coord. in units 2 pi/alat)
               b(1) = (  1.000000  0.000000  0.000000 )  
               b(2) = (  0.000000  1.430381  0.000000 )  
               b(3) = (  0.000000  0.000000  0.498731 )  


     PseudoPot. # 1 for Na read from file:
     ./Na.pbe-spn-kjpaw_psl.1.0.0.UPF
     MD5 check sum: 2d3bf706d6c1b56787a12f8ec1fa0108
     Pseudo is Projector augmented-wave + core cor, Zval =  9.0
     Generated using &quot;atomic&quot; code by A. Dal Corso  v.6.3
     Shape of augmentation charge: PSQ
     Using radial grid of 1121 points,  4 beta functions with: 
                l(1) =   0
                l(2) =   0
                l(3) =   1
                l(4) =   1
     Q(r) pseudized with 0 coefficients 


     PseudoPot. # 2 for K  read from file:
     ./K.pbe-spn-kjpaw_psl.1.0.0.UPF
     MD5 check sum: c2afec1942ea950a4f50b1d8c3713e19
     Pseudo is Projector augmented-wave + core cor, Zval =  9.0
     Generated using &quot;atomic&quot; code by A. Dal Corso  v.6.2.2
     Shape of augmentation charge: PSQ
     Using radial grid of 1165 points,  6 beta functions with: 
                l(1) =   0
                l(2) =   0
                l(3) =   1
                l(4) =   1
                l(5) =   2
                l(6) =   2
     Q(r) pseudized with 0 coefficients 


     PseudoPot. # 3 for Nb read from file:
     ./Nb.pbe-spn-kjpaw_psl.1.0.0.UPF
     MD5 check sum: ff372aaa1133b03ade1aa63b8f97a7f0
     Pseudo is Projector augmented-wave + core cor, Zval = 13.0
     Generated using &quot;atomic&quot; code by A. Dal Corso  v.6.2.2
     Shape of augmentation charge: PSQ
     Using radial grid of 1227 points,  6 beta functions with: 
                l(1) =   0
                l(2) =   0
                l(3) =   1
                l(4) =   1
                l(5) =   2
                l(6) =   2
     Q(r) pseudized with 0 coefficients 


     PseudoPot. # 4 for O  read from file:
     ./O.pbe-n-kjpaw_psl.1.0.0.UPF
     MD5 check sum: bad118ecf0cbddbdac989655ac72557d
     Pseudo is Projector augmented-wave + core cor, Zval =  6.0
     Generated using &quot;atomic&quot; code by A. Dal Corso  v.6.3
     Shape of augmentation charge: PSQ
     Using radial grid of 1095 points,  4 beta functions with: 
                l(1) =   0
                l(2) =   0
                l(3) =   1
                l(4) =   1
     Q(r) pseudized with 0 coefficients 


     atomic species   valence    mass     pseudopotential
        Na             9.00    22.99000     Na( 1.00)
        K              9.00    39.09800     K ( 1.00)
        Nb            13.00    92.90600     Nb( 1.00)
        O              6.00    15.99900     O ( 1.00)

     No symmetry found


                                    s                        frac. trans.

      isym =  1     identity                                     

 cryst.   s( 1) = (     1          0          0      )
                  (     0          1          0      )
                  (     0          0          1      )

 cart.    s( 1) = (  1.0000000  0.0000000  0.0000000 )
                  (  0.0000000  1.0000000  0.0000000 )
                  (  0.0000000  0.0000000  1.0000000 )


   Cartesian axes

     site n.     atom                  positions (alat units)
         1           Nb  tau(   1) = (   0.0000000   0.3496369   0.5012988  )
         2           O   tau(   2) = (   0.2488820   0.3496369   0.2184787  )
         3           O   tau(   3) = (   0.0000000   0.0000000   0.4624120  )
         4           Na  tau(   4) = (   0.0000000   0.0000000   0.0079542  )
         5           Nb  tau(   5) = (   0.0000000   0.3496369   1.5038983  )
         6           O   tau(   6) = (   0.2488820   0.3496369   1.2210762  )
         7           O   tau(   7) = (   0.0000000   0.0000000   1.4650095  )
         8           K   tau(   8) = (   0.0000000   0.0000000   0.9865127  )

   Crystallographic axes

     site n.     atom                  positions (cryst. coord.)
         1           Nb  tau(   1) = (  0.0000000  0.5001140  0.2500130  )
         2           O   tau(   2) = (  0.2488820  0.5001140  0.1089620  )
         3           O   tau(   3) = (  0.0000000  0.0000000  0.2306190  )
         4           Na  tau(   4) = (  0.0000000  0.0000000  0.0039670  )
         5           Nb  tau(   5) = (  0.0000000  0.5001140  0.7500400  )
         6           O   tau(   6) = (  0.2488820  0.5001140  0.6089880  )
         7           O   tau(   7) = (  0.0000000  0.0000000  0.7306450  )
         8           K   tau(   8) = (  0.0000000  0.0000000  0.4920040  )

     number of k points=   112
                       cart. coord. in units 2pi/alat
        k(    1) = (   0.0000000   0.0000000   0.0000000), wk =   0.0092593
        k(    2) = (   0.0000000   0.0000000   0.0831218), wk =   0.0185185
        k(    3) = (   0.0000000   0.0000000   0.1662435), wk =   0.0185185
        k(    4) = (   0.0000000   0.0000000  -0.2493653), wk =   0.0092593
        k(    5) = (   0.0000000   0.2383968   0.0000000), wk =   0.0185185
        k(    6) = (   0.0000000   0.2383968   0.0831218), wk =   0.0185185
        k(    7) = (   0.0000000   0.2383968   0.1662435), wk =   0.0185185
        k(    8) = (   0.0000000   0.2383968  -0.2493653), wk =   0.0185185
        k(    9) = (   0.0000000   0.4767937   0.0000000), wk =   0.0185185
        k(   10) = (   0.0000000   0.4767937   0.0831218), wk =   0.0185185
        k(   11) = (   0.0000000   0.4767937   0.1662435), wk =   0.0185185
        k(   12) = (   0.0000000   0.4767937  -0.2493653), wk =   0.0185185
        k(   13) = (   0.0000000  -0.7151905   0.0000000), wk =   0.0092593
        k(   14) = (   0.0000000  -0.7151905   0.0831218), wk =   0.0185185
        k(   15) = (   0.0000000  -0.7151905   0.1662435), wk =   0.0185185
        k(   16) = (   0.0000000  -0.7151905  -0.2493653), wk =   0.0092593
        k(   17) = (   0.1666667   0.0000000   0.0000000), wk =   0.0185185
        k(   18) = (   0.1666667   0.0000000   0.0831218), wk =   0.0185185
        k(   19) = (   0.1666667   0.0000000   0.1662435), wk =   0.0185185
        k(   20) = (   0.1666667   0.0000000  -0.2493653), wk =   0.0185185
        k(   21) = (   0.1666667   0.2383968   0.0000000), wk =   0.0185185
        k(   22) = (   0.1666667   0.2383968   0.0831218), wk =   0.0185185
        k(   23) = (   0.1666667   0.2383968   0.1662435), wk =   0.0185185
        k(   24) = (   0.1666667   0.2383968  -0.2493653), wk =   0.0185185
        k(   25) = (   0.1666667   0.4767937   0.0000000), wk =   0.0185185
        k(   26) = (   0.1666667   0.4767937   0.0831218), wk =   0.0185185
        k(   27) = (   0.1666667   0.4767937   0.1662435), wk =   0.0185185
        k(   28) = (   0.1666667   0.4767937  -0.2493653), wk =   0.0185185
        k(   29) = (   0.1666667  -0.7151905   0.0000000), wk =   0.0185185
        k(   30) = (   0.1666667  -0.7151905   0.0831218), wk =   0.0185185
        k(   31) = (   0.1666667  -0.7151905   0.1662435), wk =   0.0185185
        k(   32) = (   0.1666667  -0.7151905  -0.2493653), wk =   0.0185185
        k(   33) = (   0.3333333   0.0000000   0.0000000), wk =   0.0185185
        k(   34) = (   0.3333333   0.0000000   0.0831218), wk =   0.0185185
        k(   35) = (   0.3333333   0.0000000   0.1662435), wk =   0.0185185
        k(   36) = (   0.3333333   0.0000000  -0.2493653), wk =   0.0185185
        k(   37) = (   0.3333333   0.2383968   0.0000000), wk =   0.0185185
        k(   38) = (   0.3333333   0.2383968   0.0831218), wk =   0.0185185
        k(   39) = (   0.3333333   0.2383968   0.1662435), wk =   0.0185185
        k(   40) = (   0.3333333   0.2383968  -0.2493653), wk =   0.0185185
        k(   41) = (   0.3333333   0.4767937   0.0000000), wk =   0.0185185
        k(   42) = (   0.3333333   0.4767937   0.0831218), wk =   0.0185185
        k(   43) = (   0.3333333   0.4767937   0.1662435), wk =   0.0185185
        k(   44) = (   0.3333333   0.4767937  -0.2493653), wk =   0.0185185
        k(   45) = (   0.3333333  -0.7151905   0.0000000), wk =   0.0185185
        k(   46) = (   0.3333333  -0.7151905   0.0831218), wk =   0.0185185
        k(   47) = (   0.3333333  -0.7151905   0.1662435), wk =   0.0185185
        k(   48) = (   0.3333333  -0.7151905  -0.2493653), wk =   0.0185185
        k(   49) = (  -0.5000000   0.0000000   0.0000000), wk =   0.0092593
        k(   50) = (  -0.5000000   0.0000000   0.0831218), wk =   0.0185185
        k(   51) = (  -0.5000000   0.0000000   0.1662435), wk =   0.0185185
        k(   52) = (  -0.5000000   0.0000000  -0.2493653), wk =   0.0092593
        k(   53) = (  -0.5000000   0.2383968   0.0000000), wk =   0.0185185
        k(   54) = (  -0.5000000   0.2383968   0.0831218), wk =   0.0185185
        k(   55) = (  -0.5000000   0.2383968   0.1662435), wk =   0.0185185
        k(   56) = (  -0.5000000   0.2383968  -0.2493653), wk =   0.0185185
        k(   57) = (  -0.5000000   0.4767937   0.0000000), wk =   0.0185185
        k(   58) = (  -0.5000000   0.4767937   0.0831218), wk =   0.0185185
        k(   59) = (  -0.5000000   0.4767937   0.1662435), wk =   0.0185185
        k(   60) = (  -0.5000000   0.4767937  -0.2493653), wk =   0.0185185
        k(   61) = (  -0.5000000  -0.7151905   0.0000000), wk =   0.0092593
        k(   62) = (  -0.5000000  -0.7151905   0.0831218), wk =   0.0185185
        k(   63) = (  -0.5000000  -0.7151905   0.1662435), wk =   0.0185185
        k(   64) = (  -0.5000000  -0.7151905  -0.2493653), wk =   0.0092593
        k(   65) = (   0.0000000  -0.2383968   0.0831218), wk =   0.0185185
        k(   66) = (   0.0000000  -0.2383968   0.1662435), wk =   0.0185185
        k(   67) = (   0.0000000  -0.4767937   0.0831218), wk =   0.0185185
        k(   68) = (   0.0000000  -0.4767937   0.1662435), wk =   0.0185185
        k(   69) = (  -0.1666667   0.0000000   0.0831218), wk =   0.0185185
        k(   70) = (  -0.1666667   0.0000000   0.1662435), wk =   0.0185185
        k(   71) = (  -0.1666667   0.2383968   0.0000000), wk =   0.0185185
        k(   72) = (  -0.1666667  -0.2383968   0.0831218), wk =   0.0185185
        k(   73) = (  -0.1666667   0.2383968  -0.0831218), wk =   0.0185185
        k(   74) = (   0.1666667  -0.2383968  -0.0831218), wk =   0.0185185
        k(   75) = (  -0.1666667  -0.2383968   0.1662435), wk =   0.0185185
        k(   76) = (  -0.1666667   0.2383968  -0.1662435), wk =   0.0185185
        k(   77) = (   0.1666667  -0.2383968  -0.1662435), wk =   0.0185185
        k(   78) = (  -0.1666667   0.2383968   0.2493653), wk =   0.0185185
        k(   79) = (  -0.1666667   0.4767937   0.0000000), wk =   0.0185185
        k(   80) = (  -0.1666667  -0.4767937   0.0831218), wk =   0.0185185
        k(   81) = (  -0.1666667   0.4767937  -0.0831218), wk =   0.0185185
        k(   82) = (   0.1666667  -0.4767937  -0.0831218), wk =   0.0185185
        k(   83) = (  -0.1666667  -0.4767937   0.1662435), wk =   0.0185185
        k(   84) = (  -0.1666667   0.4767937  -0.1662435), wk =   0.0185185
        k(   85) = (   0.1666667  -0.4767937  -0.1662435), wk =   0.0185185
        k(   86) = (  -0.1666667   0.4767937   0.2493653), wk =   0.0185185
        k(   87) = (  -0.1666667   0.7151905   0.0831218), wk =   0.0185185
        k(   88) = (  -0.1666667   0.7151905   0.1662435), wk =   0.0185185
        k(   89) = (  -0.3333333   0.0000000   0.0831218), wk =   0.0185185
        k(   90) = (  -0.3333333   0.0000000   0.1662435), wk =   0.0185185
        k(   91) = (  -0.3333333   0.2383968   0.0000000), wk =   0.0185185
        k(   92) = (  -0.3333333  -0.2383968   0.0831218), wk =   0.0185185
        k(   93) = (  -0.3333333   0.2383968  -0.0831218), wk =   0.0185185
        k(   94) = (   0.3333333  -0.2383968  -0.0831218), wk =   0.0185185
        k(   95) = (  -0.3333333  -0.2383968   0.1662435), wk =   0.0185185
        k(   96) = (  -0.3333333   0.2383968  -0.1662435), wk =   0.0185185
        k(   97) = (   0.3333333  -0.2383968  -0.1662435), wk =   0.0185185
        k(   98) = (  -0.3333333   0.2383968   0.2493653), wk =   0.0185185
        k(   99) = (  -0.3333333   0.4767937   0.0000000), wk =   0.0185185
        k(  100) = (  -0.3333333  -0.4767937   0.0831218), wk =   0.0185185
        k(  101) = (  -0.3333333   0.4767937  -0.0831218), wk =   0.0185185
        k(  102) = (   0.3333333  -0.4767937  -0.0831218), wk =   0.0185185
        k(  103) = (  -0.3333333  -0.4767937   0.1662435), wk =   0.0185185
        k(  104) = (  -0.3333333   0.4767937  -0.1662435), wk =   0.0185185
        k(  105) = (   0.3333333  -0.4767937  -0.1662435), wk =   0.0185185
        k(  106) = (  -0.3333333   0.4767937   0.2493653), wk =   0.0185185
        k(  107) = (  -0.3333333   0.7151905   0.0831218), wk =   0.0185185
        k(  108) = (  -0.3333333   0.7151905   0.1662435), wk =   0.0185185
        k(  109) = (   0.5000000  -0.2383968   0.0831218), wk =   0.0185185
        k(  110) = (   0.5000000  -0.2383968   0.1662435), wk =   0.0185185
        k(  111) = (   0.5000000  -0.4767937   0.0831218), wk =   0.0185185
        k(  112) = (   0.5000000  -0.4767937   0.1662435), wk =   0.0185185

                       cryst. coord.
        k(    1) = (   0.0000000   0.0000000   0.0000000), wk =   0.0092593
        k(    2) = (   0.0000000   0.0000000   0.1666667), wk =   0.0185185
        k(    3) = (   0.0000000   0.0000000   0.3333333), wk =   0.0185185
        k(    4) = (   0.0000000   0.0000000  -0.5000000), wk =   0.0092593
        k(    5) = (   0.0000000   0.1666667   0.0000000), wk =   0.0185185
        k(    6) = (   0.0000000   0.1666667   0.1666667), wk =   0.0185185
        k(    7) = (   0.0000000   0.1666667   0.3333333), wk =   0.0185185
        k(    8) = (   0.0000000   0.1666667  -0.5000000), wk =   0.0185185
        k(    9) = (   0.0000000   0.3333333   0.0000000), wk =   0.0185185
        k(   10) = (   0.0000000   0.3333333   0.1666667), wk =   0.0185185
        k(   11) = (   0.0000000   0.3333333   0.3333333), wk =   0.0185185
        k(   12) = (   0.0000000   0.3333333  -0.5000000), wk =   0.0185185
        k(   13) = (   0.0000000  -0.5000000   0.0000000), wk =   0.0092593
        k(   14) = (   0.0000000  -0.5000000   0.1666667), wk =   0.0185185
        k(   15) = (   0.0000000  -0.5000000   0.3333333), wk =   0.0185185
        k(   16) = (   0.0000000  -0.5000000  -0.5000000), wk =   0.0092593
        k(   17) = (   0.1666667   0.0000000   0.0000000), wk =   0.0185185
        k(   18) = (   0.1666667   0.0000000   0.1666667), wk =   0.0185185
        k(   19) = (   0.1666667   0.0000000   0.3333333), wk =   0.0185185
        k(   20) = (   0.1666667   0.0000000  -0.5000000), wk =   0.0185185
        k(   21) = (   0.1666667   0.1666667   0.0000000), wk =   0.0185185
        k(   22) = (   0.1666667   0.1666667   0.1666667), wk =   0.0185185
        k(   23) = (   0.1666667   0.1666667   0.3333333), wk =   0.0185185
        k(   24) = (   0.1666667   0.1666667  -0.5000000), wk =   0.0185185
        k(   25) = (   0.1666667   0.3333333   0.0000000), wk =   0.0185185
        k(   26) = (   0.1666667   0.3333333   0.1666667), wk =   0.0185185
        k(   27) = (   0.1666667   0.3333333   0.3333333), wk =   0.0185185
        k(   28) = (   0.1666667   0.3333333  -0.5000000), wk =   0.0185185
        k(   29) = (   0.1666667  -0.5000000   0.0000000), wk =   0.0185185
        k(   30) = (   0.1666667  -0.5000000   0.1666667), wk =   0.0185185
        k(   31) = (   0.1666667  -0.5000000   0.3333333), wk =   0.0185185
        k(   32) = (   0.1666667  -0.5000000  -0.5000000), wk =   0.0185185
        k(   33) = (   0.3333333   0.0000000   0.0000000), wk =   0.0185185
        k(   34) = (   0.3333333   0.0000000   0.1666667), wk =   0.0185185
        k(   35) = (   0.3333333   0.0000000   0.3333333), wk =   0.0185185
        k(   36) = (   0.3333333   0.0000000  -0.5000000), wk =   0.0185185
        k(   37) = (   0.3333333   0.1666667   0.0000000), wk =   0.0185185
        k(   38) = (   0.3333333   0.1666667   0.1666667), wk =   0.0185185
        k(   39) = (   0.3333333   0.1666667   0.3333333), wk =   0.0185185
        k(   40) = (   0.3333333   0.1666667  -0.5000000), wk =   0.0185185
        k(   41) = (   0.3333333   0.3333333   0.0000000), wk =   0.0185185
        k(   42) = (   0.3333333   0.3333333   0.1666667), wk =   0.0185185
        k(   43) = (   0.3333333   0.3333333   0.3333333), wk =   0.0185185
        k(   44) = (   0.3333333   0.3333333  -0.5000000), wk =   0.0185185
        k(   45) = (   0.3333333  -0.5000000   0.0000000), wk =   0.0185185
        k(   46) = (   0.3333333  -0.5000000   0.1666667), wk =   0.0185185
        k(   47) = (   0.3333333  -0.5000000   0.3333333), wk =   0.0185185
        k(   48) = (   0.3333333  -0.5000000  -0.5000000), wk =   0.0185185
        k(   49) = (  -0.5000000   0.0000000   0.0000000), wk =   0.0092593
        k(   50) = (  -0.5000000   0.0000000   0.1666667), wk =   0.0185185
        k(   51) = (  -0.5000000   0.0000000   0.3333333), wk =   0.0185185
        k(   52) = (  -0.5000000   0.0000000  -0.5000000), wk =   0.0092593
        k(   53) = (  -0.5000000   0.1666667   0.0000000), wk =   0.0185185
        k(   54) = (  -0.5000000   0.1666667   0.1666667), wk =   0.0185185
        k(   55) = (  -0.5000000   0.1666667   0.3333333), wk =   0.0185185
        k(   56) = (  -0.5000000   0.1666667  -0.5000000), wk =   0.0185185
        k(   57) = (  -0.5000000   0.3333333   0.0000000), wk =   0.0185185
        k(   58) = (  -0.5000000   0.3333333   0.1666667), wk =   0.0185185
        k(   59) = (  -0.5000000   0.3333333   0.3333333), wk =   0.0185185
        k(   60) = (  -0.5000000   0.3333333  -0.5000000), wk =   0.0185185
        k(   61) = (  -0.5000000  -0.5000000   0.0000000), wk =   0.0092593
        k(   62) = (  -0.5000000  -0.5000000   0.1666667), wk =   0.0185185
        k(   63) = (  -0.5000000  -0.5000000   0.3333333), wk =   0.0185185
        k(   64) = (  -0.5000000  -0.5000000  -0.5000000), wk =   0.0092593
        k(   65) = (   0.0000000  -0.1666667   0.1666667), wk =   0.0185185
        k(   66) = (   0.0000000  -0.1666667   0.3333333), wk =   0.0185185
        k(   67) = (   0.0000000  -0.3333333   0.1666667), wk =   0.0185185
        k(   68) = (   0.0000000  -0.3333333   0.3333333), wk =   0.0185185
        k(   69) = (  -0.1666667   0.0000000   0.1666667), wk =   0.0185185
        k(   70) = (  -0.1666667   0.0000000   0.3333333), wk =   0.0185185
        k(   71) = (  -0.1666667   0.1666667   0.0000000), wk =   0.0185185
        k(   72) = (  -0.1666667  -0.1666667   0.1666667), wk =   0.0185185
        k(   73) = (  -0.1666667   0.1666667  -0.1666667), wk =   0.0185185
        k(   74) = (   0.1666667  -0.1666667  -0.1666667), wk =   0.0185185
        k(   75) = (  -0.1666667  -0.1666667   0.3333333), wk =   0.0185185
        k(   76) = (  -0.1666667   0.1666667  -0.3333333), wk =   0.0185185
        k(   77) = (   0.1666667  -0.1666667  -0.3333333), wk =   0.0185185
        k(   78) = (  -0.1666667   0.1666667   0.5000000), wk =   0.0185185
        k(   79) = (  -0.1666667   0.3333333   0.0000000), wk =   0.0185185
        k(   80) = (  -0.1666667  -0.3333333   0.1666667), wk =   0.0185185
        k(   81) = (  -0.1666667   0.3333333  -0.1666667), wk =   0.0185185
        k(   82) = (   0.1666667  -0.3333333  -0.1666667), wk =   0.0185185
        k(   83) = (  -0.1666667  -0.3333333   0.3333333), wk =   0.0185185
        k(   84) = (  -0.1666667   0.3333333  -0.3333333), wk =   0.0185185
        k(   85) = (   0.1666667  -0.3333333  -0.3333333), wk =   0.0185185
        k(   86) = (  -0.1666667   0.3333333   0.5000000), wk =   0.0185185
        k(   87) = (  -0.1666667   0.5000000   0.1666667), wk =   0.0185185
        k(   88) = (  -0.1666667   0.5000000   0.3333333), wk =   0.0185185
        k(   89) = (  -0.3333333   0.0000000   0.1666667), wk =   0.0185185
        k(   90) = (  -0.3333333   0.0000000   0.3333333), wk =   0.0185185
        k(   91) = (  -0.3333333   0.1666667   0.0000000), wk =   0.0185185
        k(   92) = (  -0.3333333  -0.1666667   0.1666667), wk =   0.0185185
        k(   93) = (  -0.3333333   0.1666667  -0.1666667), wk =   0.0185185
        k(   94) = (   0.3333333  -0.1666667  -0.1666667), wk =   0.0185185
        k(   95) = (  -0.3333333  -0.1666667   0.3333333), wk =   0.0185185
        k(   96) = (  -0.3333333   0.1666667  -0.3333333), wk =   0.0185185
        k(   97) = (   0.3333333  -0.1666667  -0.3333333), wk =   0.0185185
        k(   98) = (  -0.3333333   0.1666667   0.5000000), wk =   0.0185185
        k(   99) = (  -0.3333333   0.3333333   0.0000000), wk =   0.0185185
        k(  100) = (  -0.3333333  -0.3333333   0.1666667), wk =   0.0185185
        k(  101) = (  -0.3333333   0.3333333  -0.1666667), wk =   0.0185185
        k(  102) = (   0.3333333  -0.3333333  -0.1666667), wk =   0.0185185
        k(  103) = (  -0.3333333  -0.3333333   0.3333333), wk =   0.0185185
        k(  104) = (  -0.3333333   0.3333333  -0.3333333), wk =   0.0185185
        k(  105) = (   0.3333333  -0.3333333  -0.3333333), wk =   0.0185185
        k(  106) = (  -0.3333333   0.3333333   0.5000000), wk =   0.0185185
        k(  107) = (  -0.3333333   0.5000000   0.1666667), wk =   0.0185185
        k(  108) = (  -0.3333333   0.5000000   0.3333333), wk =   0.0185185
        k(  109) = (   0.5000000  -0.1666667   0.1666667), wk =   0.0185185
        k(  110) = (   0.5000000  -0.1666667   0.3333333), wk =   0.0185185
        k(  111) = (   0.5000000  -0.3333333   0.1666667), wk =   0.0185185
        k(  112) = (   0.5000000  -0.3333333   0.3333333), wk =   0.0185185

     Dense  grid:   304259 G-vectors     FFT dimensions: (  75,  54, 150)

     Smooth grid:   107521 G-vectors     FFT dimensions: (  54,  40, 108)

     Dynamical RAM for                 wfc:       1.79 MB

     Dynamical RAM for     wfc (w. buffer):     202.77 MB

     Dynamical RAM for           str. fact:       2.32 MB

     Dynamical RAM for           local pot:       0.00 MB

     Dynamical RAM for          nlocal pot:       2.41 MB

     Dynamical RAM for                qrad:       7.03 MB

     Dynamical RAM for          rho,v,vnew:       3.50 MB

     Dynamical RAM for               rhoin:       1.17 MB

     Dynamical RAM for            rho*nmix:       9.29 MB

     Dynamical RAM for           G-vectors:       2.28 MB

     Dynamical RAM for          h,s,v(r/c):       0.22 MB

     Dynamical RAM for          <psi|beta>:       0.10 MB

     Dynamical RAM for                 psi:       3.59 MB

     Dynamical RAM for                hpsi:       3.59 MB

     Dynamical RAM for                spsi:       3.59 MB

     Dynamical RAM for      wfcinit/wfcrot:       3.70 MB

     Dynamical RAM for           addusdens:     110.27 MB

     Dynamical RAM for          addusforce:     114.06 MB

     Dynamical RAM for         addusstress:     116.66 MB

     Estimated static dynamical RAM per process >     227.32 MB

     Estimated max dynamical RAM per process >     353.26 MB

     Estimated total dynamical RAM >       2.76 GB

     Initial potential from superposition of free atoms

     starting charge      67.9723, renormalised to      68.0000
     Starting wfcs are   55 randomized atomic wfcs +   15 random wfcs
     Checking if some PAW data can be deallocated... 
       PAW data deallocated on    7 nodes for type:  1
       PAW data deallocated on    7 nodes for type:  2
       PAW data deallocated on    6 nodes for type:  3
       PAW data deallocated on    4 nodes for type:  4

     total cpu time spent up to now is       18.3 secs

     per-process dynamical memory:   257.4 Mb

     Self-consistent Calculation

     iteration #  1     ecut=    60.00 Ry     beta= 0.30
     Davidson diagonalization with overlap

---- Real-time Memory Report at c_bands before calling an iterative solver
           316 MiB given to the printing process from OS
           251 MiB allocation reported by mallinfo(arena+hblkhd)
         88333 MiB available memory on the node where the printing process lives
------------------
     ethr =  1.00E-02,  avg # of iterations =  8.0

     total cpu time spent up to now is      155.2 secs

     total energy              =   -1056.44500884 Ry
     estimated scf accuracy    <       3.80042386 Ry

     iteration #  2     ecut=    60.00 Ry     beta= 0.30
     Davidson diagonalization with overlap

---- Real-time Memory Report at c_bands before calling an iterative solver
           446 MiB given to the printing process from OS
           281 MiB allocation reported by mallinfo(arena+hblkhd)
         88039 MiB available memory on the node where the printing process lives
------------------
     ethr =  5.59E-03,  avg # of iterations =  1.0

     total cpu time spent up to now is      198.6 secs

     total energy              =   -1056.17294812 Ry
     estimated scf accuracy    <       7.65092514 Ry

     iteration #  3     ecut=    60.00 Ry     beta= 0.30
     Davidson diagonalization with overlap

---- Real-time Memory Report at c_bands before calling an iterative solver
           448 MiB given to the printing process from OS
           281 MiB allocation reported by mallinfo(arena+hblkhd)
         87978 MiB available memory on the node where the printing process lives
------------------
     ethr =  5.59E-03,  avg # of iterations =  1.0

     total cpu time spent up to now is      242.1 secs

     total energy              =   -1057.33834901 Ry
     estimated scf accuracy    <       0.97218260 Ry

     iteration #  4     ecut=    60.00 Ry     beta= 0.30
     Davidson diagonalization with overlap

---- Real-time Memory Report at c_bands before calling an iterative solver
           449 MiB given to the printing process from OS
           282 MiB allocation reported by mallinfo(arena+hblkhd)
         88053 MiB available memory on the node where the printing process lives
------------------
     ethr =  1.43E-03,  avg # of iterations =  1.1

     total cpu time spent up to now is      286.2 secs

     total energy              =   -1057.32752729 Ry
     estimated scf accuracy    <       0.27118573 Ry

     iteration #  5     ecut=    60.00 Ry     beta= 0.30
     Davidson diagonalization with overlap

---- Real-time Memory Report at c_bands before calling an iterative solver
           449 MiB given to the printing process from OS
           282 MiB allocation reported by mallinfo(arena+hblkhd)
         88064 MiB available memory on the node where the printing process lives
------------------
     ethr =  3.99E-04,  avg # of iterations =  2.1

     total cpu time spent up to now is      343.1 secs

     total energy              =   -1057.34496200 Ry
     estimated scf accuracy    <       0.03298941 Ry

     iteration #  6     ecut=    60.00 Ry     beta= 0.30
     Davidson diagonalization with overlap

---- Real-time Memory Report at c_bands before calling an iterative solver
           449 MiB given to the printing process from OS
           283 MiB allocation reported by mallinfo(arena+hblkhd)
         88003 MiB available memory on the node where the printing process lives
------------------
     ethr =  4.85E-05,  avg # of iterations =  9.5

     total cpu time spent up to now is      466.8 secs

     total energy              =   -1057.34795271 Ry
     estimated scf accuracy    <       0.05868310 Ry

     iteration #  7     ecut=    60.00 Ry     beta= 0.30
     Davidson diagonalization with overlap

---- Real-time Memory Report at c_bands before calling an iterative solver
           450 MiB given to the printing process from OS
           283 MiB allocation reported by mallinfo(arena+hblkhd)
         88036 MiB available memory on the node where the printing process lives
------------------
     ethr =  4.85E-05,  avg # of iterations =  1.7

     total cpu time spent up to now is      518.9 secs

     total energy              =   -1057.35121995 Ry
     estimated scf accuracy    <       0.02934608 Ry

     iteration #  8     ecut=    60.00 Ry     beta= 0.30
     Davidson diagonalization with overlap

---- Real-time Memory Report at c_bands before calling an iterative solver
           450 MiB given to the printing process from OS
           283 MiB allocation reported by mallinfo(arena+hblkhd)
         88030 MiB available memory on the node where the printing process lives
------------------
     ethr =  4.32E-05,  avg # of iterations =  1.7

     total cpu time spent up to now is      568.9 secs

     total energy              =   -1057.35351016 Ry
     estimated scf accuracy    <       0.00177906 Ry

     iteration #  9     ecut=    60.00 Ry     beta= 0.30
     Davidson diagonalization with overlap

---- Real-time Memory Report at c_bands before calling an iterative solver
           451 MiB given to the printing process from OS
           284 MiB allocation reported by mallinfo(arena+hblkhd)
         87998 MiB available memory on the node where the printing process lives
------------------
     ethr =  2.62E-06,  avg # of iterations =  6.3

     total cpu time spent up to now is      659.6 secs

     total energy              =   -1057.35331465 Ry
     estimated scf accuracy    <       0.00193292 Ry

     iteration # 10     ecut=    60.00 Ry     beta= 0.30
     Davidson diagonalization with overlap

---- Real-time Memory Report at c_bands before calling an iterative solver
           451 MiB given to the printing process from OS
           284 MiB allocation reported by mallinfo(arena+hblkhd)
         87988 MiB available memory on the node where the printing process lives
------------------
     ethr =  2.62E-06,  avg # of iterations =  1.6

     total cpu time spent up to now is      709.6 secs

     total energy              =   -1057.35356975 Ry
     estimated scf accuracy    <       0.00009135 Ry

     iteration # 11     ecut=    60.00 Ry     beta= 0.30
     Davidson diagonalization with overlap

---- Real-time Memory Report at c_bands before calling an iterative solver
           452 MiB given to the printing process from OS
           285 MiB allocation reported by mallinfo(arena+hblkhd)
         88031 MiB available memory on the node where the printing process lives
------------------
     ethr =  1.34E-07,  avg # of iterations =  3.5

     total cpu time spent up to now is      777.2 secs

     total energy              =   -1057.35357827 Ry
     estimated scf accuracy    <       0.00004517 Ry

     iteration # 12     ecut=    60.00 Ry     beta= 0.30
     Davidson diagonalization with overlap

---- Real-time Memory Report at c_bands before calling an iterative solver
           452 MiB given to the printing process from OS
           285 MiB allocation reported by mallinfo(arena+hblkhd)
         88010 MiB available memory on the node where the printing process lives
------------------
     ethr =  6.64E-08,  avg # of iterations =  2.4

     total cpu time spent up to now is      838.2 secs

     total energy              =   -1057.35358743 Ry
     estimated scf accuracy    <       0.00000753 Ry

     iteration # 13     ecut=    60.00 Ry     beta= 0.30
     Davidson diagonalization with overlap

---- Real-time Memory Report at c_bands before calling an iterative solver
           452 MiB given to the printing process from OS
           285 MiB allocation reported by mallinfo(arena+hblkhd)
         88024 MiB available memory on the node where the printing process lives
------------------
     ethr =  1.11E-08,  avg # of iterations =  5.1

     total cpu time spent up to now is      918.8 secs

     total energy              =   -1057.35359051 Ry
     estimated scf accuracy    <       0.00000108 Ry

     iteration # 14     ecut=    60.00 Ry     beta= 0.30
     Davidson diagonalization with overlap

---- Real-time Memory Report at c_bands before calling an iterative solver
           452 MiB given to the printing process from OS
           285 MiB allocation reported by mallinfo(arena+hblkhd)
         88032 MiB available memory on the node where the printing process lives
------------------
     ethr =  1.59E-09,  avg # of iterations =  3.3

     total cpu time spent up to now is      985.3 secs

     total energy              =   -1057.35359082 Ry
     estimated scf accuracy    <       0.00000012 Ry

     iteration # 15     ecut=    60.00 Ry     beta= 0.30
     Davidson diagonalization with overlap

---- Real-time Memory Report at c_bands before calling an iterative solver
           452 MiB given to the printing process from OS
           285 MiB allocation reported by mallinfo(arena+hblkhd)
         88000 MiB available memory on the node where the printing process lives
------------------
     ethr =  1.79E-10,  avg # of iterations =  3.8

     total cpu time spent up to now is     1057.5 secs

     total energy              =   -1057.35359086 Ry
     estimated scf accuracy    <       0.00000003 Ry

     iteration # 16     ecut=    60.00 Ry     beta= 0.30
     Davidson diagonalization with overlap

---- Real-time Memory Report at c_bands before calling an iterative solver
           452 MiB given to the printing process from OS
           285 MiB allocation reported by mallinfo(arena+hblkhd)
         88030 MiB available memory on the node where the printing process lives
------------------
     ethr =  4.51E-11,  avg # of iterations =  2.5

     total cpu time spent up to now is     1117.1 secs

     End of self-consistent calculation

          k = 0.0000 0.0000 0.0000 ( 13433 PWs)   bands (ev):

   -54.0320 -53.9527 -49.8236 -30.2573 -30.2049 -30.1815 -30.1109 -29.7697
   -29.6884 -27.9239 -21.7499 -21.7356 -21.7223 -16.9558 -16.9365 -14.2561
   -14.1762 -11.4580 -11.3807 -11.3672  -2.1064  -1.8860  -1.8216  -1.8125
    -1.5903  -1.5760  -0.7764  -0.6406  -0.2105  -0.0194   0.5279   0.5816
     1.4643   2.0889   2.6086   2.6279   2.6582   2.9570   2.9573   3.0223
     3.2488   3.3088   4.9639   6.0710   6.5735   6.7402   7.6389   8.1905
     8.2642   8.5917   9.1728   9.9204  10.0160  10.3037  10.3778  10.7390
    11.3586  11.8041  11.8836  12.3718  12.7981  13.0552  13.2761  13.6164
    13.8083  14.1241  14.1963  14.5934  15.1852  15.7719

     occupation numbers 
     1.0000   1.0000   1.0000   1.0000   1.0000   1.0000   1.0000   1.0000
     1.0000   1.0000   1.0000   1.0000   1.0000   1.0000   1.0000   1.0000
     1.0000   1.0000   1.0000   1.0000   1.0000   1.0000   1.0000   1.0000
     1.0000   1.0000   1.0000   1.0000   1.0000   1.0000   1.0000   1.0000
     1.0000   1.0000   0.0000   0.0000   0.0000   0.0000   0.0000   0.0000
     0.0000   0.0000   0.0000   0.0000   0.0000   0.0000   0.0000   0.0000
     0.0000   0.0000   0.0000   0.0000   0.0000   0.0000   0.0000   0.0000
     0.0000   0.0000   0.0000   0.0000   0.0000   0.0000   0.0000   0.0000
     0.0000   0.0000   0.0000   0.0000   0.0000   0.0000

          k = 0.0000 0.0000 0.0831 ( 13437 PWs)   bands (ev):

   -54.0320 -53.9527 -49.8236 -30.2573 -30.2049 -30.1815 -30.1109 -29.7697
   -29.6884 -27.9239 -21.7499 -21.7356 -21.7223 -16.9566 -16.9358 -14.2561
   -14.1762 -11.4580 -11.3807 -11.3672  -2.0980  -1.8955  -1.8216  -1.8125
    -1.5897  -1.5763  -0.7711  -0.6537  -0.1939  -0.0290   0.5275   0.5821
     1.4969   2.0308   2.6270   2.6536   2.6599   2.9479   2.9558   3.0228
     3.2346   3.2911   5.0520   6.0199   6.5552   6.7303   7.6506   8.0717
     8.2623   8.6358   9.2901   9.9147  10.0099  10.2689  10.3784  10.8792
    11.4028  11.7543  11.8422  12.3604  12.7044  13.0172  13.1817  13.3979
    13.8087  14.2261  14.3014  14.7787  15.4141  15.6759

     occupation numbers 
     1.0000   1.0000   1.0000   1.0000   1.0000   1.0000   1.0000   1.0000
     1.0000   1.0000   1.0000   1.0000   1.0000   1.0000   1.0000   1.0000
     1.0000   1.0000   1.0000   1.0000   1.0000   1.0000   1.0000   1.0000
     1.0000   1.0000   1.0000   1.0000   1.0000   1.0000   1.0000   1.0000
     1.0000   1.0000   0.0000   0.0000   0.0000   0.0000   0.0000   0.0000
     0.0000   0.0000   0.0000   0.0000   0.0000   0.0000   0.0000   0.0000
     0.0000   0.0000   0.0000   0.0000   0.0000   0.0000   0.0000   0.0000
     0.0000   0.0000   0.0000   0.0000   0.0000   0.0000   0.0000   0.0000
     0.0000   0.0000   0.0000   0.0000   0.0000   0.0000

          k = 0.0000 0.0000 0.1662 ( 13415 PWs)   bands (ev):

   -54.0320 -53.9527 -49.8236 -30.2573 -30.2049 -30.1815 -30.1109 -29.7697
   -29.6884 -27.9239 -21.7499 -21.7355 -21.7222 -16.9579 -16.9344 -14.2561
   -14.1762 -11.4580 -11.3807 -11.3672  -2.0785  -1.9172  -1.8217  -1.8125
    -1.5883  -1.5770  -0.7564  -0.6829  -0.1546  -0.0555   0.5266   0.5829
     1.5865   1.9009   2.6253   2.6629   2.7448   2.9183   2.9534   3.0237
     3.2010   3.2625   5.2789   5.8543   6.5174   6.7175   7.6672   7.9720
     8.1985   8.6767   9.4924   9.8535   9.9982  10.3795  10.3820  11.1103
    11.4387  11.5488  11.9283  12.3014  12.5229  12.8460  13.0102  13.0656
    14.0011  14.4427  14.5130  15.1211  15.4230  15.4376

     occupation numbers 
     1.0000   1.0000   1.0000   1.0000   1.0000   1.0000   1.0000   1.0000
     1.0000   1.0000   1.0000   1.0000   1.0000   1.0000   1.0000   1.0000
     1.0000   1.0000   1.0000   1.0000   1.0000   1.0000   1.0000   1.0000
     1.0000   1.0000   1.0000   1.0000   1.0000   1.0000   1.0000   1.0000
     1.0000   1.0000   0.0000   0.0000   0.0000   0.0000   0.0000   0.0000
     0.0000   0.0000   0.0000   0.0000   0.0000   0.0000   0.0000   0.0000
     0.0000   0.0000   0.0000   0.0000   0.0000   0.0000   0.0000   0.0000
     0.0000   0.0000   0.0000   0.0000   0.0000   0.0000   0.0000   0.0000
     0.0000   0.0000   0.0000   0.0000   0.0000   0.0000

          k = 0.0000 0.0000-0.2494 ( 13408 PWs)   bands (ev):

   -54.0320 -53.9527 -49.8236 -30.2573 -30.2049 -30.1815 -30.1109 -29.7697
   -29.6884 -27.9239 -21.7499 -21.7355 -21.7222 -16.9585 -16.9338 -14.2561
   -14.1762 -11.4580 -11.3807 -11.3672  -2.0665  -1.9303  -1.8217  -1.8124
    -1.5875  -1.5775  -0.7430  -0.7030  -0.1227  -0.0816   0.5262   0.5833
     1.6768   1.7939   2.6245   2.6644   2.8072   2.8841   2.9523   3.0242
     3.1823   3.2505   5.5178   5.6395   6.4997   6.7135   7.6690   7.9622
     8.1516   8.6887   9.5898   9.7895   9.9924  10.3800  10.5598  11.1393
    11.3276  11.6175  11.9784  12.2579  12.4100  12.6855  12.9255  13.0079
    14.1175  14.5884  14.6414  15.1673  15.2913  15.4950

     occupation numbers 
     1.0000   1.0000   1.0000   1.0000   1.0000   1.0000   1.0000   1.0000
     1.0000   1.0000   1.0000   1.0000   1.0000   1.0000   1.0000   1.0000
     1.0000   1.0000   1.0000   1.0000   1.0000   1.0000   1.0000   1.0000
     1.0000   1.0000   1.0000   1.0000   1.0000   1.0000   1.0000   1.0000
     1.0000   1.0000   0.0000   0.0000   0.0000   0.0000   0.0000   0.0000
     0.0000   0.0000   0.0000   0.0000   0.0000   0.0000   0.0000   0.0000
     0.0000   0.0000   0.0000   0.0000   0.0000   0.0000   0.0000   0.0000
     0.0000   0.0000   0.0000   0.0000   0.0000   0.0000   0.0000   0.0000
     0.0000   0.0000   0.0000   0.0000   0.0000   0.0000

          k = 0.0000 0.2384 0.0000 ( 13435 PWs)   bands (ev):

   -54.0313 -53.9520 -49.8235 -30.2996 -30.2479 -30.1800 -30.1093 -29.7680
   -29.6866 -27.9205 -21.7496 -21.7350 -21.7251 -16.6955 -16.6776 -14.2539
   -14.1697 -11.4560 -11.4313 -11.3589  -2.9707  -2.8991  -1.9548  -1.9388
    -1.9311  -1.7824  -0.8052  -0.6962  -0.1753  -0.0261   0.6257   0.6977
     1.6392   2.1183   2.6606   2.9422   3.0807   3.1646   3.2038   3.2465
     3.3466   3.4388   5.1535   6.4462   6.7586   7.1370   7.9510   8.3237
     8.4452   8.8009   9.3075   9.6310   9.8097   9.9452  10.2754  10.7163
    10.9887  11.4215  11.7422  12.0858  12.3414  12.8954  13.1639  13.8207
    14.0193  14.1044  14.3065  14.3880  15.0432  15.0597

     occupation numbers 
     1.0000   1.0000   1.0000   1.0000   1.0000   1.0000   1.0000   1.0000
     1.0000   1.0000   1.0000   1.0000   1.0000   1.0000   1.0000   1.0000
     1.0000   1.0000   1.0000   1.0000   1.0000   1.0000   1.0000   1.0000
     1.0000   1.0000   1.0000   1.0000   1.0000   1.0000   1.0000   1.0000
     1.0000   1.0000   0.0000   0.0000   0.0000   0.0000   0.0000   0.0000
     0.0000   0.0000   0.0000   0.0000   0.0000   0.0000   0.0000   0.0000
     0.0000   0.0000   0.0000   0.0000   0.0000   0.0000   0.0000   0.0000
     0.0000   0.0000   0.0000   0.0000   0.0000   0.0000   0.0000   0.0000
     0.0000   0.0000   0.0000   0.0000   0.0000   0.0000

          k = 0.0000 0.2384 0.0831 ( 13418 PWs)   bands (ev):

   -54.0312 -53.9519 -49.8235 -30.2996 -30.2479 -30.1800 -30.1093 -29.7680
   -29.6866 -27.9205 -21.7496 -21.7350 -21.7250 -16.6963 -16.6768 -14.2539
   -14.1697 -11.4560 -11.4313 -11.3589  -2.9677  -2.9015  -1.9519  -1.9359
    -1.9308  -1.7902  -0.8014  -0.7043  -0.1628  -0.0342   0.6286   0.6960
     1.6648   2.0786   2.6909   2.9307   3.0855   3.1655   3.1998   3.2427
     3.3396   3.4199   5.2398   6.3454   6.7909   7.1364   7.9709   8.2254
     8.4313   8.8397   9.3661   9.6469   9.7900  10.0035  10.2759  10.6520
    11.0634  11.4030  11.8077  12.0003  12.3883  12.8318  13.1653  13.6543
    13.9297  14.1254  14.2768  14.5673  14.9217  15.1117

     occupation numbers 
     1.0000   1.0000   1.0000   1.0000   1.0000   1.0000   1.0000   1.0000
     1.0000   1.0000   1.0000   1.0000   1.0000   1.0000   1.0000   1.0000
     1.0000   1.0000   1.0000   1.0000   1.0000   1.0000   1.0000   1.0000
     1.0000   1.0000   1.0000   1.0000   1.0000   1.0000   1.0000   1.0000
     1.0000   1.0000   0.0000   0.0000   0.0000   0.0000   0.0000   0.0000
     0.0000   0.0000   0.0000   0.0000   0.0000   0.0000   0.0000   0.0000
     0.0000   0.0000   0.0000   0.0000   0.0000   0.0000   0.0000   0.0000
     0.0000   0.0000   0.0000   0.0000   0.0000   0.0000   0.0000   0.0000
     0.0000   0.0000   0.0000   0.0000   0.0000   0.0000

          k = 0.0000 0.2384 0.1662 ( 13417 PWs)   bands (ev):

   -54.0312 -53.9519 -49.8235 -30.2996 -30.2479 -30.1800 -30.1092 -29.7680
   -29.6866 -27.9205 -21.7496 -21.7350 -21.7251 -16.6976 -16.6754 -14.2539
   -14.1697 -11.4560 -11.4313 -11.3589  -2.9610  -2.9072  -1.9486  -1.9320
    -1.9235  -1.8082  -0.7916  -0.7224  -0.1317  -0.0569   0.6347   0.6924
     1.7350   1.9845   2.7582   2.8975   3.0973   3.1633   3.1955   3.2306
     3.3259   3.3863   5.4628   6.1093   6.8341   7.1358   8.0299   8.1199
     8.3255   8.8920   9.4919   9.6331   9.7863  10.0538  10.3616  10.6016
    11.0960  11.4367  11.7188  12.0674  12.4702  12.6501  13.2340  13.2853
    13.7888  14.2232  14.3150  14.6648  14.9240  15.1716

     occupation numbers 
     1.0000   1.0000   1.0000   1.0000   1.0000   1.0000   1.0000   1.0000
     1.0000   1.0000   1.0000   1.0000   1.0000   1.0000   1.0000   1.0000
     1.0000   1.0000   1.0000   1.0000   1.0000   1.0000   1.0000   1.0000
     1.0000   1.0000   1.0000   1.0000   1.0000   1.0000   1.0000   1.0000
     1.0000   1.0000   0.0000   0.0000   0.0000   0.0000   0.0000   0.0000
     0.0000   0.0000   0.0000   0.0000   0.0000   0.0000   0.0000   0.0000
     0.0000   0.0000   0.0000   0.0000   0.0000   0.0000   0.0000   0.0000
     0.0000   0.0000   0.0000   0.0000   0.0000   0.0000   0.0000   0.0000
     0.0000   0.0000   0.0000   0.0000   0.0000   0.0000

          k = 0.0000 0.2384-0.2494 ( 13428 PWs)   bands (ev):

   -54.0312 -53.9519 -49.8235 -30.2996 -30.2480 -30.1800 -30.1093 -29.7680
   -29.6866 -27.9205 -21.7496 -21.7350 -21.7251 -16.6983 -16.6748 -14.2539
   -14.1697 -11.4560 -11.4313 -11.3589  -2.9570  -2.9107  -1.9478  -1.9318
    -1.9153  -1.8191  -0.7845  -0.7335  -0.1015  -0.0831   0.6380   0.6902
     1.8029   1.9060   2.8112   2.8602   3.1056   3.1568   3.2016   3.2177
     3.3194   3.3716   5.6817   5.8867   6.8506   7.1356   8.0797   8.0978
     8.2342   8.9107   9.5743   9.6203   9.7492  10.0645  10.4374  10.6252
    11.0785  11.4229  11.6586  12.1989  12.4534  12.5649  13.1325  13.3184
    13.6128  14.2657  14.3807  14.7601  14.9432  15.0438

     occupation numbers 
     1.0000   1.0000   1.0000   1.0000   1.0000   1.0000   1.0000   1.0000
     1.0000   1.0000   1.0000   1.0000   1.0000   1.0000   1.0000   1.0000
     1.0000   1.0000   1.0000   1.0000   1.0000   1.0000   1.0000   1.0000
     1.0000   1.0000   1.0000   1.0000   1.0000   1.0000   1.0000   1.0000
     1.0000   1.0000   0.0000   0.0000   0.0000   0.0000   0.0000   0.0000
     0.0000   0.0000   0.0000   0.0000   0.0000   0.0000   0.0000   0.0000
     0.0000   0.0000   0.0000   0.0000   0.0000   0.0000   0.0000   0.0000
     0.0000   0.0000   0.0000   0.0000   0.0000   0.0000   0.0000   0.0000
     0.0000   0.0000   0.0000   0.0000   0.0000   0.0000

          k = 0.0000 0.4768 0.0000 ( 13446 PWs)   bands (ev):

   -54.0298 -53.9505 -49.8234 -30.3822 -30.3320 -30.1771 -30.1062 -29.7647
   -29.6831 -27.9137 -21.7490 -21.7339 -21.7308 -16.1287 -16.1128 -14.2520
   -14.1576 -11.4931 -11.4408 -11.3892  -4.2269  -4.2081  -2.7079  -2.5435
    -2.4520  -2.3763  -0.7704  -0.6883  -0.0996  -0.0191   0.7153   0.7959
     2.0779   2.2755   2.8233   3.0079   3.4589   3.5728   3.8738   3.9827
     4.2095   4.2458   5.5888   6.4990   6.6824   7.1993   8.1670   8.4830
     8.7508   9.1813   9.3619   9.5288   9.7978   9.9697  10.1067  10.7186
    10.8257  11.1015  11.1708  11.7850  12.2304  12.4351  12.5418  12.9004
    13.0821  13.8404  14.0313  14.0711  14.6266  14.8882

     occupation numbers 
     1.0000   1.0000   1.0000   1.0000   1.0000   1.0000   1.0000   1.0000
     1.0000   1.0000   1.0000   1.0000   1.0000   1.0000   1.0000   1.0000
     1.0000   1.0000   1.0000   1.0000   1.0000   1.0000   1.0000   1.0000
     1.0000   1.0000   1.0000   1.0000   1.0000   1.0000   1.0000   1.0000
     1.0000   1.0000   0.0000   0.0000   0.0000   0.0000   0.0000   0.0000
     0.0000   0.0000   0.0000   0.0000   0.0000   0.0000   0.0000   0.0000
     0.0000   0.0000   0.0000   0.0000   0.0000   0.0000   0.0000   0.0000
     0.0000   0.0000   0.0000   0.0000   0.0000   0.0000   0.0000   0.0000
     0.0000   0.0000   0.0000   0.0000   0.0000   0.0000

          k = 0.0000 0.4768 0.0831 ( 13463 PWs)   bands (ev):

   -54.0298 -53.9505 -49.8234 -30.3822 -30.3320 -30.1771 -30.1062 -29.7647
   -29.6831 -27.9137 -21.7490 -21.7339 -21.7308 -16.1294 -16.1120 -14.2520
   -14.1577 -11.4931 -11.4408 -11.3892  -4.2264  -4.2085  -2.7007  -2.5477
    -2.4511  -2.3815  -0.7683  -0.6917  -0.0947  -0.0229   0.7212   0.7914
     2.0884   2.2698   2.8356   3.0009   3.4532   3.5490   3.8798   3.9775
     4.2096   4.2441   5.6469   6.4579   6.7310   7.1536   8.2249   8.3653
     8.8071   9.1655   9.3191   9.5063   9.7793  10.0579  10.1563  10.6678
    10.8284  11.0202  11.2823  11.7902  12.2200  12.4442  12.5897  12.8827
    13.1092  13.8593  13.9003  14.0550  14.5948  14.8947

     occupation numbers 
     1.0000   1.0000   1.0000   1.0000   1.0000   1.0000   1.0000   1.0000
     1.0000   1.0000   1.0000   1.0000   1.0000   1.0000   1.0000   1.0000
     1.0000   1.0000   1.0000   1.0000   1.0000   1.0000   1.0000   1.0000
     1.0000   1.0000   1.0000   1.0000   1.0000   1.0000   1.0000   1.0000
     1.0000   1.0000   0.0000   0.0000   0.0000   0.0000   0.0000   0.0000
     0.0000   0.0000   0.0000   0.0000   0.0000   0.0000   0.0000   0.0000
     0.0000   0.0000   0.0000   0.0000   0.0000   0.0000   0.0000   0.0000
     0.0000   0.0000   0.0000   0.0000   0.0000   0.0000   0.0000   0.0000
     0.0000   0.0000   0.0000   0.0000   0.0000   0.0000

          k = 0.0000 0.4768 0.1662 ( 13450 PWs)   bands (ev):

   -54.0298 -53.9505 -49.8234 -30.3822 -30.3320 -30.1771 -30.1062 -29.7647
   -29.6831 -27.9137 -21.7490 -21.7339 -21.7308 -16.1307 -16.1107 -14.2520
   -14.1577 -11.4931 -11.4408 -11.3892  -4.2252  -4.2095  -2.6842  -2.5581
    -2.4490  -2.3920  -0.7635  -0.6990  -0.0827  -0.0326   0.7364   0.7791
     2.1127   2.2553   2.8666   2.9809   3.4454   3.4984   3.8964   3.9626
     4.2094   4.2417   5.7801   6.3744   6.8281   7.0514   8.1802   8.4162
     8.7755   9.0608   9.2718   9.5806   9.7534  10.0907  10.3389  10.6002
    10.7827  10.9238  11.4620  11.8262  12.1345  12.4054  12.7137  12.9007
    13.1913  13.6933  13.8645  14.0882  14.3738  14.8755

     occupation numbers 
     1.0000   1.0000   1.0000   1.0000   1.0000   1.0000   1.0000   1.0000
     1.0000   1.0000   1.0000   1.0000   1.0000   1.0000   1.0000   1.0000
     1.0000   1.0000   1.0000   1.0000   1.0000   1.0000   1.0000   1.0000
     1.0000   1.0000   1.0000   1.0000   1.0000   1.0000   1.0000   1.0000
     1.0000   1.0000   0.0000   0.0000   0.0000   0.0000   0.0000   0.0000
     0.0000   0.0000   0.0000   0.0000   0.0000   0.0000   0.0000   0.0000
     0.0000   0.0000   0.0000   0.0000   0.0000   0.0000   0.0000   0.0000
     0.0000   0.0000   0.0000   0.0000   0.0000   0.0000   0.0000   0.0000
     0.0000   0.0000   0.0000   0.0000   0.0000   0.0000

          k = 0.0000 0.4768-0.2494 ( 13442 PWs)   bands (ev):

   -54.0298 -53.9505 -49.8234 -30.3822 -30.3320 -30.1771 -30.1062 -29.7647
   -29.6830 -27.9137 -21.7490 -21.7339 -21.7308 -16.1313 -16.1101 -14.2520
   -14.1577 -11.4931 -11.4408 -11.3892  -4.2246  -4.2100  -2.6744  -2.5649
    -2.4478  -2.3975  -0.7606  -0.7031  -0.0745  -0.0397   0.7504   0.7666
     2.1275   2.2455   2.8894   2.9638   3.4502   3.4649   3.9100   3.9498
     4.2092   4.2408   5.8636   6.3187   6.9214   6.9543   8.1209   8.5855
     8.6549   8.9735   9.2788   9.6786   9.7025  10.0760  10.4976  10.5539
    10.7109  10.8839  11.5789  11.8548  12.0412  12.3925  12.7356  12.9516
    13.2477  13.6477  13.8645  14.0900  14.1815  14.9387

     occupation numbers 
     1.0000   1.0000   1.0000   1.0000   1.0000   1.0000   1.0000   1.0000
     1.0000   1.0000   1.0000   1.0000   1.0000   1.0000   1.0000   1.0000
     1.0000   1.0000   1.0000   1.0000   1.0000   1.0000   1.0000   1.0000
     1.0000   1.0000   1.0000   1.0000   1.0000   1.0000   1.0000   1.0000
     1.0000   1.0000   0.0000   0.0000   0.0000   0.0000   0.0000   0.0000
     0.0000   0.0000   0.0000   0.0000   0.0000   0.0000   0.0000   0.0000
     0.0000   0.0000   0.0000   0.0000   0.0000   0.0000   0.0000   0.0000
     0.0000   0.0000   0.0000   0.0000   0.0000   0.0000   0.0000   0.0000
     0.0000   0.0000   0.0000   0.0000   0.0000   0.0000

          k = 0.0000-0.7152 0.0000 ( 13482 PWs)   bands (ev):

   -54.0291 -53.9498 -49.8234 -30.4225 -30.3731 -30.1756 -30.1046 -29.7630
   -29.6813 -27.9104 -21.7487 -21.7338 -21.7333 -15.8151 -15.7997 -14.2531
   -14.1526 -11.5086 -11.4418 -11.4086  -4.8549  -4.8489  -3.0177  -2.8188
    -2.6619  -2.6044  -0.7477  -0.6742  -0.0586  -0.0048   0.7133   0.7902
     2.3371   2.3573   2.8962   3.0312   3.5834   3.7901   4.1611   4.4079
     4.7609   4.7934   6.1371   6.1895   6.6567   6.6920   7.9308   8.5987
     9.1651   9.3547   9.5958   9.6480   9.8374   9.9242  10.1628  10.3061
    10.8327  10.9254  11.4605  11.4855  11.8828  12.1661  12.2755  12.3497
    13.0996  13.5942  13.6597  13.7822  14.3003  14.8809

     occupation numbers 
     1.0000   1.0000   1.0000   1.0000   1.0000   1.0000   1.0000   1.0000
     1.0000   1.0000   1.0000   1.0000   1.0000   1.0000   1.0000   1.0000
     1.0000   1.0000   1.0000   1.0000   1.0000   1.0000   1.0000   1.0000
     1.0000   1.0000   1.0000   1.0000   1.0000   1.0000   1.0000   1.0000
     1.0000   1.0000   0.0000   0.0000   0.0000   0.0000   0.0000   0.0000
     0.0000   0.0000   0.0000   0.0000   0.0000   0.0000   0.0000   0.0000
     0.0000   0.0000   0.0000   0.0000   0.0000   0.0000   0.0000   0.0000
     0.0000   0.0000   0.0000   0.0000   0.0000   0.0000   0.0000   0.0000
     0.0000   0.0000   0.0000   0.0000   0.0000   0.0000

          k = 0.0000-0.7152 0.0831 ( 13458 PWs)   bands (ev):

   -54.0291 -53.9498 -49.8233 -30.4225 -30.3731 -30.1756 -30.1046 -29.7630
   -29.6813 -27.9104 -21.7487 -21.7338 -21.7332 -15.8158 -15.7990 -14.2531
   -14.1526 -11.5086 -11.4419 -11.4086  -4.8549  -4.8489  -3.0098  -2.8250
    -2.6614  -2.6076  -0.7462  -0.6761  -0.0583  -0.0050   0.7186   0.7859
     2.3147   2.3893   2.9011   3.0271   3.5822   3.7665   4.1733   4.3957
     4.7610   4.7937   6.1494   6.1972   6.6624   6.7014   8.0126   8.5135
     9.0920   9.2815   9.5156   9.6878   9.9225   9.9594  10.1734  10.3170
    10.9109  10.9252  11.4358  11.4404  11.7702  12.1603  12.3340  12.4335
    13.2790  13.5606  13.6981  13.7764  14.3168  14.7868

     occupation numbers 
     1.0000   1.0000   1.0000   1.0000   1.0000   1.0000   1.0000   1.0000
     1.0000   1.0000   1.0000   1.0000   1.0000   1.0000   1.0000   1.0000
     1.0000   1.0000   1.0000   1.0000   1.0000   1.0000   1.0000   1.0000
     1.0000   1.0000   1.0000   1.0000   1.0000   1.0000   1.0000   1.0000
     1.0000   1.0000   0.0000   0.0000   0.0000   0.0000   0.0000   0.0000
     0.0000   0.0000   0.0000   0.0000   0.0000   0.0000   0.0000   0.0000
     0.0000   0.0000   0.0000   0.0000   0.0000   0.0000   0.0000   0.0000
     0.0000   0.0000   0.0000   0.0000   0.0000   0.0000   0.0000   0.0000
     0.0000   0.0000   0.0000   0.0000   0.0000   0.0000

          k = 0.0000-0.7152 0.1662 ( 13472 PWs)   bands (ev):

   -54.0291 -53.9498 -49.8233 -30.4225 -30.3731 -30.1756 -30.1046 -29.7630
   -29.6813 -27.9104 -21.7487 -21.7338 -21.7333 -15.8171 -15.7977 -14.2531
   -14.1526 -11.5086 -11.4419 -11.4086  -4.8549  -4.8489  -2.9919  -2.8397
    -2.6602  -2.6139  -0.7431  -0.6802  -0.0577  -0.0055   0.7322   0.7744
     2.2980   2.4258   2.9131   3.0166   3.5840   3.7153   4.2030   4.3660
     4.7613   4.7943   6.1747   6.2149   6.6051   6.7971   8.2285   8.3570
     8.8513   9.1477   9.4253   9.8059  10.0283  10.0646  10.2064  10.3127
    10.8766  10.9390  11.3434  11.4741  11.7126  12.1563  12.3674  12.6214
    13.4936  13.4954  13.7409  13.9166  14.4077  14.6376

     occupation numbers 
     1.0000   1.0000   1.0000   1.0000   1.0000   1.0000   1.0000   1.0000
     1.0000   1.0000   1.0000   1.0000   1.0000   1.0000   1.0000   1.0000
     1.0000   1.0000   1.0000   1.0000   1.0000   1.0000   1.0000   1.0000
     1.0000   1.0000   1.0000   1.0000   1.0000   1.0000   1.0000   1.0000
     1.0000   1.0000   0.0000   0.0000   0.0000   0.0000   0.0000   0.0000
     0.0000   0.0000   0.0000   0.0000   0.0000   0.0000   0.0000   0.0000
     0.0000   0.0000   0.0000   0.0000   0.0000   0.0000   0.0000   0.0000
     0.0000   0.0000   0.0000   0.0000   0.0000   0.0000   0.0000   0.0000
     0.0000   0.0000   0.0000   0.0000   0.0000   0.0000

          k = 0.0000-0.7152-0.2494 ( 13436 PWs)   bands (ev):

   -54.0291 -53.9497 -49.8233 -30.4225 -30.3731 -30.1756 -30.1046 -29.7630
   -29.6813 -27.9104 -21.7487 -21.7338 -21.7332 -15.8176 -15.7971 -14.2531
   -14.1526 -11.5086 -11.4419 -11.4086  -4.8548  -4.8489  -2.9812  -2.8488
    -2.6595  -2.6170  -0.7413  -0.6823  -0.0574  -0.0057   0.7438   0.7639
     2.2928   2.4411   2.9211   3.0094   3.5892   3.6854   4.2231   4.3461
     4.7614   4.7946   6.1876   6.2252   6.5766   6.8491   8.2809   8.4994
     8.5571   9.0889   9.4017   9.8655  10.0806  10.1109  10.2713  10.2825
    10.7388  11.0113  11.2489  11.5414  11.7276  12.1607  12.3708  12.7303
    13.4554  13.5310  13.7084  14.0869  14.5730  14.6109

     occupation numbers 
     1.0000   1.0000   1.0000   1.0000   1.0000   1.0000   1.0000   1.0000
     1.0000   1.0000   1.0000   1.0000   1.0000   1.0000   1.0000   1.0000
     1.0000   1.0000   1.0000   1.0000   1.0000   1.0000   1.0000   1.0000
     1.0000   1.0000   1.0000   1.0000   1.0000   1.0000   1.0000   1.0000
     1.0000   1.0000   0.0000   0.0000   0.0000   0.0000   0.0000   0.0000
     0.0000   0.0000   0.0000   0.0000   0.0000   0.0000   0.0000   0.0000
     0.0000   0.0000   0.0000   0.0000   0.0000   0.0000   0.0000   0.0000
     0.0000   0.0000   0.0000   0.0000   0.0000   0.0000   0.0000   0.0000
     0.0000   0.0000   0.0000   0.0000   0.0000   0.0000

          k = 0.1667 0.0000 0.0000 ( 13423 PWs)   bands (ev):

   -54.0320 -53.9527 -49.8236 -30.2573 -30.2049 -30.1815 -30.1109 -29.7697
   -29.6884 -27.9239 -21.7499 -21.7355 -21.7223 -16.9557 -16.9364 -14.2562
   -14.1761 -11.4584 -11.3806 -11.3674  -2.1095  -1.8892  -1.8210  -1.8119
    -1.5982  -1.5830  -0.7661  -0.6563  -0.2064  -0.0029   0.5244   0.5789
     1.5841   2.1178   2.5835   2.6266   2.6567   2.9435   2.9594   3.0235
     3.2345   3.2611   5.1190   5.8916   6.5235   6.5894   7.5358   8.0565
     8.1778   8.5973   9.6147   9.8011  10.0031  10.2732  10.3643  10.7546
    11.5148  11.8633  12.0585  12.4318  12.7536  12.9414  13.4103  13.5671
    14.1501  14.2449  14.5154  14.7303  15.2045  15.4130

     occupation numbers 
     1.0000   1.0000   1.0000   1.0000   1.0000   1.0000   1.0000   1.0000
     1.0000   1.0000   1.0000   1.0000   1.0000   1.0000   1.0000   1.0000
     1.0000   1.0000   1.0000   1.0000   1.0000   1.0000   1.0000   1.0000
     1.0000   1.0000   1.0000   1.0000   1.0000   1.0000   1.0000   1.0000
     1.0000   1.0000   0.0000   0.0000   0.0000   0.0000   0.0000   0.0000
     0.0000   0.0000   0.0000   0.0000   0.0000   0.0000   0.0000   0.0000
     0.0000   0.0000   0.0000   0.0000   0.0000   0.0000   0.0000   0.0000
     0.0000   0.0000   0.0000   0.0000   0.0000   0.0000   0.0000   0.0000
     0.0000   0.0000   0.0000   0.0000   0.0000   0.0000

          k = 0.1667 0.0000 0.0831 ( 13424 PWs)   bands (ev):

   -54.0320 -53.9527 -49.8236 -30.2573 -30.2049 -30.1815 -30.1109 -29.7697
   -29.6884 -27.9239 -21.7499 -21.7355 -21.7223 -16.9565 -16.9357 -14.2562
   -14.1761 -11.4584 -11.3806 -11.3674  -2.1004  -1.8999  -1.8211  -1.8119
    -1.5969  -1.5836  -0.7717  -0.6554  -0.1902  -0.0134   0.5241   0.5791
     1.6059   2.0687   2.6246   2.6254   2.6587   2.9378   2.9579   3.0242
     3.1747   3.3056   5.1677   5.8634   6.4136   6.7460   7.4993   7.7574
     8.2760   8.8560   9.5007   9.8630   9.9967  10.2508  10.3641  10.9089
    11.5192  11.9067  12.0052  12.2267  12.7486  12.9840  13.3144  13.5068
    13.8033  14.2915  14.6996  14.9278  15.4286  15.5199

     occupation numbers 
     1.0000   1.0000   1.0000   1.0000   1.0000   1.0000   1.0000   1.0000
     1.0000   1.0000   1.0000   1.0000   1.0000   1.0000   1.0000   1.0000
     1.0000   1.0000   1.0000   1.0000   1.0000   1.0000   1.0000   1.0000
     1.0000   1.0000   1.0000   1.0000   1.0000   1.0000   1.0000   1.0000
     1.0000   1.0000   0.0000   0.0000   0.0000   0.0000   0.0000   0.0000
     0.0000   0.0000   0.0000   0.0000   0.0000   0.0000   0.0000   0.0000
     0.0000   0.0000   0.0000   0.0000   0.0000   0.0000   0.0000   0.0000
     0.0000   0.0000   0.0000   0.0000   0.0000   0.0000   0.0000   0.0000
     0.0000   0.0000   0.0000   0.0000   0.0000   0.0000

          k = 0.1667 0.0000 0.1662 ( 13445 PWs)   bands (ev):

   -54.0320 -53.9527 -49.8236 -30.2573 -30.2049 -30.1816 -30.1109 -29.7698
   -29.6884 -27.9239 -21.7500 -21.7356 -21.7223 -16.9578 -16.9343 -14.2562
   -14.1761 -11.4584 -11.3806 -11.3674  -2.0808  -1.9219  -1.8211  -1.8119
    -1.5954  -1.5843  -0.7677  -0.6723  -0.1485  -0.0426   0.5233   0.5799
     1.6781   1.9615   2.6236   2.6618   2.7109   2.9061   2.9554   3.0252
     3.1127   3.3184   5.3576   5.7844   6.2953   6.8495   7.4204   7.5505
     8.2772   9.2007   9.4452   9.8987   9.9851  10.3261  10.3649  10.9990
    11.3582  11.8053  11.9991  12.2728  12.5982  13.0844  13.1134  13.5302
    13.6291  14.4897  14.7813  14.9411  15.5188  15.5666

     occupation numbers 
     1.0000   1.0000   1.0000   1.0000   1.0000   1.0000   1.0000   1.0000
     1.0000   1.0000   1.0000   1.0000   1.0000   1.0000   1.0000   1.0000
     1.0000   1.0000   1.0000   1.0000   1.0000   1.0000   1.0000   1.0000
     1.0000   1.0000   1.0000   1.0000   1.0000   1.0000   1.0000   1.0000
     1.0000   1.0000   0.0000   0.0000   0.0000   0.0000   0.0000   0.0000
     0.0000   0.0000   0.0000   0.0000   0.0000   0.0000   0.0000   0.0000
     0.0000   0.0000   0.0000   0.0000   0.0000   0.0000   0.0000   0.0000
     0.0000   0.0000   0.0000   0.0000   0.0000   0.0000   0.0000   0.0000
     0.0000   0.0000   0.0000   0.0000   0.0000   0.0000

          k = 0.1667 0.0000-0.2494 ( 13434 PWs)   bands (ev):

   -54.0320 -53.9527 -49.8236 -30.2573 -30.2049 -30.1815 -30.1109 -29.7698
   -29.6884 -27.9239 -21.7499 -21.7356 -21.7223 -16.9584 -16.9337 -14.2562
   -14.1760 -11.4584 -11.3806 -11.3674  -2.0700  -1.9335  -1.8211  -1.8119
    -1.5954  -1.5841  -0.7541  -0.6938  -0.1116  -0.0730   0.5229   0.5804
     1.7567   1.8733   2.6231   2.6630   2.7736   2.8619   2.9544   3.0256
     3.0876   3.3139   5.5659   5.6929   6.1957   6.8214   7.3996   7.5574
     8.2314   9.2476   9.6025   9.8697   9.9800  10.3658  10.4466  10.8887
    11.1486  11.8885  12.0503  12.3345  12.5376  12.9633  13.0093  13.6261
    13.8024  14.5991  14.6849  14.9987  15.3152  15.5195

     occupation numbers 
     1.0000   1.0000   1.0000   1.0000   1.0000   1.0000   1.0000   1.0000
     1.0000   1.0000   1.0000   1.0000   1.0000   1.0000   1.0000   1.0000
     1.0000   1.0000   1.0000   1.0000   1.0000   1.0000   1.0000   1.0000
     1.0000   1.0000   1.0000   1.0000   1.0000   1.0000   1.0000   1.0000
     1.0000   1.0000   0.0000   0.0000   0.0000   0.0000   0.0000   0.0000
     0.0000   0.0000   0.0000   0.0000   0.0000   0.0000   0.0000   0.0000
     0.0000   0.0000   0.0000   0.0000   0.0000   0.0000   0.0000   0.0000
     0.0000   0.0000   0.0000   0.0000   0.0000   0.0000   0.0000   0.0000
     0.0000   0.0000   0.0000   0.0000   0.0000   0.0000

          k = 0.1667 0.2384 0.0000 ( 13423 PWs)   bands (ev):

   -54.0312 -53.9519 -49.8235 -30.2996 -30.2479 -30.1800 -30.1093 -29.7680
   -29.6866 -27.9205 -21.7496 -21.7350 -21.7251 -16.6954 -16.6775 -14.2539
   -14.1696 -11.4561 -11.4316 -11.3591  -2.9703  -2.8987  -1.9639  -1.9416
    -1.9385  -1.7829  -0.7977  -0.7067  -0.1742  -0.0118   0.6313   0.6980
     1.7404   2.1464   2.6387   2.9272   3.0844   3.1326   3.2185   3.2512
     3.3415   3.4096   5.3009   6.1359   6.8347   6.9662   7.9307   8.1563
     8.3890   8.7739   9.5327   9.6533   9.8748   9.9995  10.2791  10.7148
    11.0571  11.4983  11.7146  12.1228  12.4044  12.8753  13.1682  13.4352
    14.0356  14.1539  14.4385  14.7019  15.0201  15.2499

     occupation numbers 
     1.0000   1.0000   1.0000   1.0000   1.0000   1.0000   1.0000   1.0000
     1.0000   1.0000   1.0000   1.0000   1.0000   1.0000   1.0000   1.0000
     1.0000   1.0000   1.0000   1.0000   1.0000   1.0000   1.0000   1.0000
     1.0000   1.0000   1.0000   1.0000   1.0000   1.0000   1.0000   1.0000
     1.0000   1.0000   0.0000   0.0000   0.0000   0.0000   0.0000   0.0000
     0.0000   0.0000   0.0000   0.0000   0.0000   0.0000   0.0000   0.0000
     0.0000   0.0000   0.0000   0.0000   0.0000   0.0000   0.0000   0.0000
     0.0000   0.0000   0.0000   0.0000   0.0000   0.0000   0.0000   0.0000
     0.0000   0.0000   0.0000   0.0000   0.0000   0.0000

          k = 0.1667 0.2384 0.0831 ( 13422 PWs)   bands (ev):

   -54.0312 -53.9519 -49.8235 -30.2996 -30.2479 -30.1800 -30.1093 -29.7680
   -29.6866 -27.9205 -21.7496 -21.7350 -21.7251 -16.6962 -16.6767 -14.2539
   -14.1696 -11.4561 -11.4316 -11.3591  -2.9673  -2.9013  -1.9607  -1.9415
    -1.9359  -1.7909  -0.8020  -0.7043  -0.1631  -0.0195   0.6325   0.6968
     1.7602   2.1117   2.6674   2.9140   3.0892   3.1425   3.2157   3.2459
     3.2954   3.4395   5.3523   6.0945   6.7849   7.0666   7.8269   8.0137
     8.4492   8.9844   9.4782   9.6303   9.8392  10.0669  10.3235  10.6565
    11.1627  11.4753  11.6395  12.0780  12.5124  12.7086  13.2793  13.3789
    13.9558  14.0892  14.4508  14.8184  14.8806  15.1478

     occupation numbers 
     1.0000   1.0000   1.0000   1.0000   1.0000   1.0000   1.0000   1.0000
     1.0000   1.0000   1.0000   1.0000   1.0000   1.0000   1.0000   1.0000
     1.0000   1.0000   1.0000   1.0000   1.0000   1.0000   1.0000   1.0000
     1.0000   1.0000   1.0000   1.0000   1.0000   1.0000   1.0000   1.0000
     1.0000   1.0000   0.0000   0.0000   0.0000   0.0000   0.0000   0.0000
     0.0000   0.0000   0.0000   0.0000   0.0000   0.0000   0.0000   0.0000
     0.0000   0.0000   0.0000   0.0000   0.0000   0.0000   0.0000   0.0000
     0.0000   0.0000   0.0000   0.0000   0.0000   0.0000   0.0000   0.0000
     0.0000   0.0000   0.0000   0.0000   0.0000   0.0000

          k = 0.1667 0.2384 0.1662 ( 13425 PWs)   bands (ev):

   -54.0312 -53.9519 -49.8235 -30.2996 -30.2479 -30.1800 -30.1093 -29.7680
   -29.6866 -27.9205 -21.7496 -21.7350 -21.7251 -16.6976 -16.6753 -14.2539
   -14.1696 -11.4562 -11.4316 -11.3591  -2.9606  -2.9070  -1.9585  -1.9411
    -1.9242  -1.8087  -0.7996  -0.7138  -0.1303  -0.0438   0.6365   0.6939
     1.8185   2.0342   2.7325   2.8794   3.0943   3.1460   3.2033   3.2269
     3.2757   3.4376   5.5434   6.0081   6.6120   7.2344   7.6231   8.0183
     8.3956   9.2509   9.4505   9.6240   9.8446  10.1333  10.3138  10.7007
    11.1733  11.3544  11.6231  12.0411  12.4567  12.7441  13.2450  13.5117
    13.8625  14.0635  14.2373  14.6072  15.0307  15.2032

     occupation numbers 
     1.0000   1.0000   1.0000   1.0000   1.0000   1.0000   1.0000   1.0000
     1.0000   1.0000   1.0000   1.0000   1.0000   1.0000   1.0000   1.0000
     1.0000   1.0000   1.0000   1.0000   1.0000   1.0000   1.0000   1.0000
     1.0000   1.0000   1.0000   1.0000   1.0000   1.0000   1.0000   1.0000
     1.0000   1.0000   0.0000   0.0000   0.0000   0.0000   0.0000   0.0000
     0.0000   0.0000   0.0000   0.0000   0.0000   0.0000   0.0000   0.0000
     0.0000   0.0000   0.0000   0.0000   0.0000   0.0000   0.0000   0.0000
     0.0000   0.0000   0.0000   0.0000   0.0000   0.0000   0.0000   0.0000
     0.0000   0.0000   0.0000   0.0000   0.0000   0.0000

          k = 0.1667 0.2384-0.2494 ( 13438 PWs)   bands (ev):

   -54.0313 -53.9520 -49.8235 -30.2996 -30.2479 -30.1800 -30.1093 -29.7680
   -29.6866 -27.9205 -21.7496 -21.7350 -21.7251 -16.6982 -16.6747 -14.2539
   -14.1696 -11.4562 -11.4316 -11.3591  -2.9567  -2.9104  -1.9589  -1.9408
    -1.9152  -1.8192  -0.7911  -0.7275  -0.0937  -0.0757   0.6393   0.6922
     1.8746   1.9735   2.7842   2.8420   3.0957   3.1329   3.1927   3.2274
     3.2809   3.4221   5.7360   5.9393   6.4489   7.2648   7.6368   8.0414
     8.3077   9.2854   9.4997   9.6526   9.9259  10.1254  10.2537  10.7843
    11.1370  11.2023  11.6308  12.1466  12.4328  12.7313  13.1758  13.6015
    13.7391  14.0978  14.2230  14.6362  14.9921  15.3460

     occupation numbers 
     1.0000   1.0000   1.0000   1.0000   1.0000   1.0000   1.0000   1.0000
     1.0000   1.0000   1.0000   1.0000   1.0000   1.0000   1.0000   1.0000
     1.0000   1.0000   1.0000   1.0000   1.0000   1.0000   1.0000   1.0000
     1.0000   1.0000   1.0000   1.0000   1.0000   1.0000   1.0000   1.0000
     1.0000   1.0000   0.0000   0.0000   0.0000   0.0000   0.0000   0.0000
     0.0000   0.0000   0.0000   0.0000   0.0000   0.0000   0.0000   0.0000
     0.0000   0.0000   0.0000   0.0000   0.0000   0.0000   0.0000   0.0000
     0.0000   0.0000   0.0000   0.0000   0.0000   0.0000   0.0000   0.0000
     0.0000   0.0000   0.0000   0.0000   0.0000   0.0000

          k = 0.1667 0.4768 0.0000 ( 13456 PWs)   bands (ev):

   -54.0298 -53.9505 -49.8234 -30.3822 -30.3320 -30.1771 -30.1062 -29.7647
   -29.6831 -27.9137 -21.7490 -21.7339 -21.7308 -16.1286 -16.1127 -14.2518
   -14.1575 -11.4932 -11.4411 -11.3897  -4.2267  -4.2079  -2.7080  -2.5484
    -2.4594  -2.3796  -0.7674  -0.6944  -0.0987  -0.0096   0.7279   0.8000
     2.1502   2.2972   2.8043   2.9963   3.4641   3.5534   3.8803   3.9824
     4.2075   4.2429   5.7178   6.3372   6.7420   7.1666   8.1452   8.3735
     8.6379   8.6683   9.4462   9.5025   9.8635  10.1913  10.3959  10.5685
    10.7624  10.9672  11.3318  11.7288  11.9310  12.6424  12.7865  13.1584
    13.3252  13.6903  13.9641  14.3393  14.4877  14.6547

     occupation numbers 
     1.0000   1.0000   1.0000   1.0000   1.0000   1.0000   1.0000   1.0000
     1.0000   1.0000   1.0000   1.0000   1.0000   1.0000   1.0000   1.0000
     1.0000   1.0000   1.0000   1.0000   1.0000   1.0000   1.0000   1.0000
     1.0000   1.0000   1.0000   1.0000   1.0000   1.0000   1.0000   1.0000
     1.0000   1.0000   0.0000   0.0000   0.0000   0.0000   0.0000   0.0000
     0.0000   0.0000   0.0000   0.0000   0.0000   0.0000   0.0000   0.0000
     0.0000   0.0000   0.0000   0.0000   0.0000   0.0000   0.0000   0.0000
     0.0000   0.0000   0.0000   0.0000   0.0000   0.0000   0.0000   0.0000
     0.0000   0.0000   0.0000   0.0000   0.0000   0.0000

          k = 0.1667 0.4768 0.0831 ( 13456 PWs)   bands (ev):

   -54.0298 -53.9505 -49.8234 -30.3822 -30.3320 -30.1771 -30.1062 -29.7647
   -29.6831 -27.9137 -21.7490 -21.7339 -21.7308 -16.1293 -16.1120 -14.2518
   -14.1575 -11.4932 -11.4411 -11.3897  -4.2262  -4.2083  -2.7012  -2.5519
    -2.4584  -2.3852  -0.7701  -0.6922  -0.0941  -0.0132   0.7311   0.7974
     2.1573   2.2949   2.8121   2.9938   3.4224   3.5733   3.8846   3.9792
     4.2075   4.2443   5.7514   6.3130   6.8626   7.0246   8.1577   8.3459
     8.5395   8.9042   9.2392   9.5327   9.8981  10.1670  10.4423  10.5329
    10.8674  11.0530  11.2485  11.6819  11.9752  12.4702  12.8032  13.2212
    13.4447  13.6239  14.0459  14.2098  14.5761  14.7814

     occupation numbers 
     1.0000   1.0000   1.0000   1.0000   1.0000   1.0000   1.0000   1.0000
     1.0000   1.0000   1.0000   1.0000   1.0000   1.0000   1.0000   1.0000
     1.0000   1.0000   1.0000   1.0000   1.0000   1.0000   1.0000   1.0000
     1.0000   1.0000   1.0000   1.0000   1.0000   1.0000   1.0000   1.0000
     1.0000   1.0000   0.0000   0.0000   0.0000   0.0000   0.0000   0.0000
     0.0000   0.0000   0.0000   0.0000   0.0000   0.0000   0.0000   0.0000
     0.0000   0.0000   0.0000   0.0000   0.0000   0.0000   0.0000   0.0000
     0.0000   0.0000   0.0000   0.0000   0.0000   0.0000   0.0000   0.0000
     0.0000   0.0000   0.0000   0.0000   0.0000   0.0000

          k = 0.1667 0.4768 0.1662 ( 13436 PWs)   bands (ev):

   -54.0298 -53.9505 -49.8234 -30.3822 -30.3320 -30.1771 -30.1062 -29.7647
   -29.6831 -27.9137 -21.7490 -21.7338 -21.7308 -16.1307 -16.1106 -14.2518
   -14.1575 -11.4933 -11.4411 -11.3897  -4.2250  -4.2093  -2.6851  -2.5614
    -2.4561  -2.3963  -0.7691  -0.6951  -0.0812  -0.0237   0.7432   0.7874
     2.1726   2.2904   2.8407   2.9750   3.3829   3.5624   3.8982   3.9673
     4.2076   4.2423   5.8538   6.3155   6.8296   7.0329   8.0058   8.2662
     8.6311   8.9388   9.2388   9.5290   9.9566  10.1838  10.4564  10.5075
    10.9054  11.1204  11.1890  11.6256  12.1145  12.3873  12.8495  13.0958
    13.3994  13.5880  14.0731  14.2544  14.6320  14.9343

     occupation numbers 
     1.0000   1.0000   1.0000   1.0000   1.0000   1.0000   1.0000   1.0000
     1.0000   1.0000   1.0000   1.0000   1.0000   1.0000   1.0000   1.0000
     1.0000   1.0000   1.0000   1.0000   1.0000   1.0000   1.0000   1.0000
     1.0000   1.0000   1.0000   1.0000   1.0000   1.0000   1.0000   1.0000
     1.0000   1.0000   0.0000   0.0000   0.0000   0.0000   0.0000   0.0000
     0.0000   0.0000   0.0000   0.0000   0.0000   0.0000   0.0000   0.0000
     0.0000   0.0000   0.0000   0.0000   0.0000   0.0000   0.0000   0.0000
     0.0000   0.0000   0.0000   0.0000   0.0000   0.0000   0.0000   0.0000
     0.0000   0.0000   0.0000   0.0000   0.0000   0.0000

          k = 0.1667 0.4768-0.2494 ( 13436 PWs)   bands (ev):

   -54.0298 -53.9505 -49.8234 -30.3822 -30.3320 -30.1771 -30.1062 -29.7647
   -29.6831 -27.9137 -21.7490 -21.7339 -21.7308 -16.1313 -16.1100 -14.2518
   -14.1575 -11.4933 -11.4411 -11.3897  -4.2244  -4.2098  -2.6753  -2.5681
    -2.4550  -2.4018  -0.7651  -0.7007  -0.0709  -0.0325   0.7570   0.7750
     2.1804   2.2885   2.8697   2.9499   3.3772   3.5400   3.9128   3.9537
     4.2076   4.2395   5.9201   6.3687   6.6705   7.1619   7.9074   8.1971
     8.6147   8.9373   9.3480   9.5779   9.8940  10.2817  10.4634  10.4955
    10.7862  11.0347  11.3110  11.6734  12.1906  12.4060  12.7356  13.1280
    13.3013  13.5842  14.0238  14.2307  14.6676  14.9813

     occupation numbers 
     1.0000   1.0000   1.0000   1.0000   1.0000   1.0000   1.0000   1.0000
     1.0000   1.0000   1.0000   1.0000   1.0000   1.0000   1.0000   1.0000
     1.0000   1.0000   1.0000   1.0000   1.0000   1.0000   1.0000   1.0000
     1.0000   1.0000   1.0000   1.0000   1.0000   1.0000   1.0000   1.0000
     1.0000   1.0000   0.0000   0.0000   0.0000   0.0000   0.0000   0.0000
     0.0000   0.0000   0.0000   0.0000   0.0000   0.0000   0.0000   0.0000
     0.0000   0.0000   0.0000   0.0000   0.0000   0.0000   0.0000   0.0000
     0.0000   0.0000   0.0000   0.0000   0.0000   0.0000   0.0000   0.0000
     0.0000   0.0000   0.0000   0.0000   0.0000   0.0000

          k = 0.1667-0.7152 0.0000 ( 13468 PWs)   bands (ev):

   -54.0291 -53.9498 -49.8233 -30.4225 -30.3731 -30.1757 -30.1047 -29.7630
   -29.6813 -27.9103 -21.7487 -21.7338 -21.7333 -15.8150 -15.7996 -14.2528
   -14.1523 -11.5089 -11.4418 -11.4095  -4.8548  -4.8488  -3.0174  -2.8222
    -2.6688  -2.6086  -0.7466  -0.6785  -0.0569   0.0026   0.7250   0.7964
     2.3705   2.3967   2.8802   3.0217   3.5936   3.7763   4.1812   4.4144
     4.7547   4.7851   6.2260   6.2488   6.5625   6.8315   7.9998   8.4447
     8.7646   8.9887   9.1958   9.2879   9.7328   9.9659  10.4644  10.8698
    10.9651  11.1909  11.3722  11.4871  11.8185  12.3399  12.4685  12.4974
    12.8836  13.6015  14.0410  14.0557  14.6021  14.8237

     occupation numbers 
     1.0000   1.0000   1.0000   1.0000   1.0000   1.0000   1.0000   1.0000
     1.0000   1.0000   1.0000   1.0000   1.0000   1.0000   1.0000   1.0000
     1.0000   1.0000   1.0000   1.0000   1.0000   1.0000   1.0000   1.0000
     1.0000   1.0000   1.0000   1.0000   1.0000   1.0000   1.0000   1.0000
     1.0000   1.0000   0.0000   0.0000   0.0000   0.0000   0.0000   0.0000
     0.0000   0.0000   0.0000   0.0000   0.0000   0.0000   0.0000   0.0000
     0.0000   0.0000   0.0000   0.0000   0.0000   0.0000   0.0000   0.0000
     0.0000   0.0000   0.0000   0.0000   0.0000   0.0000   0.0000   0.0000
     0.0000   0.0000   0.0000   0.0000   0.0000   0.0000

          k = 0.1667-0.7152 0.0831 ( 13466 PWs)   bands (ev):

   -54.0291 -53.9498 -49.8233 -30.4225 -30.3731 -30.1757 -30.1047 -29.7630
   -29.6813 -27.9103 -21.7487 -21.7338 -21.7332 -15.8157 -15.7989 -14.2527
   -14.1524 -11.5089 -11.4418 -11.4095  -4.8548  -4.8488  -3.0100  -2.8276
    -2.6681  -2.6121  -0.7486  -0.6766  -0.0564   0.0021   0.7284   0.7939
     2.3584   2.4164   2.8827   3.0220   3.5645   3.7856   4.1895   4.4080
     4.7550   4.7853   6.2352   6.2717   6.5946   6.7659   8.0925   8.3672
     8.7655   8.9578   9.2597   9.2748   9.5464  10.1314  10.5828  10.7118
    10.8463  11.2629  11.4917  11.4933  11.7840  12.2561  12.3471  12.5934
    13.2108  13.5529  13.9625  14.0463  14.4719  14.8293

     occupation numbers 
     1.0000   1.0000   1.0000   1.0000   1.0000   1.0000   1.0000   1.0000
     1.0000   1.0000   1.0000   1.0000   1.0000   1.0000   1.0000   1.0000
     1.0000   1.0000   1.0000   1.0000   1.0000   1.0000   1.0000   1.0000
     1.0000   1.0000   1.0000   1.0000   1.0000   1.0000   1.0000   1.0000
     1.0000   1.0000   0.0000   0.0000   0.0000   0.0000   0.0000   0.0000
     0.0000   0.0000   0.0000   0.0000   0.0000   0.0000   0.0000   0.0000
     0.0000   0.0000   0.0000   0.0000   0.0000   0.0000   0.0000   0.0000
     0.0000   0.0000   0.0000   0.0000   0.0000   0.0000   0.0000   0.0000
     0.0000   0.0000   0.0000   0.0000   0.0000   0.0000

          k = 0.1667-0.7152 0.1662 ( 13438 PWs)   bands (ev):

   -54.0291 -53.9497 -49.8233 -30.4225 -30.3731 -30.1756 -30.1047 -29.7630
   -29.6813 -27.9103 -21.7487 -21.7338 -21.7332 -15.8170 -15.7976 -14.2527
   -14.1524 -11.5089 -11.4419 -11.4095  -4.8548  -4.8488  -2.9925  -2.8415
    -2.6668  -2.6188  -0.7480  -0.6779  -0.0551   0.0012   0.7399   0.7844
     2.3407   2.4521   2.8941   3.0116   3.5439   3.7642   4.2162   4.3825
     4.7552   4.7861   6.2232   6.2903   6.7053   6.7426   8.0979   8.2866
     8.7615   8.8100   9.3336   9.4058   9.4085  10.3411  10.4446  10.4744
    10.9991  11.3237  11.5151  11.6270  11.7410  12.1759  12.3338  12.6835
    13.4456  13.5336  13.9607  14.0041  14.1504  14.7456

     occupation numbers 
     1.0000   1.0000   1.0000   1.0000   1.0000   1.0000   1.0000   1.0000
     1.0000   1.0000   1.0000   1.0000   1.0000   1.0000   1.0000   1.0000
     1.0000   1.0000   1.0000   1.0000   1.0000   1.0000   1.0000   1.0000
     1.0000   1.0000   1.0000   1.0000   1.0000   1.0000   1.0000   1.0000
     1.0000   1.0000   0.0000   0.0000   0.0000   0.0000   0.0000   0.0000
     0.0000   0.0000   0.0000   0.0000   0.0000   0.0000   0.0000   0.0000
     0.0000   0.0000   0.0000   0.0000   0.0000   0.0000   0.0000   0.0000
     0.0000   0.0000   0.0000   0.0000   0.0000   0.0000   0.0000   0.0000
     0.0000   0.0000   0.0000   0.0000   0.0000   0.0000

          k = 0.1667-0.7152-0.2494 ( 13436 PWs)   bands (ev):

   -54.0291 -53.9497 -49.8233 -30.4225 -30.3731 -30.1756 -30.1046 -29.7630
   -29.6813 -27.9103 -21.7487 -21.7338 -21.7332 -15.8176 -15.7970 -14.2527
   -14.1524 -11.5089 -11.4419 -11.4095  -4.8548  -4.8488  -2.9817  -2.8508
    -2.6662  -2.6219  -0.7454  -0.6811  -0.0544   0.0006   0.7517   0.7737
     2.3329   2.4702   2.9060   2.9976   3.5537   3.7327   4.2392   4.3588
     4.7551   4.7867   6.2094   6.2810   6.7112   6.8690   7.9101   8.4938
     8.5840   8.7628   9.2072   9.5620   9.5627  10.2004  10.2981  10.5750
    11.1289  11.2535  11.5949  11.6774  11.7527  12.1691  12.3801  12.6182
    13.3513  13.6407  13.9371  13.9459  14.1638  14.6663

     occupation numbers 
     1.0000   1.0000   1.0000   1.0000   1.0000   1.0000   1.0000   1.0000
     1.0000   1.0000   1.0000   1.0000   1.0000   1.0000   1.0000   1.0000
     1.0000   1.0000   1.0000   1.0000   1.0000   1.0000   1.0000   1.0000
     1.0000   1.0000   1.0000   1.0000   1.0000   1.0000   1.0000   1.0000
     1.0000   1.0000   0.0000   0.0000   0.0000   0.0000   0.0000   0.0000
     0.0000   0.0000   0.0000   0.0000   0.0000   0.0000   0.0000   0.0000
     0.0000   0.0000   0.0000   0.0000   0.0000   0.0000   0.0000   0.0000
     0.0000   0.0000   0.0000   0.0000   0.0000   0.0000   0.0000   0.0000
     0.0000   0.0000   0.0000   0.0000   0.0000   0.0000

          k = 0.3333 0.0000 0.0000 ( 13434 PWs)   bands (ev):

   -54.0320 -53.9527 -49.8236 -30.2573 -30.2049 -30.1816 -30.1109 -29.7698
   -29.6884 -27.9239 -21.7499 -21.7356 -21.7223 -16.9555 -16.9362 -14.2563
   -14.1757 -11.4592 -11.3805 -11.3677  -2.1157  -1.8958  -1.8199  -1.8107
    -1.6142  -1.5972  -0.7465  -0.6815  -0.1960   0.0293   0.5174   0.5734
     1.8438   2.1834   2.5297   2.6242   2.6539   2.8988   2.9638   3.0256
     3.1619   3.2470   5.3708   5.4644   6.4025   6.5215   7.2159   8.0861
     8.2313   8.5997   9.1905   9.8349   9.9791  10.3366  10.3679  11.3559
    11.5645  11.9986  11.9993  12.6253  13.0996  13.6464  13.7224  13.9272
    14.1903  14.3601  14.6426  14.8953  14.9813  15.1159

     occupation numbers 
     1.0000   1.0000   1.0000   1.0000   1.0000   1.0000   1.0000   1.0000
     1.0000   1.0000   1.0000   1.0000   1.0000   1.0000   1.0000   1.0000
     1.0000   1.0000   1.0000   1.0000   1.0000   1.0000   1.0000   1.0000
     1.0000   1.0000   1.0000   1.0000   1.0000   1.0000   1.0000   1.0000
     1.0000   1.0000   0.0000   0.0000   0.0000   0.0000   0.0000   0.0000
     0.0000   0.0000   0.0000   0.0000   0.0000   0.0000   0.0000   0.0000
     0.0000   0.0000   0.0000   0.0000   0.0000   0.0000   0.0000   0.0000
     0.0000   0.0000   0.0000   0.0000   0.0000   0.0000   0.0000   0.0000
     0.0000   0.0000   0.0000   0.0000   0.0000   0.0000

          k = 0.3333 0.0000 0.0831 ( 13456 PWs)   bands (ev):

   -54.0321 -53.9528 -49.8236 -30.2573 -30.2049 -30.1816 -30.1109 -29.7698
   -29.6885 -27.9239 -21.7499 -21.7357 -21.7223 -16.9563 -16.9355 -14.2563
   -14.1757 -11.4592 -11.3805 -11.3677  -2.1068  -1.9065  -1.8199  -1.8107
    -1.6128  -1.5978  -0.7537  -0.6782  -0.1792   0.0170   0.5172   0.5735
     1.8559   2.1528   2.5704   2.6229   2.6560   2.8931   2.9622   3.0264
     3.1586   3.2186   5.4376   5.5161   6.2186   6.5533   7.2811   7.8587
     8.2697   8.9344   9.1001   9.8191   9.9733  10.3142  10.3357  11.3707
    11.6792  11.9950  12.0493  12.5337  13.0758  13.4082  13.5814  13.8911
    14.1121  14.3915  14.7850  14.9763  15.0314  15.2586

     occupation numbers 
     1.0000   1.0000   1.0000   1.0000   1.0000   1.0000   1.0000   1.0000
     1.0000   1.0000   1.0000   1.0000   1.0000   1.0000   1.0000   1.0000
     1.0000   1.0000   1.0000   1.0000   1.0000   1.0000   1.0000   1.0000
     1.0000   1.0000   1.0000   1.0000   1.0000   1.0000   1.0000   1.0000
     1.0000   1.0000   0.0000   0.0000   0.0000   0.0000   0.0000   0.0000
     0.0000   0.0000   0.0000   0.0000   0.0000   0.0000   0.0000   0.0000
     0.0000   0.0000   0.0000   0.0000   0.0000   0.0000   0.0000   0.0000
     0.0000   0.0000   0.0000   0.0000   0.0000   0.0000   0.0000   0.0000
     0.0000   0.0000   0.0000   0.0000   0.0000   0.0000

          k = 0.3333 0.0000 0.1662 ( 13462 PWs)   bands (ev):

   -54.0321 -53.9528 -49.8236 -30.2573 -30.2049 -30.1816 -30.1109 -29.7698
   -29.6885 -27.9239 -21.7499 -21.7357 -21.7223 -16.9576 -16.9341 -14.2563
   -14.1757 -11.4592 -11.3805 -11.3678  -2.0876  -1.9284  -1.8199  -1.8107
    -1.6110  -1.5985  -0.7577  -0.6845  -0.1341  -0.0175   0.5166   0.5741
     1.8966   2.0897   2.6211   2.6517   2.6593   2.8517   2.9594   3.0276
     3.0913   3.2480   5.5334   5.6431   5.9828   6.5936   7.3429   7.5447
     8.3505   9.0070   9.3939   9.8140   9.9626  10.1892  10.3353  11.3798
    11.7065  11.9017  12.1573  12.6381  12.9796  13.2307  13.3183  13.7474
    14.2583  14.5297  14.5789  14.9499  15.0964  15.2912

     occupation numbers 
     1.0000   1.0000   1.0000   1.0000   1.0000   1.0000   1.0000   1.0000
     1.0000   1.0000   1.0000   1.0000   1.0000   1.0000   1.0000   1.0000
     1.0000   1.0000   1.0000   1.0000   1.0000   1.0000   1.0000   1.0000
     1.0000   1.0000   1.0000   1.0000   1.0000   1.0000   1.0000   1.0000
     1.0000   1.0000   0.0000   0.0000   0.0000   0.0000   0.0000   0.0000
     0.0000   0.0000   0.0000   0.0000   0.0000   0.0000   0.0000   0.0000
     0.0000   0.0000   0.0000   0.0000   0.0000   0.0000   0.0000   0.0000
     0.0000   0.0000   0.0000   0.0000   0.0000   0.0000   0.0000   0.0000
     0.0000   0.0000   0.0000   0.0000   0.0000   0.0000

          k = 0.3333 0.0000-0.2494 ( 13484 PWs)   bands (ev):

   -54.0321 -53.9528 -49.8236 -30.2573 -30.2049 -30.1816 -30.1110 -29.7698
   -29.6885 -27.9239 -21.7500 -21.7357 -21.7224 -16.9582 -16.9335 -14.2563
   -14.1757 -11.4592 -11.3805 -11.3678  -2.0769  -1.9399  -1.8199  -1.8107
    -1.6108  -1.5983  -0.7550  -0.6935  -0.0902  -0.0555   0.5162   0.5745
     1.9355   2.0456   2.6205   2.6606   2.7064   2.7997   2.9582   3.0280
     3.0631   3.2732   5.5499   5.7155   5.9120   6.6336   7.2889   7.4650
     8.3561   8.9717   9.6507   9.8333   9.9577  10.1059  10.3357  11.3268
    11.6043  11.9103  12.2179  12.7475  12.9216  13.1911  13.3433  13.6193
    14.2639  14.4697  14.6227  14.9363  15.1977  15.3416

     occupation numbers 
     1.0000   1.0000   1.0000   1.0000   1.0000   1.0000   1.0000   1.0000
     1.0000   1.0000   1.0000   1.0000   1.0000   1.0000   1.0000   1.0000
     1.0000   1.0000   1.0000   1.0000   1.0000   1.0000   1.0000   1.0000
     1.0000   1.0000   1.0000   1.0000   1.0000   1.0000   1.0000   1.0000
     1.0000   1.0000   0.0000   0.0000   0.0000   0.0000   0.0000   0.0000
     0.0000   0.0000   0.0000   0.0000   0.0000   0.0000   0.0000   0.0000
     0.0000   0.0000   0.0000   0.0000   0.0000   0.0000   0.0000   0.0000
     0.0000   0.0000   0.0000   0.0000   0.0000   0.0000   0.0000   0.0000
     0.0000   0.0000   0.0000   0.0000   0.0000   0.0000

          k = 0.3333 0.2384 0.0000 ( 13453 PWs)   bands (ev):

   -54.0313 -53.9520 -49.8235 -30.2996 -30.2480 -30.1801 -30.1093 -29.7681
   -29.6866 -27.9205 -21.7497 -21.7351 -21.7251 -16.6953 -16.6773 -14.2538
   -14.1692 -11.4564 -11.4323 -11.3595  -2.9697  -2.8981  -1.9812  -1.9591
    -1.9422  -1.7844  -0.7852  -0.7228  -0.1701   0.0162   0.6393   0.6986
     1.9643   2.2108   2.5907   2.8812   3.0800   3.1039   3.2155   3.2565
     3.3462   3.3858   5.5536   5.6167   6.7082   6.9385   7.6637   8.2670
     8.3802   8.8201   9.2609   9.5391   9.8617  10.0647  10.4039  10.6936
    11.3718  11.7734  11.8817  12.1521  12.4492  12.6777  13.4299  13.6678
    14.0254  14.2281  14.6370  14.9069  15.0625  15.2768

     occupation numbers 
     1.0000   1.0000   1.0000   1.0000   1.0000   1.0000   1.0000   1.0000
     1.0000   1.0000   1.0000   1.0000   1.0000   1.0000   1.0000   1.0000
     1.0000   1.0000   1.0000   1.0000   1.0000   1.0000   1.0000   1.0000
     1.0000   1.0000   1.0000   1.0000   1.0000   1.0000   1.0000   1.0000
     1.0000   1.0000   0.0000   0.0000   0.0000   0.0000   0.0000   0.0000
     0.0000   0.0000   0.0000   0.0000   0.0000   0.0000   0.0000   0.0000
     0.0000   0.0000   0.0000   0.0000   0.0000   0.0000   0.0000   0.0000
     0.0000   0.0000   0.0000   0.0000   0.0000   0.0000   0.0000   0.0000
     0.0000   0.0000   0.0000   0.0000   0.0000   0.0000

          k = 0.3333 0.2384 0.0831 ( 13457 PWs)   bands (ev):

   -54.0313 -53.9520 -49.8235 -30.2996 -30.2480 -30.1801 -30.1093 -29.7681
   -29.6867 -27.9205 -21.7497 -21.7351 -21.7251 -16.6960 -16.6765 -14.2538
   -14.1692 -11.4564 -11.4323 -11.3595  -2.9667  -2.9006  -1.9794  -1.9594
    -1.9378  -1.7923  -0.7897  -0.7198  -0.1576   0.0068   0.6394   0.6979
     1.9761   2.1904   2.6192   2.8672   3.0952   3.1207   3.2028   3.2477
     3.2974   3.4041   5.6144   5.6693   6.4836   7.0150   7.7659   8.0077
     8.5291   8.9881   9.1997   9.6011   9.8296  10.0576  10.2821  10.7091
    11.3917  11.7921  11.9845  12.2241  12.3896  12.6370  13.3566  13.5223
    13.9305  14.2035  14.6494  14.8610  15.1214  15.5360

     occupation numbers 
     1.0000   1.0000   1.0000   1.0000   1.0000   1.0000   1.0000   1.0000
     1.0000   1.0000   1.0000   1.0000   1.0000   1.0000   1.0000   1.0000
     1.0000   1.0000   1.0000   1.0000   1.0000   1.0000   1.0000   1.0000
     1.0000   1.0000   1.0000   1.0000   1.0000   1.0000   1.0000   1.0000
     1.0000   1.0000   0.0000   0.0000   0.0000   0.0000   0.0000   0.0000
     0.0000   0.0000   0.0000   0.0000   0.0000   0.0000   0.0000   0.0000
     0.0000   0.0000   0.0000   0.0000   0.0000   0.0000   0.0000   0.0000
     0.0000   0.0000   0.0000   0.0000   0.0000   0.0000   0.0000   0.0000
     0.0000   0.0000   0.0000   0.0000   0.0000   0.0000

          k = 0.3333 0.2384 0.1662 ( 13443 PWs)   bands (ev):

   -54.0313 -53.9520 -49.8235 -30.2996 -30.2479 -30.1801 -30.1093 -29.7680
   -29.6866 -27.9205 -21.7496 -21.7350 -21.7251 -16.6974 -16.6751 -14.2538
   -14.1692 -11.4564 -11.4323 -11.3595  -2.9600  -2.9063  -1.9782  -1.9593
    -1.9252  -1.8098  -0.7925  -0.7224  -0.1209  -0.0222   0.6404   0.6964
     2.0083   2.1486   2.6803   2.8292   3.1091   3.1304   3.1726   3.2324
     3.2759   3.4115   5.7016   5.8030   6.2406   7.0247   7.7315   7.9325
     8.5534   9.0552   9.4276   9.6558   9.7100  10.0653  10.2388  10.6744
    11.4585  11.6920  11.9297  12.1192  12.5121  12.8579  13.2402  13.3762
    13.9057  14.1691  14.5453  14.7813  15.2073  15.4715

     occupation numbers 
     1.0000   1.0000   1.0000   1.0000   1.0000   1.0000   1.0000   1.0000
     1.0000   1.0000   1.0000   1.0000   1.0000   1.0000   1.0000   1.0000
     1.0000   1.0000   1.0000   1.0000   1.0000   1.0000   1.0000   1.0000
     1.0000   1.0000   1.0000   1.0000   1.0000   1.0000   1.0000   1.0000
     1.0000   1.0000   0.0000   0.0000   0.0000   0.0000   0.0000   0.0000
     0.0000   0.0000   0.0000   0.0000   0.0000   0.0000   0.0000   0.0000
     0.0000   0.0000   0.0000   0.0000   0.0000   0.0000   0.0000   0.0000
     0.0000   0.0000   0.0000   0.0000   0.0000   0.0000   0.0000   0.0000
     0.0000   0.0000   0.0000   0.0000   0.0000   0.0000

          k = 0.3333 0.2384-0.2494 ( 13434 PWs)   bands (ev):

   -54.0313 -53.9520 -49.8235 -30.2996 -30.2479 -30.1801 -30.1093 -29.7680
   -29.6866 -27.9205 -21.7496 -21.7350 -21.7251 -16.6980 -16.6745 -14.2538
   -14.1692 -11.4564 -11.4323 -11.3595  -2.9561  -2.9097  -1.9786  -1.9589
    -1.9164  -1.8201  -0.7911  -0.7277  -0.0781  -0.0606   0.6413   0.6955
     2.0335   2.1224   2.7241   2.7927   3.0912   3.1160   3.1868   3.2336
     3.2780   3.4117   5.7296   5.8641   6.1856   6.9992   7.6438   7.9827
     8.5003   9.1194   9.4210   9.7103   9.8238   9.9729  10.2946  10.6611
    11.4272  11.5688  11.8821  12.1757  12.4753  12.9340  13.2717  13.4418
    13.9676  14.1238  14.5139  14.6488  15.2121  15.3974

     occupation numbers 
     1.0000   1.0000   1.0000   1.0000   1.0000   1.0000   1.0000   1.0000
     1.0000   1.0000   1.0000   1.0000   1.0000   1.0000   1.0000   1.0000
     1.0000   1.0000   1.0000   1.0000   1.0000   1.0000   1.0000   1.0000
     1.0000   1.0000   1.0000   1.0000   1.0000   1.0000   1.0000   1.0000
     1.0000   1.0000   0.0000   0.0000   0.0000   0.0000   0.0000   0.0000
     0.0000   0.0000   0.0000   0.0000   0.0000   0.0000   0.0000   0.0000
     0.0000   0.0000   0.0000   0.0000   0.0000   0.0000   0.0000   0.0000
     0.0000   0.0000   0.0000   0.0000   0.0000   0.0000   0.0000   0.0000
     0.0000   0.0000   0.0000   0.0000   0.0000   0.0000

          k = 0.3333 0.4768 0.0000 ( 13437 PWs)   bands (ev):

   -54.0298 -53.9505 -49.8234 -30.3821 -30.3320 -30.1771 -30.1062 -29.7647
   -29.6831 -27.9137 -21.7490 -21.7339 -21.7308 -16.1284 -16.1125 -14.2513
   -14.1571 -11.4935 -11.4416 -11.3906  -4.2263  -4.2075  -2.7085  -2.5590
    -2.4739  -2.3853  -0.7643  -0.7032  -0.0957   0.0093   0.7512   0.8080
     2.3055   2.3537   2.7565   2.9563   3.4847   3.5428   3.8946   3.9831
     4.2033   4.2388   5.9060   5.9931   6.8362   7.1691   7.9985   8.2915
     8.5246   8.5812   9.2364   9.2967   9.7075  10.0759  10.1916  10.4781
    10.8821  11.2389  11.4142  11.9864  12.3025  12.6566  13.0316  13.2372
    13.3375  13.6760  14.2448  14.4329  14.7985  14.9132

     occupation numbers 
     1.0000   1.0000   1.0000   1.0000   1.0000   1.0000   1.0000   1.0000
     1.0000   1.0000   1.0000   1.0000   1.0000   1.0000   1.0000   1.0000
     1.0000   1.0000   1.0000   1.0000   1.0000   1.0000   1.0000   1.0000
     1.0000   1.0000   1.0000   1.0000   1.0000   1.0000   1.0000   1.0000
     1.0000   1.0000   0.0000   0.0000   0.0000   0.0000   0.0000   0.0000
     0.0000   0.0000   0.0000   0.0000   0.0000   0.0000   0.0000   0.0000
     0.0000   0.0000   0.0000   0.0000   0.0000   0.0000   0.0000   0.0000
     0.0000   0.0000   0.0000   0.0000   0.0000   0.0000   0.0000   0.0000
     0.0000   0.0000   0.0000   0.0000   0.0000   0.0000

          k = 0.3333 0.4768 0.0831 ( 13441 PWs)   bands (ev):

   -54.0298 -53.9505 -49.8234 -30.3822 -30.3320 -30.1771 -30.1062 -29.7647
   -29.6831 -27.9137 -21.7490 -21.7339 -21.7308 -16.1292 -16.1118 -14.2513
   -14.1571 -11.4935 -11.4417 -11.3906  -4.2258  -4.2079  -2.7019  -2.5618
    -2.4727  -2.3914  -0.7665  -0.7014  -0.0902   0.0048   0.7531   0.8062
     2.3049   2.3597   2.7661   2.9537   3.4525   3.5505   3.8967   3.9803
     4.2030   4.2408   5.9305   6.0551   6.7746   7.1106   7.9754   8.2340
     8.5191   8.8534   9.1285   9.2760   9.7059   9.9775  10.3258  10.4816
    10.7713  11.2716  11.4490  12.0835  12.2448  12.7446  12.9480  13.0653
    13.4357  13.7691  14.1054  14.3101  14.7114  15.0535

     occupation numbers 
     1.0000   1.0000   1.0000   1.0000   1.0000   1.0000   1.0000   1.0000
     1.0000   1.0000   1.0000   1.0000   1.0000   1.0000   1.0000   1.0000
     1.0000   1.0000   1.0000   1.0000   1.0000   1.0000   1.0000   1.0000
     1.0000   1.0000   1.0000   1.0000   1.0000   1.0000   1.0000   1.0000
     1.0000   1.0000   0.0000   0.0000   0.0000   0.0000   0.0000   0.0000
     0.0000   0.0000   0.0000   0.0000   0.0000   0.0000   0.0000   0.0000
     0.0000   0.0000   0.0000   0.0000   0.0000   0.0000   0.0000   0.0000
     0.0000   0.0000   0.0000   0.0000   0.0000   0.0000   0.0000   0.0000
     0.0000   0.0000   0.0000   0.0000   0.0000   0.0000

          k = 0.3333 0.4768 0.1662 ( 13433 PWs)   bands (ev):

   -54.0298 -53.9505 -49.8234 -30.3821 -30.3320 -30.1771 -30.1062 -29.7647
   -29.6831 -27.9137 -21.7490 -21.7339 -21.7307 -16.1305 -16.1105 -14.2513
   -14.1571 -11.4935 -11.4417 -11.3907  -4.2246  -4.2089  -2.6866  -2.5698
    -2.4703  -2.4035  -0.7683  -0.7011  -0.0751  -0.0078   0.7615   0.7987
     2.3000   2.3763   2.7948   2.9304   3.4084   3.5566   3.9069   3.9701
     4.2036   4.2398   5.9624   6.2050   6.5802   7.2008   7.8371   8.1090
     8.6297   8.9113   9.1372   9.3138   9.7564   9.9379  10.3145  10.5477
    10.7387  11.1826  11.6691  12.1032  12.1388  12.5602  12.8772  13.1484
    13.5011  13.8355  13.9678  14.4382  14.5933  14.9855

     occupation numbers 
     1.0000   1.0000   1.0000   1.0000   1.0000   1.0000   1.0000   1.0000
     1.0000   1.0000   1.0000   1.0000   1.0000   1.0000   1.0000   1.0000
     1.0000   1.0000   1.0000   1.0000   1.0000   1.0000   1.0000   1.0000
     1.0000   1.0000   1.0000   1.0000   1.0000   1.0000   1.0000   1.0000
     1.0000   1.0000   0.0000   0.0000   0.0000   0.0000   0.0000   0.0000
     0.0000   0.0000   0.0000   0.0000   0.0000   0.0000   0.0000   0.0000
     0.0000   0.0000   0.0000   0.0000   0.0000   0.0000   0.0000   0.0000
     0.0000   0.0000   0.0000   0.0000   0.0000   0.0000   0.0000   0.0000
     0.0000   0.0000   0.0000   0.0000   0.0000   0.0000

          k = 0.3333 0.4768-0.2494 ( 13426 PWs)   bands (ev):

   -54.0298 -53.9504 -49.8234 -30.3821 -30.3320 -30.1771 -30.1062 -29.7647
   -29.6831 -27.9137 -21.7490 -21.7339 -21.7308 -16.1311 -16.1098 -14.2512
   -14.1571 -11.4935 -11.4417 -11.3907  -4.2240  -4.2095  -2.6774  -2.5754
    -2.4690  -2.4095  -0.7680  -0.7025  -0.0632  -0.0182   0.7710   0.7899
     2.2966   2.3860   2.8226   2.9003   3.3952   3.5568   3.9182   3.9599
     4.2043   4.2371   5.9805   6.2774   6.4910   7.3221   7.7313   8.0348
     8.5668   8.8899   9.2366   9.3619   9.7812   9.9687  10.2474  10.6280
    10.7675  11.1342  11.7613  11.9613  12.1424  12.5407  12.7881  13.1866
    13.5079  13.8723  14.0135  14.4438  14.7005  14.8950

     occupation numbers 
     1.0000   1.0000   1.0000   1.0000   1.0000   1.0000   1.0000   1.0000
     1.0000   1.0000   1.0000   1.0000   1.0000   1.0000   1.0000   1.0000
     1.0000   1.0000   1.0000   1.0000   1.0000   1.0000   1.0000   1.0000
     1.0000   1.0000   1.0000   1.0000   1.0000   1.0000   1.0000   1.0000
     1.0000   1.0000   0.0000   0.0000   0.0000   0.0000   0.0000   0.0000
     0.0000   0.0000   0.0000   0.0000   0.0000   0.0000   0.0000   0.0000
     0.0000   0.0000   0.0000   0.0000   0.0000   0.0000   0.0000   0.0000
     0.0000   0.0000   0.0000   0.0000   0.0000   0.0000   0.0000   0.0000
     0.0000   0.0000   0.0000   0.0000   0.0000   0.0000

          k = 0.3333-0.7152 0.0000 ( 13448 PWs)   bands (ev):

   -54.0291 -53.9497 -49.8233 -30.4225 -30.3731 -30.1757 -30.1047 -29.7630
   -29.6813 -27.9103 -21.7487 -21.7338 -21.7332 -15.8149 -15.7995 -14.2520
   -14.1519 -11.5094 -11.4417 -11.4112  -4.8547  -4.8486  -3.0171  -2.8297
    -2.6822  -2.6160  -0.7467  -0.6846  -0.0530   0.0173   0.7479   0.8089
     2.4103   2.5208   2.8355   2.9854   3.6273   3.7779   4.2226   4.4278
     4.7411   4.7681   6.1898   6.4128   6.4920   7.2091   8.0433   8.1467
     8.3679   8.4713   8.7392   8.9640   9.8340   9.8933  10.1930  10.9556
    11.1042  11.3183  11.4493  11.8109  11.9885  12.3584  12.6713  13.1488
    13.5043  13.7119  13.8024  14.1810  14.3321  14.7544

     occupation numbers 
     1.0000   1.0000   1.0000   1.0000   1.0000   1.0000   1.0000   1.0000
     1.0000   1.0000   1.0000   1.0000   1.0000   1.0000   1.0000   1.0000
     1.0000   1.0000   1.0000   1.0000   1.0000   1.0000   1.0000   1.0000
     1.0000   1.0000   1.0000   1.0000   1.0000   1.0000   1.0000   1.0000
     1.0000   1.0000   0.0000   0.0000   0.0000   0.0000   0.0000   0.0000
     0.0000   0.0000   0.0000   0.0000   0.0000   0.0000   0.0000   0.0000
     0.0000   0.0000   0.0000   0.0000   0.0000   0.0000   0.0000   0.0000
     0.0000   0.0000   0.0000   0.0000   0.0000   0.0000   0.0000   0.0000
     0.0000   0.0000   0.0000   0.0000   0.0000   0.0000

          k = 0.3333-0.7152 0.0831 ( 13450 PWs)   bands (ev):

   -54.0291 -53.9497 -49.8233 -30.4225 -30.3731 -30.1757 -30.1047 -29.7630
   -29.6813 -27.9103 -21.7487 -21.7337 -21.7332 -15.8156 -15.7987 -14.2520
   -14.1520 -11.5094 -11.4417 -11.4112  -4.8547  -4.8486  -3.0099  -2.8345
    -2.6815  -2.6200  -0.7483  -0.6833  -0.0520   0.0165   0.7504   0.8072
     2.4181   2.5180   2.8400   2.9858   3.6029   3.7815   4.2294   4.4233
     4.7413   4.7683   6.2002   6.4436   6.5471   7.1191   7.9428   8.0412
     8.4327   8.5283   8.8567   9.0416   9.6364   9.9036  10.3769  10.8577
    11.0574  11.3448  11.3891  11.8668  11.9783  12.4588  12.7128  12.9928
    13.2796  13.7189  14.0066  14.3369  14.4133  14.7352

     occupation numbers 
     1.0000   1.0000   1.0000   1.0000   1.0000   1.0000   1.0000   1.0000
     1.0000   1.0000   1.0000   1.0000   1.0000   1.0000   1.0000   1.0000
     1.0000   1.0000   1.0000   1.0000   1.0000   1.0000   1.0000   1.0000
     1.0000   1.0000   1.0000   1.0000   1.0000   1.0000   1.0000   1.0000
     1.0000   1.0000   0.0000   0.0000   0.0000   0.0000   0.0000   0.0000
     0.0000   0.0000   0.0000   0.0000   0.0000   0.0000   0.0000   0.0000
     0.0000   0.0000   0.0000   0.0000   0.0000   0.0000   0.0000   0.0000
     0.0000   0.0000   0.0000   0.0000   0.0000   0.0000   0.0000   0.0000
     0.0000   0.0000   0.0000   0.0000   0.0000   0.0000

          k = 0.3333-0.7152 0.1662 ( 13446 PWs)   bands (ev):

   -54.0291 -53.9497 -49.8233 -30.4225 -30.3731 -30.1757 -30.1047 -29.7630
   -29.6813 -27.9103 -21.7487 -21.7337 -21.7332 -15.8169 -15.7975 -14.2520
   -14.1520 -11.5094 -11.4418 -11.4112  -4.8546  -4.8486  -2.9932  -2.8470
    -2.6801  -2.6275  -0.7497  -0.6825  -0.0496   0.0145   0.7593   0.8000
     2.4231   2.5270   2.8533   2.9713   3.5777   3.7754   4.2526   4.4027
     4.7414   4.7694   6.1972   6.4706   6.6924   7.0404   7.7016   8.0849
     8.3681   8.5220   9.0308   9.2547   9.3882  10.0209  10.4956  10.6792
    10.8294  11.4247  11.5385  11.9263  11.9774  12.5862  12.7436  12.9725
    13.0415  13.6498  13.9564  14.4723  14.4803  14.7467

     occupation numbers 
     1.0000   1.0000   1.0000   1.0000   1.0000   1.0000   1.0000   1.0000
     1.0000   1.0000   1.0000   1.0000   1.0000   1.0000   1.0000   1.0000
     1.0000   1.0000   1.0000   1.0000   1.0000   1.0000   1.0000   1.0000
     1.0000   1.0000   1.0000   1.0000   1.0000   1.0000   1.0000   1.0000
     1.0000   1.0000   0.0000   0.0000   0.0000   0.0000   0.0000   0.0000
     0.0000   0.0000   0.0000   0.0000   0.0000   0.0000   0.0000   0.0000
     0.0000   0.0000   0.0000   0.0000   0.0000   0.0000   0.0000   0.0000
     0.0000   0.0000   0.0000   0.0000   0.0000   0.0000   0.0000   0.0000
     0.0000   0.0000   0.0000   0.0000   0.0000   0.0000

          k = 0.3333-0.7152-0.2494 ( 13424 PWs)   bands (ev):

   -54.0290 -53.9497 -49.8233 -30.4225 -30.3731 -30.1757 -30.1047 -29.7630
   -29.6813 -27.9103 -21.7486 -21.7337 -21.7332 -15.8174 -15.7969 -14.2520
   -14.1520 -11.5094 -11.4418 -11.4112  -4.8546  -4.8486  -2.9828  -2.8553
    -2.6794  -2.6310  -0.7496  -0.6830  -0.0482   0.0134   0.7681   0.7921
     2.4207   2.5387   2.8655   2.9524   3.5769   3.7659   4.2731   4.3826
     4.7413   4.7702   6.1903   6.4602   6.7785   7.0514   7.6051   8.1421
     8.3090   8.4727   8.9659   9.3870   9.4409  10.0536  10.4209  10.5976
    10.8228  11.3860  11.7024  11.9637  11.9977  12.6244  12.7508  12.9240
    13.0407  13.6519  13.8159  14.4454  14.5035  14.6837

     occupation numbers 
     1.0000   1.0000   1.0000   1.0000   1.0000   1.0000   1.0000   1.0000
     1.0000   1.0000   1.0000   1.0000   1.0000   1.0000   1.0000   1.0000
     1.0000   1.0000   1.0000   1.0000   1.0000   1.0000   1.0000   1.0000
     1.0000   1.0000   1.0000   1.0000   1.0000   1.0000   1.0000   1.0000
     1.0000   1.0000   0.0000   0.0000   0.0000   0.0000   0.0000   0.0000
     0.0000   0.0000   0.0000   0.0000   0.0000   0.0000   0.0000   0.0000
     0.0000   0.0000   0.0000   0.0000   0.0000   0.0000   0.0000   0.0000
     0.0000   0.0000   0.0000   0.0000   0.0000   0.0000   0.0000   0.0000
     0.0000   0.0000   0.0000   0.0000   0.0000   0.0000

          k =-0.5000 0.0000 0.0000 ( 13458 PWs)   bands (ev):

   -54.0321 -53.9528 -49.8236 -30.2573 -30.2049 -30.1816 -30.1110 -29.7698
   -29.6884 -27.9238 -21.7499 -21.7356 -21.7224 -16.9554 -16.9361 -14.2563
   -14.1755 -11.4596 -11.3805 -11.3679  -2.1187  -1.8992  -1.8193  -1.8102
    -1.6222  -1.6044  -0.7399  -0.6884  -0.1902   0.0449   0.5139   0.5706
     1.9907   2.2222   2.5024   2.6232   2.6526   2.8558   2.9658   3.0265
     3.1219   3.2694   5.1369   5.5669   6.3692   6.6080   6.9927   7.9796
     8.3127   8.6900   9.0944   9.7736   9.9678  10.1402  10.3226  11.3538
    11.6841  12.0785  12.2790  13.4288  13.5432  13.8719  13.8849  14.0909
    14.1846  14.4928  14.5187  14.5766  14.7073  14.9743

     occupation numbers 
     1.0000   1.0000   1.0000   1.0000   1.0000   1.0000   1.0000   1.0000
     1.0000   1.0000   1.0000   1.0000   1.0000   1.0000   1.0000   1.0000
     1.0000   1.0000   1.0000   1.0000   1.0000   1.0000   1.0000   1.0000
     1.0000   1.0000   1.0000   1.0000   1.0000   1.0000   1.0000   1.0000
     1.0000   1.0000   0.0000   0.0000   0.0000   0.0000   0.0000   0.0000
     0.0000   0.0000   0.0000   0.0000   0.0000   0.0000   0.0000   0.0000
     0.0000   0.0000   0.0000   0.0000   0.0000   0.0000   0.0000   0.0000
     0.0000   0.0000   0.0000   0.0000   0.0000   0.0000   0.0000   0.0000
     0.0000   0.0000   0.0000   0.0000   0.0000   0.0000

          k =-0.5000 0.0000 0.0831 ( 13466 PWs)   bands (ev):

   -54.0321 -53.9528 -49.8236 -30.2573 -30.2049 -30.1816 -30.1110 -29.7698
   -29.6885 -27.9238 -21.7500 -21.7357 -21.7223 -16.9562 -16.9354 -14.2563
   -14.1755 -11.4596 -11.3805 -11.3679  -2.1107  -1.9087  -1.8193  -1.8102
    -1.6214  -1.6046  -0.7413  -0.6920  -0.1718   0.0315   0.5136   0.5708
     2.0000   2.2030   2.5354   2.6220   2.6545   2.8437   2.9643   3.0272
     3.1208   3.2462   5.1898   5.5861   6.2876   6.5555   7.0951   7.8926
     8.2336   8.8150   9.1819   9.7200   9.9627  10.1337  10.3219  11.3696
    11.7772  12.1283  12.2686  13.2842  13.4830  13.7098  13.7682  13.8838
    14.2816  14.4040  14.4664  14.7072  14.9297  15.0394

     occupation numbers 
     1.0000   1.0000   1.0000   1.0000   1.0000   1.0000   1.0000   1.0000
     1.0000   1.0000   1.0000   1.0000   1.0000   1.0000   1.0000   1.0000
     1.0000   1.0000   1.0000   1.0000   1.0000   1.0000   1.0000   1.0000
     1.0000   1.0000   1.0000   1.0000   1.0000   1.0000   1.0000   1.0000
     1.0000   1.0000   0.0000   0.0000   0.0000   0.0000   0.0000   0.0000
     0.0000   0.0000   0.0000   0.0000   0.0000   0.0000   0.0000   0.0000
     0.0000   0.0000   0.0000   0.0000   0.0000   0.0000   0.0000   0.0000
     0.0000   0.0000   0.0000   0.0000   0.0000   0.0000   0.0000   0.0000
     0.0000   0.0000   0.0000   0.0000   0.0000   0.0000

          k =-0.5000 0.0000 0.1662 ( 13426 PWs)   bands (ev):

   -54.0320 -53.9527 -49.8236 -30.2573 -30.2049 -30.1816 -30.1110 -29.7698
   -29.6884 -27.9238 -21.7499 -21.7356 -21.7223 -16.9575 -16.9340 -14.2563
   -14.1755 -11.4596 -11.3805 -11.3680  -2.0919  -1.9302  -1.8193  -1.8101
    -1.6195  -1.6052  -0.7441  -0.6988  -0.1251  -0.0058   0.5132   0.5713
     2.0230   2.1645   2.6119   2.6202   2.6580   2.8047   2.9615   3.0286
     3.1198   3.1997   5.3242   5.6044   6.1368   6.4830   7.2659   7.6611
     8.3072   8.7955   9.3873   9.7077   9.9527  10.0826  10.3206  11.4677
    11.9001  12.2327  12.2456  12.9808  13.2725  13.4272  13.6249  13.9260
    14.2706  14.4394  14.4575  14.6513  15.0696  15.2339

     occupation numbers 
     1.0000   1.0000   1.0000   1.0000   1.0000   1.0000   1.0000   1.0000
     1.0000   1.0000   1.0000   1.0000   1.0000   1.0000   1.0000   1.0000
     1.0000   1.0000   1.0000   1.0000   1.0000   1.0000   1.0000   1.0000
     1.0000   1.0000   1.0000   1.0000   1.0000   1.0000   1.0000   1.0000
     1.0000   1.0000   0.0000   0.0000   0.0000   0.0000   0.0000   0.0000
     0.0000   0.0000   0.0000   0.0000   0.0000   0.0000   0.0000   0.0000
     0.0000   0.0000   0.0000   0.0000   0.0000   0.0000   0.0000   0.0000
     0.0000   0.0000   0.0000   0.0000   0.0000   0.0000   0.0000   0.0000
     0.0000   0.0000   0.0000   0.0000   0.0000   0.0000

          k =-0.5000 0.0000-0.2494 ( 13432 PWs)   bands (ev):

   -54.0320 -53.9527 -49.8236 -30.2573 -30.2049 -30.1816 -30.1110 -29.7698
   -29.6884 -27.9238 -21.7499 -21.7356 -21.7223 -16.9581 -16.9334 -14.2563
   -14.1755 -11.4596 -11.3805 -11.3680  -2.0804  -1.9430  -1.8193  -1.8101
    -1.6184  -1.6057  -0.7455  -0.7020  -0.0797  -0.0467   0.5129   0.5716
     2.0392   2.1420   2.6193   2.6596   2.6725   2.7611   2.9600   3.0292
     3.1207   3.1758   5.4399   5.5653   6.0735   6.4461   7.4025   7.4915
     8.3967   8.7228   9.4181   9.8440   9.9478   9.9931  10.3200  11.5951
    11.8553  12.2107  12.3187  12.9293  13.0924  13.2915  13.6055  13.9715
    14.2394  14.4563  14.5248  14.5412  15.1033  15.3076

     occupation numbers 
     1.0000   1.0000   1.0000   1.0000   1.0000   1.0000   1.0000   1.0000
     1.0000   1.0000   1.0000   1.0000   1.0000   1.0000   1.0000   1.0000
     1.0000   1.0000   1.0000   1.0000   1.0000   1.0000   1.0000   1.0000
     1.0000   1.0000   1.0000   1.0000   1.0000   1.0000   1.0000   1.0000
     1.0000   1.0000   0.0000   0.0000   0.0000   0.0000   0.0000   0.0000
     0.0000   0.0000   0.0000   0.0000   0.0000   0.0000   0.0000   0.0000
     0.0000   0.0000   0.0000   0.0000   0.0000   0.0000   0.0000   0.0000
     0.0000   0.0000   0.0000   0.0000   0.0000   0.0000   0.0000   0.0000
     0.0000   0.0000   0.0000   0.0000   0.0000   0.0000

          k =-0.5000 0.2384 0.0000 ( 13442 PWs)   bands (ev):

   -54.0313 -53.9520 -49.8235 -30.2996 -30.2479 -30.1801 -30.1094 -29.7681
   -29.6867 -27.9204 -21.7496 -21.7350 -21.7251 -16.6952 -16.6772 -14.2537
   -14.1690 -11.4565 -11.4327 -11.3596  -2.9694  -2.8978  -1.9895  -1.9680
    -1.9439  -1.7853  -0.7818  -0.7266  -0.1674   0.0299   0.6422   0.6989
     2.0924   2.2500   2.5646   2.8415   3.0575   3.1113   3.2098   3.2558
     3.3542   3.3984   5.3074   5.7075   6.6914   7.0046   7.4139   8.3730
     8.3970   8.8344   9.2488   9.4038   9.8264  10.0033  10.3929  10.6690
    11.2970  11.6983  12.0361  12.3933  12.8109  12.9333  13.4113  13.8820
    14.1897  14.2814  14.5671  14.7136  15.2042  15.2868

     occupation numbers 
     1.0000   1.0000   1.0000   1.0000   1.0000   1.0000   1.0000   1.0000
     1.0000   1.0000   1.0000   1.0000   1.0000   1.0000   1.0000   1.0000
     1.0000   1.0000   1.0000   1.0000   1.0000   1.0000   1.0000   1.0000
     1.0000   1.0000   1.0000   1.0000   1.0000   1.0000   1.0000   1.0000
     1.0000   1.0000   0.0000   0.0000   0.0000   0.0000   0.0000   0.0000
     0.0000   0.0000   0.0000   0.0000   0.0000   0.0000   0.0000   0.0000
     0.0000   0.0000   0.0000   0.0000   0.0000   0.0000   0.0000   0.0000
     0.0000   0.0000   0.0000   0.0000   0.0000   0.0000   0.0000   0.0000
     0.0000   0.0000   0.0000   0.0000   0.0000   0.0000

          k =-0.5000 0.2384 0.0831 ( 13456 PWs)   bands (ev):

   -54.0313 -53.9520 -49.8235 -30.2996 -30.2480 -30.1801 -30.1094 -29.7681
   -29.6867 -27.9204 -21.7497 -21.7351 -21.7251 -16.6959 -16.6764 -14.2537
   -14.1690 -11.4565 -11.4327 -11.3596  -2.9665  -2.9002  -1.9890  -1.9680
    -1.9387  -1.7929  -0.7825  -0.7284  -0.1522   0.0184   0.6422   0.6984
     2.0990   2.2404   2.5876   2.8286   3.0636   3.1174   3.2053   3.2513
     3.3411   3.3879   5.3591   5.7251   6.5850   6.9788   7.5060   8.1646
     8.5416   8.9194   9.2208   9.4812   9.8157   9.9670  10.3350  10.6616
    11.3503  11.7000  12.0503  12.3723  12.7830  13.0306  13.4530  13.7519
    14.0324  14.3248  14.4076  14.7180  15.2211  15.4096

     occupation numbers 
     1.0000   1.0000   1.0000   1.0000   1.0000   1.0000   1.0000   1.0000
     1.0000   1.0000   1.0000   1.0000   1.0000   1.0000   1.0000   1.0000
     1.0000   1.0000   1.0000   1.0000   1.0000   1.0000   1.0000   1.0000
     1.0000   1.0000   1.0000   1.0000   1.0000   1.0000   1.0000   1.0000
     1.0000   1.0000   0.0000   0.0000   0.0000   0.0000   0.0000   0.0000
     0.0000   0.0000   0.0000   0.0000   0.0000   0.0000   0.0000   0.0000
     0.0000   0.0000   0.0000   0.0000   0.0000   0.0000   0.0000   0.0000
     0.0000   0.0000   0.0000   0.0000   0.0000   0.0000   0.0000   0.0000
     0.0000   0.0000   0.0000   0.0000   0.0000   0.0000

          k =-0.5000 0.2384 0.1662 ( 13462 PWs)   bands (ev):

   -54.0313 -53.9520 -49.8235 -30.2996 -30.2480 -30.1801 -30.1094 -29.7681
   -29.6867 -27.9204 -21.7497 -21.7351 -21.7251 -16.6973 -16.6751 -14.2537
   -14.1690 -11.4566 -11.4327 -11.3597  -2.9598  -2.9059  -1.9881  -1.9679
    -1.9258  -1.8103  -0.7840  -0.7320  -0.1128  -0.0139   0.6422   0.6974
     2.1148   2.2197   2.6435   2.7927   3.0826   3.1277   3.1895   3.2377
     3.3176   3.3704   5.4909   5.7380   6.4271   6.8841   7.6769   8.0124
     8.5953   8.9620   9.2998   9.6064   9.7774   9.9280  10.2063  10.6544
    11.4300  11.7021  12.0872  12.4023  12.6615  13.1880  13.4460  13.5975
    13.9847  14.1203  14.3616  14.7363  15.1905  15.3938

     occupation numbers 
     1.0000   1.0000   1.0000   1.0000   1.0000   1.0000   1.0000   1.0000
     1.0000   1.0000   1.0000   1.0000   1.0000   1.0000   1.0000   1.0000
     1.0000   1.0000   1.0000   1.0000   1.0000   1.0000   1.0000   1.0000
     1.0000   1.0000   1.0000   1.0000   1.0000   1.0000   1.0000   1.0000
     1.0000   1.0000   0.0000   0.0000   0.0000   0.0000   0.0000   0.0000
     0.0000   0.0000   0.0000   0.0000   0.0000   0.0000   0.0000   0.0000
     0.0000   0.0000   0.0000   0.0000   0.0000   0.0000   0.0000   0.0000
     0.0000   0.0000   0.0000   0.0000   0.0000   0.0000   0.0000   0.0000
     0.0000   0.0000   0.0000   0.0000   0.0000   0.0000

          k =-0.5000 0.2384-0.2494 ( 13456 PWs)   bands (ev):

   -54.0313 -53.9520 -49.8235 -30.2996 -30.2480 -30.1801 -30.1094 -29.7681
   -29.6867 -27.9204 -21.7497 -21.7351 -21.7251 -16.6979 -16.6744 -14.2537
   -14.1690 -11.4566 -11.4327 -11.3597  -2.9558  -2.9094  -1.9878  -1.9679
    -1.9175  -1.8208  -0.7847  -0.7337  -0.0702  -0.0532   0.6422   0.6970
     2.1251   2.2075   2.6887   2.7577   3.1047   3.1230   3.1765   3.2292
     3.3091   3.3625   5.6127   5.6888   6.3676   6.8233   7.7663   7.9537
     8.6154   8.9309   9.3997   9.5903   9.8167   9.9419  10.1082  10.6520
    11.4516  11.7000  12.1789  12.4172  12.5182  13.2648  13.3588  13.7187
    13.9377  13.9892  14.3350  14.7708  15.1893  15.3030

     occupation numbers 
     1.0000   1.0000   1.0000   1.0000   1.0000   1.0000   1.0000   1.0000
     1.0000   1.0000   1.0000   1.0000   1.0000   1.0000   1.0000   1.0000
     1.0000   1.0000   1.0000   1.0000   1.0000   1.0000   1.0000   1.0000
     1.0000   1.0000   1.0000   1.0000   1.0000   1.0000   1.0000   1.0000
     1.0000   1.0000   0.0000   0.0000   0.0000   0.0000   0.0000   0.0000
     0.0000   0.0000   0.0000   0.0000   0.0000   0.0000   0.0000   0.0000
     0.0000   0.0000   0.0000   0.0000   0.0000   0.0000   0.0000   0.0000
     0.0000   0.0000   0.0000   0.0000   0.0000   0.0000   0.0000   0.0000
     0.0000   0.0000   0.0000   0.0000   0.0000   0.0000

          k =-0.5000 0.4768 0.0000 ( 13424 PWs)   bands (ev):

   -54.0298 -53.9504 -49.8234 -30.3821 -30.3320 -30.1772 -30.1063 -29.7647
   -29.6831 -27.9137 -21.7490 -21.7339 -21.7307 -16.1283 -16.1125 -14.2510
   -14.1569 -11.4937 -11.4419 -11.3911  -4.2261  -4.2073  -2.7088  -2.5645
    -2.4809  -2.3878  -0.7648  -0.7053  -0.0939   0.0186   0.7619   0.8120
     2.3640   2.4212   2.7264   2.9194   3.4899   3.5672   3.9026   3.9841
     4.2010   4.2377   5.6988   6.0799   6.8386   7.3110   7.8986   8.1851
     8.5460   8.6202   9.1214   9.2153   9.5605   9.8658  10.1994  10.4907
    10.7160  11.2747  11.8209  12.1286  12.3608  12.6340  12.8677  13.1912
    13.4990  14.2410  14.3642  14.5715  14.8550  14.9755

     occupation numbers 
     1.0000   1.0000   1.0000   1.0000   1.0000   1.0000   1.0000   1.0000
     1.0000   1.0000   1.0000   1.0000   1.0000   1.0000   1.0000   1.0000
     1.0000   1.0000   1.0000   1.0000   1.0000   1.0000   1.0000   1.0000
     1.0000   1.0000   1.0000   1.0000   1.0000   1.0000   1.0000   1.0000
     1.0000   1.0000   0.0000   0.0000   0.0000   0.0000   0.0000   0.0000
     0.0000   0.0000   0.0000   0.0000   0.0000   0.0000   0.0000   0.0000
     0.0000   0.0000   0.0000   0.0000   0.0000   0.0000   0.0000   0.0000
     0.0000   0.0000   0.0000   0.0000   0.0000   0.0000   0.0000   0.0000
     0.0000   0.0000   0.0000   0.0000   0.0000   0.0000

          k =-0.5000 0.4768 0.0831 ( 13444 PWs)   bands (ev):

   -54.0298 -53.9505 -49.8234 -30.3821 -30.3320 -30.1772 -30.1063 -29.7647
   -29.6831 -27.9137 -21.7490 -21.7339 -21.7308 -16.1291 -16.1117 -14.2510
   -14.1569 -11.4937 -11.4420 -11.3911  -4.2255  -4.2078  -2.7022  -2.5675
    -2.4799  -2.3938  -0.7653  -0.7056  -0.0871   0.0131   0.7648   0.8091
     2.3635   2.4274   2.7372   2.9104   3.4854   3.5537   3.9059   3.9797
     4.2016   4.2372   5.7457   6.0908   6.7890   7.2842   7.9464   8.1158
     8.4740   8.7402   9.1459   9.2066   9.5615   9.8429  10.2282  10.5111
    10.6947  11.3164  11.7373  12.1925  12.2745  12.6588  12.9745  13.0861
    13.6674  14.1151  14.2233  14.5721  14.6902  14.9122

     occupation numbers 
     1.0000   1.0000   1.0000   1.0000   1.0000   1.0000   1.0000   1.0000
     1.0000   1.0000   1.0000   1.0000   1.0000   1.0000   1.0000   1.0000
     1.0000   1.0000   1.0000   1.0000   1.0000   1.0000   1.0000   1.0000
     1.0000   1.0000   1.0000   1.0000   1.0000   1.0000   1.0000   1.0000
     1.0000   1.0000   0.0000   0.0000   0.0000   0.0000   0.0000   0.0000
     0.0000   0.0000   0.0000   0.0000   0.0000   0.0000   0.0000   0.0000
     0.0000   0.0000   0.0000   0.0000   0.0000   0.0000   0.0000   0.0000
     0.0000   0.0000   0.0000   0.0000   0.0000   0.0000   0.0000   0.0000
     0.0000   0.0000   0.0000   0.0000   0.0000   0.0000

          k =-0.5000 0.4768 0.1662 ( 13458 PWs)   bands (ev):

   -54.0298 -53.9505 -49.8234 -30.3821 -30.3320 -30.1772 -30.1063 -29.7647
   -29.6831 -27.9137 -21.7491 -21.7339 -21.7308 -16.1304 -16.1104 -14.2510
   -14.1569 -11.4937 -11.4420 -11.3911  -4.2244  -4.2087  -2.6873  -2.5747
    -2.4773  -2.4063  -0.7662  -0.7061  -0.0706  -0.0008   0.7724   0.8020
     2.3631   2.4392   2.7663   2.8849   3.4743   3.5293   3.9144   3.9693
     4.2025   4.2362   5.8599   6.1029   6.6718   7.2685   7.9313   8.0403
     8.5066   8.8388   9.1382   9.1931   9.6003   9.8445  10.1896  10.5445
    10.7556  11.2902  11.6661  12.1705  12.4023  12.5327  12.9417  13.3443
    13.5883  13.8975  14.2428  14.4337  14.5865  14.9513

     occupation numbers 
     1.0000   1.0000   1.0000   1.0000   1.0000   1.0000   1.0000   1.0000
     1.0000   1.0000   1.0000   1.0000   1.0000   1.0000   1.0000   1.0000
     1.0000   1.0000   1.0000   1.0000   1.0000   1.0000   1.0000   1.0000
     1.0000   1.0000   1.0000   1.0000   1.0000   1.0000   1.0000   1.0000
     1.0000   1.0000   0.0000   0.0000   0.0000   0.0000   0.0000   0.0000
     0.0000   0.0000   0.0000   0.0000   0.0000   0.0000   0.0000   0.0000
     0.0000   0.0000   0.0000   0.0000   0.0000   0.0000   0.0000   0.0000
     0.0000   0.0000   0.0000   0.0000   0.0000   0.0000   0.0000   0.0000
     0.0000   0.0000   0.0000   0.0000   0.0000   0.0000

          k =-0.5000 0.4768-0.2494 ( 13472 PWs)   bands (ev):

   -54.0299 -53.9505 -49.8234 -30.3822 -30.3320 -30.1772 -30.1063 -29.7647
   -29.6831 -27.9137 -21.7491 -21.7340 -21.7308 -16.1310 -16.1098 -14.2510
   -14.1569 -11.4937 -11.4420 -11.3912  -4.2238  -4.2093  -2.6787  -2.5795
    -2.4757  -2.4130  -0.7667  -0.7064  -0.0591  -0.0111   0.7781   0.7965
     2.3632   2.4448   2.7901   2.8629   3.4674   3.5188   3.9202   3.9625
     4.2029   4.2357   5.9419   6.0913   6.6050   7.2719   7.8839   8.0224
     8.5671   8.8695   9.1048   9.1798   9.6456   9.8704  10.1214  10.5732
    10.8162  11.2338  11.6422  12.2077  12.3651  12.7126  12.7522  13.4056
    13.5834  13.8297  14.2655  14.3811  14.5053  15.0412

     occupation numbers 
     1.0000   1.0000   1.0000   1.0000   1.0000   1.0000   1.0000   1.0000
     1.0000   1.0000   1.0000   1.0000   1.0000   1.0000   1.0000   1.0000
     1.0000   1.0000   1.0000   1.0000   1.0000   1.0000   1.0000   1.0000
     1.0000   1.0000   1.0000   1.0000   1.0000   1.0000   1.0000   1.0000
     1.0000   1.0000   0.0000   0.0000   0.0000   0.0000   0.0000   0.0000
     0.0000   0.0000   0.0000   0.0000   0.0000   0.0000   0.0000   0.0000
     0.0000   0.0000   0.0000   0.0000   0.0000   0.0000   0.0000   0.0000
     0.0000   0.0000   0.0000   0.0000   0.0000   0.0000   0.0000   0.0000
     0.0000   0.0000   0.0000   0.0000   0.0000   0.0000

          k =-0.5000-0.7152 0.0000 ( 13448 PWs)   bands (ev):

   -54.0291 -53.9497 -49.8233 -30.4225 -30.3731 -30.1757 -30.1047 -29.7630
   -29.6813 -27.9103 -21.7487 -21.7338 -21.7332 -15.8148 -15.7994 -14.2517
   -14.1517 -11.5097 -11.4416 -11.4121  -4.8546  -4.8485  -3.0170  -2.8337
    -2.6887  -2.6194  -0.7481  -0.6863  -0.0509   0.0248   0.7590   0.8150
     2.4351   2.5955   2.8054   2.9507   3.6484   3.7997   4.2438   4.4347
     4.7336   4.7592   6.0346   6.5383   6.5402   7.5190   7.8858   8.0254
     8.3257   8.3496   8.4578   8.8166   9.7176   9.9173  10.0996  10.9677
    10.9857  11.3052  11.7832  11.8930  12.2217  12.4178  12.7592  12.8393
    13.3154  13.4849  13.9255  14.6173  14.7762  15.2917

     occupation numbers 
     1.0000   1.0000   1.0000   1.0000   1.0000   1.0000   1.0000   1.0000
     1.0000   1.0000   1.0000   1.0000   1.0000   1.0000   1.0000   1.0000
     1.0000   1.0000   1.0000   1.0000   1.0000   1.0000   1.0000   1.0000
     1.0000   1.0000   1.0000   1.0000   1.0000   1.0000   1.0000   1.0000
     1.0000   1.0000   0.0000   0.0000   0.0000   0.0000   0.0000   0.0000
     0.0000   0.0000   0.0000   0.0000   0.0000   0.0000   0.0000   0.0000
     0.0000   0.0000   0.0000   0.0000   0.0000   0.0000   0.0000   0.0000
     0.0000   0.0000   0.0000   0.0000   0.0000   0.0000   0.0000   0.0000
     0.0000   0.0000   0.0000   0.0000   0.0000   0.0000

          k =-0.5000-0.7152 0.0831 ( 13456 PWs)   bands (ev):

   -54.0291 -53.9498 -49.8233 -30.4225 -30.3731 -30.1757 -30.1047 -29.7630
   -29.6813 -27.9103 -21.7487 -21.7337 -21.7333 -15.8155 -15.7987 -14.2516
   -14.1518 -11.5097 -11.4417 -11.4121  -4.8546  -4.8485  -3.0097  -2.8386
    -2.6881  -2.6233  -0.7486  -0.6862  -0.0495   0.0236   0.7624   0.8124
     2.4435   2.5931   2.8108   2.9444   3.6427   3.7903   4.2535   4.4265
     4.7336   4.7598   6.0616   6.5539   6.5618   7.4718   7.8714   7.9318
     8.2398   8.2554   8.6434   8.9872   9.7423   9.7805  10.1997  10.8933
    11.0445  11.3235  11.6650  11.8135  12.1771  12.4732  12.8481  12.9091
    13.2676  13.5919  14.0043  14.5590  14.6717  15.1271

     occupation numbers 
     1.0000   1.0000   1.0000   1.0000   1.0000   1.0000   1.0000   1.0000
     1.0000   1.0000   1.0000   1.0000   1.0000   1.0000   1.0000   1.0000
     1.0000   1.0000   1.0000   1.0000   1.0000   1.0000   1.0000   1.0000
     1.0000   1.0000   1.0000   1.0000   1.0000   1.0000   1.0000   1.0000
     1.0000   1.0000   0.0000   0.0000   0.0000   0.0000   0.0000   0.0000
     0.0000   0.0000   0.0000   0.0000   0.0000   0.0000   0.0000   0.0000
     0.0000   0.0000   0.0000   0.0000   0.0000   0.0000   0.0000   0.0000
     0.0000   0.0000   0.0000   0.0000   0.0000   0.0000   0.0000   0.0000
     0.0000   0.0000   0.0000   0.0000   0.0000   0.0000

          k =-0.5000-0.7152 0.1662 ( 13444 PWs)   bands (ev):

   -54.0291 -53.9497 -49.8233 -30.4225 -30.3731 -30.1757 -30.1047 -29.7630
   -29.6813 -27.9103 -21.7487 -21.7338 -21.7332 -15.8168 -15.7974 -14.2516
   -14.1518 -11.5097 -11.4417 -11.4121  -4.8546  -4.8485  -2.9932  -2.8505
    -2.6866  -2.6312  -0.7495  -0.6861  -0.0465   0.0211   0.7707   0.8058
     2.4616   2.5869   2.8248   2.9282   3.6310   3.7723   4.2765   4.4066
     4.7336   4.7609   6.1153   6.5894   6.6140   7.3711   7.7380   7.8643
     8.1680   8.1870   8.9146   9.2136   9.5617   9.8416  10.3167  10.7056
    11.1575  11.3567  11.4491  11.7567  12.1103  12.3829  12.9879  13.1740
    13.2954  13.7875  13.9925  14.4411  14.5024  14.9750

     occupation numbers 
     1.0000   1.0000   1.0000   1.0000   1.0000   1.0000   1.0000   1.0000
     1.0000   1.0000   1.0000   1.0000   1.0000   1.0000   1.0000   1.0000
     1.0000   1.0000   1.0000   1.0000   1.0000   1.0000   1.0000   1.0000
     1.0000   1.0000   1.0000   1.0000   1.0000   1.0000   1.0000   1.0000
     1.0000   1.0000   0.0000   0.0000   0.0000   0.0000   0.0000   0.0000
     0.0000   0.0000   0.0000   0.0000   0.0000   0.0000   0.0000   0.0000
     0.0000   0.0000   0.0000   0.0000   0.0000   0.0000   0.0000   0.0000
     0.0000   0.0000   0.0000   0.0000   0.0000   0.0000   0.0000   0.0000
     0.0000   0.0000   0.0000   0.0000   0.0000   0.0000

          k =-0.5000-0.7152-0.2494 ( 13424 PWs)   bands (ev):

   -54.0290 -53.9497 -49.8233 -30.4225 -30.3731 -30.1757 -30.1047 -29.7630
   -29.6813 -27.9103 -21.7487 -21.7337 -21.7332 -15.8174 -15.7968 -14.2516
   -14.1518 -11.5097 -11.4417 -11.4121  -4.8546  -4.8485  -2.9835  -2.8578
    -2.6857  -2.6352  -0.7499  -0.6860  -0.0449   0.0198   0.7765   0.8009
     2.4716   2.5828   2.8347   2.9171   3.6250   3.7638   4.2912   4.3935
     4.7335   4.7615   6.1420   6.6101   6.6466   7.3186   7.6429   7.8675
     8.1448   8.1624   9.0959   9.2935   9.4034   9.9442  10.3688  10.5705
    11.1724  11.3721  11.4214  11.7084  12.0839  12.3218  13.0108  13.3203
    13.4750  13.7845  13.8891  14.4250  14.4394  14.9465

     occupation numbers 
     1.0000   1.0000   1.0000   1.0000   1.0000   1.0000   1.0000   1.0000
     1.0000   1.0000   1.0000   1.0000   1.0000   1.0000   1.0000   1.0000
     1.0000   1.0000   1.0000   1.0000   1.0000   1.0000   1.0000   1.0000
     1.0000   1.0000   1.0000   1.0000   1.0000   1.0000   1.0000   1.0000
     1.0000   1.0000   0.0000   0.0000   0.0000   0.0000   0.0000   0.0000
     0.0000   0.0000   0.0000   0.0000   0.0000   0.0000   0.0000   0.0000
     0.0000   0.0000   0.0000   0.0000   0.0000   0.0000   0.0000   0.0000
     0.0000   0.0000   0.0000   0.0000   0.0000   0.0000   0.0000   0.0000
     0.0000   0.0000   0.0000   0.0000   0.0000   0.0000

          k = 0.0000-0.2384 0.0831 ( 13418 PWs)   bands (ev):

   -54.0312 -53.9519 -49.8235 -30.2996 -30.2479 -30.1800 -30.1093 -29.7680
   -29.6866 -27.9205 -21.7496 -21.7350 -21.7250 -16.6963 -16.6768 -14.2539
   -14.1697 -11.4560 -11.4313 -11.3589  -2.9677  -2.9015  -1.9519  -1.9359
    -1.9308  -1.7902  -0.8014  -0.7043  -0.1628  -0.0342   0.6286   0.6960
     1.6647   2.0787   2.6908   2.9308   3.0854   3.1656   3.2000   3.2425
     3.3397   3.4196   5.2397   6.3455   6.7910   7.1364   7.9710   8.2256
     8.4311   8.8396   9.3663   9.6468   9.7902  10.0033  10.2758  10.6517
    11.0637  11.4029  11.8078  12.0008  12.3881  12.8318  13.1650  13.6542
    13.9296  14.1255  14.2768  14.5672  14.9214  15.1117

     occupation numbers 
     1.0000   1.0000   1.0000   1.0000   1.0000   1.0000   1.0000   1.0000
     1.0000   1.0000   1.0000   1.0000   1.0000   1.0000   1.0000   1.0000
     1.0000   1.0000   1.0000   1.0000   1.0000   1.0000   1.0000   1.0000
     1.0000   1.0000   1.0000   1.0000   1.0000   1.0000   1.0000   1.0000
     1.0000   1.0000   0.0000   0.0000   0.0000   0.0000   0.0000   0.0000
     0.0000   0.0000   0.0000   0.0000   0.0000   0.0000   0.0000   0.0000
     0.0000   0.0000   0.0000   0.0000   0.0000   0.0000   0.0000   0.0000
     0.0000   0.0000   0.0000   0.0000   0.0000   0.0000   0.0000   0.0000
     0.0000   0.0000   0.0000   0.0000   0.0000   0.0000

          k = 0.0000-0.2384 0.1662 ( 13417 PWs)   bands (ev):

   -54.0312 -53.9519 -49.8235 -30.2996 -30.2479 -30.1800 -30.1092 -29.7680
   -29.6866 -27.9205 -21.7496 -21.7350 -21.7251 -16.6976 -16.6754 -14.2539
   -14.1697 -11.4560 -11.4313 -11.3589  -2.9610  -2.9072  -1.9486  -1.9320
    -1.9235  -1.8082  -0.7916  -0.7224  -0.1317  -0.0569   0.6347   0.6923
     1.7348   1.9847   2.7581   2.8976   3.0972   3.1634   3.1958   3.2303
     3.3261   3.3860   5.4628   6.1094   6.8342   7.1357   8.0300   8.1201
     8.3253   8.8919   9.4920   9.6330   9.7864  10.0536  10.3615  10.6014
    11.0962  11.4364  11.7192  12.0679  12.4701  12.6500  13.2338  13.2851
    13.7889  14.2234  14.3148  14.6646  14.9239  15.1719

     occupation numbers 
     1.0000   1.0000   1.0000   1.0000   1.0000   1.0000   1.0000   1.0000
     1.0000   1.0000   1.0000   1.0000   1.0000   1.0000   1.0000   1.0000
     1.0000   1.0000   1.0000   1.0000   1.0000   1.0000   1.0000   1.0000
     1.0000   1.0000   1.0000   1.0000   1.0000   1.0000   1.0000   1.0000
     1.0000   1.0000   0.0000   0.0000   0.0000   0.0000   0.0000   0.0000
     0.0000   0.0000   0.0000   0.0000   0.0000   0.0000   0.0000   0.0000
     0.0000   0.0000   0.0000   0.0000   0.0000   0.0000   0.0000   0.0000
     0.0000   0.0000   0.0000   0.0000   0.0000   0.0000   0.0000   0.0000
     0.0000   0.0000   0.0000   0.0000   0.0000   0.0000

          k = 0.0000-0.4768 0.0831 ( 13463 PWs)   bands (ev):

   -54.0298 -53.9505 -49.8234 -30.3822 -30.3320 -30.1771 -30.1062 -29.7647
   -29.6831 -27.9137 -21.7490 -21.7339 -21.7308 -16.1294 -16.1120 -14.2520
   -14.1577 -11.4931 -11.4408 -11.3892  -4.2264  -4.2085  -2.7007  -2.5476
    -2.4511  -2.3815  -0.7683  -0.6917  -0.0947  -0.0229   0.7212   0.7914
     2.0884   2.2698   2.8356   3.0009   3.4531   3.5491   3.8798   3.9774
     4.2096   4.2441   5.6468   6.4581   6.7309   7.1536   8.2251   8.3657
     8.8066   9.1654   9.3189   9.5062   9.7796  10.0579  10.1563  10.6677
    10.8284  11.0202  11.2823  11.7903  12.2197  12.4440  12.5904  12.8825
    13.1093  13.8590  13.9001  14.0549  14.5946  14.8945

     occupation numbers 
     1.0000   1.0000   1.0000   1.0000   1.0000   1.0000   1.0000   1.0000
     1.0000   1.0000   1.0000   1.0000   1.0000   1.0000   1.0000   1.0000
     1.0000   1.0000   1.0000   1.0000   1.0000   1.0000   1.0000   1.0000
     1.0000   1.0000   1.0000   1.0000   1.0000   1.0000   1.0000   1.0000
     1.0000   1.0000   0.0000   0.0000   0.0000   0.0000   0.0000   0.0000
     0.0000   0.0000   0.0000   0.0000   0.0000   0.0000   0.0000   0.0000
     0.0000   0.0000   0.0000   0.0000   0.0000   0.0000   0.0000   0.0000
     0.0000   0.0000   0.0000   0.0000   0.0000   0.0000   0.0000   0.0000
     0.0000   0.0000   0.0000   0.0000   0.0000   0.0000

          k = 0.0000-0.4768 0.1662 ( 13450 PWs)   bands (ev):

   -54.0298 -53.9505 -49.8234 -30.3822 -30.3320 -30.1771 -30.1062 -29.7647
   -29.6831 -27.9137 -21.7490 -21.7339 -21.7308 -16.1307 -16.1107 -14.2520
   -14.1577 -11.4931 -11.4408 -11.3892  -4.2252  -4.2095  -2.6842  -2.5581
    -2.4490  -2.3920  -0.7635  -0.6990  -0.0827  -0.0326   0.7365   0.7790
     2.1127   2.2553   2.8666   2.9809   3.4453   3.4986   3.8965   3.9625
     4.2094   4.2416   5.7800   6.3745   6.8280   7.0513   8.1804   8.4166
     8.7749   9.0606   9.2717   9.5805   9.7535  10.0910  10.3388  10.5999
    10.7829  10.9237  11.4620  11.8263  12.1343  12.4054  12.7140  12.9007
    13.1914  13.6934  13.8642  14.0878  14.3738  14.8750

     occupation numbers 
     1.0000   1.0000   1.0000   1.0000   1.0000   1.0000   1.0000   1.0000
     1.0000   1.0000   1.0000   1.0000   1.0000   1.0000   1.0000   1.0000
     1.0000   1.0000   1.0000   1.0000   1.0000   1.0000   1.0000   1.0000
     1.0000   1.0000   1.0000   1.0000   1.0000   1.0000   1.0000   1.0000
     1.0000   1.0000   0.0000   0.0000   0.0000   0.0000   0.0000   0.0000
     0.0000   0.0000   0.0000   0.0000   0.0000   0.0000   0.0000   0.0000
     0.0000   0.0000   0.0000   0.0000   0.0000   0.0000   0.0000   0.0000
     0.0000   0.0000   0.0000   0.0000   0.0000   0.0000   0.0000   0.0000
     0.0000   0.0000   0.0000   0.0000   0.0000   0.0000

          k =-0.1667 0.0000 0.0831 ( 13424 PWs)   bands (ev):

   -54.0320 -53.9527 -49.8236 -30.2573 -30.2049 -30.1815 -30.1109 -29.7698
   -29.6884 -27.9239 -21.7499 -21.7356 -21.7223 -16.9565 -16.9357 -14.2562
   -14.1761 -11.4584 -11.3806 -11.3674  -2.1020  -1.8975  -1.8211  -1.8119
    -1.5982  -1.5828  -0.7539  -0.6774  -0.1881  -0.0136   0.5239   0.5794
     1.6166   2.0684   2.6255   2.6259   2.6580   2.9281   2.9584   3.0239
     3.1780   3.2856   5.2142   5.9036   6.3901   6.6261   7.5332   7.8940
     8.1834   8.7766   9.7022   9.8124   9.9977  10.3182  10.3652  10.6803
    11.3353  11.9007  12.0617  12.5641  12.6623  13.1128  13.2848  13.4731
    14.0209  14.4359  14.4459  14.8997  15.2380  15.3032

     occupation numbers 
     1.0000   1.0000   1.0000   1.0000   1.0000   1.0000   1.0000   1.0000
     1.0000   1.0000   1.0000   1.0000   1.0000   1.0000   1.0000   1.0000
     1.0000   1.0000   1.0000   1.0000   1.0000   1.0000   1.0000   1.0000
     1.0000   1.0000   1.0000   1.0000   1.0000   1.0000   1.0000   1.0000
     1.0000   1.0000   0.0000   0.0000   0.0000   0.0000   0.0000   0.0000
     0.0000   0.0000   0.0000   0.0000   0.0000   0.0000   0.0000   0.0000
     0.0000   0.0000   0.0000   0.0000   0.0000   0.0000   0.0000   0.0000
     0.0000   0.0000   0.0000   0.0000   0.0000   0.0000   0.0000   0.0000
     0.0000   0.0000   0.0000   0.0000   0.0000   0.0000

          k =-0.1667 0.0000 0.1662 ( 13445 PWs)   bands (ev):

   -54.0320 -53.9527 -49.8236 -30.2573 -30.2049 -30.1815 -30.1109 -29.7698
   -29.6884 -27.9239 -21.7499 -21.7356 -21.7223 -16.9578 -16.9343 -14.2562
   -14.1761 -11.4584 -11.3806 -11.3674  -2.0829  -1.9190  -1.8211  -1.8119
    -1.5969  -1.5832  -0.7436  -0.7003  -0.1465  -0.0432   0.5231   0.5801
     1.6928   1.9570   2.6241   2.6612   2.7134   2.8927   2.9558   3.0249
     3.1131   3.3052   5.3998   5.8711   6.2022   6.7223   7.4742   7.6806
     8.1883   9.0776   9.7004   9.8768   9.9861  10.3580  10.3659  10.7991
    11.1079  11.9926  12.0651  12.4560  12.5870  12.9590  13.0956  13.6274
    13.9122  14.4027  14.6773  15.0812  15.2146  15.3776

     occupation numbers 
     1.0000   1.0000   1.0000   1.0000   1.0000   1.0000   1.0000   1.0000
     1.0000   1.0000   1.0000   1.0000   1.0000   1.0000   1.0000   1.0000
     1.0000   1.0000   1.0000   1.0000   1.0000   1.0000   1.0000   1.0000
     1.0000   1.0000   1.0000   1.0000   1.0000   1.0000   1.0000   1.0000
     1.0000   1.0000   0.0000   0.0000   0.0000   0.0000   0.0000   0.0000
     0.0000   0.0000   0.0000   0.0000   0.0000   0.0000   0.0000   0.0000
     0.0000   0.0000   0.0000   0.0000   0.0000   0.0000   0.0000   0.0000
     0.0000   0.0000   0.0000   0.0000   0.0000   0.0000   0.0000   0.0000
     0.0000   0.0000   0.0000   0.0000   0.0000   0.0000

          k =-0.1667 0.2384 0.0000 ( 13423 PWs)   bands (ev):

   -54.0312 -53.9519 -49.8235 -30.2996 -30.2479 -30.1800 -30.1093 -29.7680
   -29.6866 -27.9205 -21.7496 -21.7350 -21.7251 -16.6954 -16.6775 -14.2539
   -14.1696 -11.4561 -11.4316 -11.3591  -2.9703  -2.8987  -1.9639  -1.9416
    -1.9386  -1.7829  -0.7977  -0.7067  -0.1742  -0.0118   0.6312   0.6980
     1.7404   2.1464   2.6387   2.9273   3.0844   3.1324   3.2185   3.2511
     3.3414   3.4099   5.3009   6.1359   6.8347   6.9662   7.9307   8.1565
     8.3889   8.7738   9.5328   9.6532   9.8750   9.9996  10.2791  10.7147
    11.0574  11.4980  11.7147  12.1227  12.4040  12.8756  13.1684  13.4349
    14.0356  14.1540  14.4385  14.7019  15.0206  15.2511

     occupation numbers 
     1.0000   1.0000   1.0000   1.0000   1.0000   1.0000   1.0000   1.0000
     1.0000   1.0000   1.0000   1.0000   1.0000   1.0000   1.0000   1.0000
     1.0000   1.0000   1.0000   1.0000   1.0000   1.0000   1.0000   1.0000
     1.0000   1.0000   1.0000   1.0000   1.0000   1.0000   1.0000   1.0000
     1.0000   1.0000   0.0000   0.0000   0.0000   0.0000   0.0000   0.0000
     0.0000   0.0000   0.0000   0.0000   0.0000   0.0000   0.0000   0.0000
     0.0000   0.0000   0.0000   0.0000   0.0000   0.0000   0.0000   0.0000
     0.0000   0.0000   0.0000   0.0000   0.0000   0.0000   0.0000   0.0000
     0.0000   0.0000   0.0000   0.0000   0.0000   0.0000

          k =-0.1667-0.2384 0.0831 ( 13422 PWs)   bands (ev):

   -54.0312 -53.9519 -49.8235 -30.2996 -30.2479 -30.1800 -30.1093 -29.7680
   -29.6866 -27.9205 -21.7496 -21.7350 -21.7251 -16.6962 -16.6767 -14.2539
   -14.1696 -11.4561 -11.4316 -11.3591  -2.9675  -2.9011  -1.9635  -1.9407
    -1.9340  -1.7904  -0.7893  -0.7206  -0.1588  -0.0220   0.6338   0.6966
     1.7637   2.1156   2.6673   2.9158   3.0879   3.1210   3.2144   3.2469
     3.3453   3.3883   5.3937   6.1765   6.5855   7.0910   7.8955   8.1976
     8.2862   8.8487   9.6462   9.6880   9.7989  10.0556  10.2354  10.7623
    11.0124  11.4512  11.6362  12.1689  12.4155  12.9402  13.2835  13.3924
    13.8008  14.1027  14.3996  14.7631  14.9738  15.3430

     occupation numbers 
     1.0000   1.0000   1.0000   1.0000   1.0000   1.0000   1.0000   1.0000
     1.0000   1.0000   1.0000   1.0000   1.0000   1.0000   1.0000   1.0000
     1.0000   1.0000   1.0000   1.0000   1.0000   1.0000   1.0000   1.0000
     1.0000   1.0000   1.0000   1.0000   1.0000   1.0000   1.0000   1.0000
     1.0000   1.0000   0.0000   0.0000   0.0000   0.0000   0.0000   0.0000
     0.0000   0.0000   0.0000   0.0000   0.0000   0.0000   0.0000   0.0000
     0.0000   0.0000   0.0000   0.0000   0.0000   0.0000   0.0000   0.0000
     0.0000   0.0000   0.0000   0.0000   0.0000   0.0000   0.0000   0.0000
     0.0000   0.0000   0.0000   0.0000   0.0000   0.0000

          k =-0.1667 0.2384-0.0831 ( 13422 PWs)   bands (ev):

   -54.0312 -53.9519 -49.8235 -30.2996 -30.2479 -30.1800 -30.1093 -29.7680
   -29.6866 -27.9205 -21.7496 -21.7350 -21.7251 -16.6962 -16.6767 -14.2539
   -14.1696 -11.4561 -11.4316 -11.3591  -2.9673  -2.9013  -1.9607  -1.9415
    -1.9359  -1.7909  -0.8020  -0.7043  -0.1631  -0.0195   0.6325   0.6967
     1.7601   2.1118   2.6673   2.9141   3.0891   3.1424   3.2158   3.2457
     3.2956   3.4395   5.3522   6.0945   6.7850   7.0665   7.8269   8.0138
     8.4492   8.9844   9.4780   9.6304   9.8396  10.0668  10.3235  10.6564
    11.1628  11.4753  11.6395  12.0781  12.5121  12.7088  13.2792  13.3788
    13.9558  14.0891  14.4509  14.8182  14.8807  15.1481

     occupation numbers 
     1.0000   1.0000   1.0000   1.0000   1.0000   1.0000   1.0000   1.0000
     1.0000   1.0000   1.0000   1.0000   1.0000   1.0000   1.0000   1.0000
     1.0000   1.0000   1.0000   1.0000   1.0000   1.0000   1.0000   1.0000
     1.0000   1.0000   1.0000   1.0000   1.0000   1.0000   1.0000   1.0000
     1.0000   1.0000   0.0000   0.0000   0.0000   0.0000   0.0000   0.0000
     0.0000   0.0000   0.0000   0.0000   0.0000   0.0000   0.0000   0.0000
     0.0000   0.0000   0.0000   0.0000   0.0000   0.0000   0.0000   0.0000
     0.0000   0.0000   0.0000   0.0000   0.0000   0.0000   0.0000   0.0000
     0.0000   0.0000   0.0000   0.0000   0.0000   0.0000

          k = 0.1667-0.2384-0.0831 ( 13422 PWs)   bands (ev):

   -54.0312 -53.9519 -49.8235 -30.2996 -30.2479 -30.1800 -30.1093 -29.7680
   -29.6866 -27.9205 -21.7496 -21.7350 -21.7251 -16.6962 -16.6767 -14.2539
   -14.1696 -11.4561 -11.4316 -11.3591  -2.9675  -2.9011  -1.9634  -1.9407
    -1.9340  -1.7905  -0.7893  -0.7206  -0.1588  -0.0220   0.6337   0.6966
     1.7638   2.1155   2.6675   2.9158   3.0880   3.1207   3.2144   3.2469
     3.3459   3.3882   5.3936   6.1765   6.5854   7.0911   7.8955   8.1972
     8.2866   8.8487   9.6466   9.6879   9.7989  10.0557  10.2353  10.7624
    11.0124  11.4509  11.6363  12.1690  12.4152  12.9400  13.2844  13.3922
    13.8005  14.1028  14.3993  14.7633  14.9737  15.3432

     occupation numbers 
     1.0000   1.0000   1.0000   1.0000   1.0000   1.0000   1.0000   1.0000
     1.0000   1.0000   1.0000   1.0000   1.0000   1.0000   1.0000   1.0000
     1.0000   1.0000   1.0000   1.0000   1.0000   1.0000   1.0000   1.0000
     1.0000   1.0000   1.0000   1.0000   1.0000   1.0000   1.0000   1.0000
     1.0000   1.0000   0.0000   0.0000   0.0000   0.0000   0.0000   0.0000
     0.0000   0.0000   0.0000   0.0000   0.0000   0.0000   0.0000   0.0000
     0.0000   0.0000   0.0000   0.0000   0.0000   0.0000   0.0000   0.0000
     0.0000   0.0000   0.0000   0.0000   0.0000   0.0000   0.0000   0.0000
     0.0000   0.0000   0.0000   0.0000   0.0000   0.0000

          k =-0.1667-0.2384 0.1662 ( 13425 PWs)   bands (ev):

   -54.0312 -53.9519 -49.8235 -30.2996 -30.2479 -30.1800 -30.1093 -29.7680
   -29.6866 -27.9205 -21.7496 -21.7350 -21.7251 -16.6976 -16.6753 -14.2539
   -14.1696 -11.4562 -11.4316 -11.3591  -2.9607  -2.9068  -1.9609  -1.9405
    -1.9225  -1.8082  -0.7844  -0.7324  -0.1242  -0.0482   0.6378   0.6937
     1.8223   2.0379   2.7326   2.8798   3.0964   3.1163   3.2026   3.2374
     3.3029   3.4066   5.5785   6.1694   6.3650   7.1904   7.7906   8.0952
     8.2586   9.0906   9.6101   9.7219   9.8500  10.1098  10.2217  10.7469
    11.0982  11.3131  11.5572  12.2020  12.5303  12.8020  13.1464  13.4924
    13.7115  14.1140  14.3441  14.7500  14.9468  15.3659

     occupation numbers 
     1.0000   1.0000   1.0000   1.0000   1.0000   1.0000   1.0000   1.0000
     1.0000   1.0000   1.0000   1.0000   1.0000   1.0000   1.0000   1.0000
     1.0000   1.0000   1.0000   1.0000   1.0000   1.0000   1.0000   1.0000
     1.0000   1.0000   1.0000   1.0000   1.0000   1.0000   1.0000   1.0000
     1.0000   1.0000   0.0000   0.0000   0.0000   0.0000   0.0000   0.0000
     0.0000   0.0000   0.0000   0.0000   0.0000   0.0000   0.0000   0.0000
     0.0000   0.0000   0.0000   0.0000   0.0000   0.0000   0.0000   0.0000
     0.0000   0.0000   0.0000   0.0000   0.0000   0.0000   0.0000   0.0000
     0.0000   0.0000   0.0000   0.0000   0.0000   0.0000

          k =-0.1667 0.2384-0.1662 ( 13425 PWs)   bands (ev):

   -54.0312 -53.9519 -49.8235 -30.2996 -30.2479 -30.1800 -30.1093 -29.7680
   -29.6866 -27.9205 -21.7496 -21.7350 -21.7251 -16.6976 -16.6753 -14.2539
   -14.1696 -11.4562 -11.4316 -11.3591  -2.9606  -2.9070  -1.9584  -1.9411
    -1.9243  -1.8086  -0.7996  -0.7139  -0.1304  -0.0438   0.6365   0.6939
     1.8184   2.0344   2.7325   2.8795   3.0941   3.1460   3.2033   3.2267
     3.2762   3.4374   5.5433   6.0081   6.6120   7.2344   7.6231   8.0183
     8.3956   9.2509   9.4503   9.6243   9.8451  10.1331  10.3138  10.7008
    11.1731  11.3545  11.6232  12.0413  12.4568  12.7438  13.2447  13.5120
    13.8624  14.0633  14.2374  14.6070  15.0309  15.2030

     occupation numbers 
     1.0000   1.0000   1.0000   1.0000   1.0000   1.0000   1.0000   1.0000
     1.0000   1.0000   1.0000   1.0000   1.0000   1.0000   1.0000   1.0000
     1.0000   1.0000   1.0000   1.0000   1.0000   1.0000   1.0000   1.0000
     1.0000   1.0000   1.0000   1.0000   1.0000   1.0000   1.0000   1.0000
     1.0000   1.0000   0.0000   0.0000   0.0000   0.0000   0.0000   0.0000
     0.0000   0.0000   0.0000   0.0000   0.0000   0.0000   0.0000   0.0000
     0.0000   0.0000   0.0000   0.0000   0.0000   0.0000   0.0000   0.0000
     0.0000   0.0000   0.0000   0.0000   0.0000   0.0000   0.0000   0.0000
     0.0000   0.0000   0.0000   0.0000   0.0000   0.0000

          k = 0.1667-0.2384-0.1662 ( 13425 PWs)   bands (ev):

   -54.0312 -53.9519 -49.8235 -30.2996 -30.2479 -30.1800 -30.1093 -29.7680
   -29.6866 -27.9205 -21.7496 -21.7350 -21.7251 -16.6976 -16.6753 -14.2539
   -14.1696 -11.4562 -11.4316 -11.3591  -2.9608  -2.9068  -1.9608  -1.9405
    -1.9225  -1.8082  -0.7844  -0.7324  -0.1242  -0.0483   0.6377   0.6937
     1.8225   2.0378   2.7328   2.8798   3.0962   3.1162   3.2025   3.2374
     3.3036   3.4064   5.5785   6.1693   6.3649   7.1906   7.7904   8.0949
     8.2588   9.0906   9.6101   9.7221   9.8502  10.1099  10.2217  10.7471
    11.0979  11.3131  11.5572  12.2021  12.5300  12.8021  13.1463  13.4929
    13.7114  14.1141  14.3435  14.7503  14.9464  15.3638

     occupation numbers 
     1.0000   1.0000   1.0000   1.0000   1.0000   1.0000   1.0000   1.0000
     1.0000   1.0000   1.0000   1.0000   1.0000   1.0000   1.0000   1.0000
     1.0000   1.0000   1.0000   1.0000   1.0000   1.0000   1.0000   1.0000
     1.0000   1.0000   1.0000   1.0000   1.0000   1.0000   1.0000   1.0000
     1.0000   1.0000   0.0000   0.0000   0.0000   0.0000   0.0000   0.0000
     0.0000   0.0000   0.0000   0.0000   0.0000   0.0000   0.0000   0.0000
     0.0000   0.0000   0.0000   0.0000   0.0000   0.0000   0.0000   0.0000
     0.0000   0.0000   0.0000   0.0000   0.0000   0.0000   0.0000   0.0000
     0.0000   0.0000   0.0000   0.0000   0.0000   0.0000

          k =-0.1667 0.2384 0.2494 ( 13438 PWs)   bands (ev):

   -54.0313 -53.9520 -49.8235 -30.2996 -30.2479 -30.1800 -30.1093 -29.7680
   -29.6866 -27.9205 -21.7496 -21.7350 -21.7251 -16.6982 -16.6747 -14.2539
   -14.1696 -11.4562 -11.4316 -11.3591  -2.9567  -2.9104  -1.9589  -1.9408
    -1.9152  -1.8192  -0.7911  -0.7275  -0.0937  -0.0756   0.6392   0.6922
     1.8746   1.9735   2.7842   2.8421   3.0953   3.1329   3.1926   3.2275
     3.2815   3.4218   5.7360   5.9393   6.4489   7.2650   7.6366   8.0413
     8.3078   9.2855   9.4995   9.6529   9.9261  10.1255  10.2536  10.7844
    11.1367  11.2023  11.6309  12.1467  12.4331  12.7310  13.1758  13.6019
    13.7390  14.0976  14.2226  14.6363  14.9920  15.3454

     occupation numbers 
     1.0000   1.0000   1.0000   1.0000   1.0000   1.0000   1.0000   1.0000
     1.0000   1.0000   1.0000   1.0000   1.0000   1.0000   1.0000   1.0000
     1.0000   1.0000   1.0000   1.0000   1.0000   1.0000   1.0000   1.0000
     1.0000   1.0000   1.0000   1.0000   1.0000   1.0000   1.0000   1.0000
     1.0000   1.0000   0.0000   0.0000   0.0000   0.0000   0.0000   0.0000
     0.0000   0.0000   0.0000   0.0000   0.0000   0.0000   0.0000   0.0000
     0.0000   0.0000   0.0000   0.0000   0.0000   0.0000   0.0000   0.0000
     0.0000   0.0000   0.0000   0.0000   0.0000   0.0000   0.0000   0.0000
     0.0000   0.0000   0.0000   0.0000   0.0000   0.0000

          k =-0.1667 0.4768 0.0000 ( 13456 PWs)   bands (ev):

   -54.0298 -53.9505 -49.8234 -30.3822 -30.3320 -30.1771 -30.1062 -29.7647
   -29.6831 -27.9137 -21.7490 -21.7339 -21.7308 -16.1286 -16.1127 -14.2518
   -14.1575 -11.4932 -11.4411 -11.3897  -4.2267  -4.2079  -2.7080  -2.5484
    -2.4594  -2.3796  -0.7674  -0.6944  -0.0987  -0.0096   0.7279   0.8000
     2.1502   2.2972   2.8043   2.9963   3.4642   3.5533   3.8803   3.9825
     4.2075   4.2429   5.7177   6.3373   6.7418   7.1667   8.1456   8.3730
     8.6376   8.6685   9.4461   9.5025   9.8633  10.1913  10.3962  10.5686
    10.7623  10.9676  11.3317  11.7288  11.9306  12.6421  12.7868  13.1585
    13.3252  13.6904  13.9641  14.3390  14.4880  14.6547

     occupation numbers 
     1.0000   1.0000   1.0000   1.0000   1.0000   1.0000   1.0000   1.0000
     1.0000   1.0000   1.0000   1.0000   1.0000   1.0000   1.0000   1.0000
     1.0000   1.0000   1.0000   1.0000   1.0000   1.0000   1.0000   1.0000
     1.0000   1.0000   1.0000   1.0000   1.0000   1.0000   1.0000   1.0000
     1.0000   1.0000   0.0000   0.0000   0.0000   0.0000   0.0000   0.0000
     0.0000   0.0000   0.0000   0.0000   0.0000   0.0000   0.0000   0.0000
     0.0000   0.0000   0.0000   0.0000   0.0000   0.0000   0.0000   0.0000
     0.0000   0.0000   0.0000   0.0000   0.0000   0.0000   0.0000   0.0000
     0.0000   0.0000   0.0000   0.0000   0.0000   0.0000

          k =-0.1667-0.4768 0.0831 ( 13456 PWs)   bands (ev):

   -54.0298 -53.9505 -49.8234 -30.3822 -30.3320 -30.1771 -30.1062 -29.7647
   -29.6831 -27.9137 -21.7490 -21.7339 -21.7308 -16.1293 -16.1120 -14.2518
   -14.1575 -11.4932 -11.4411 -11.3897  -4.2262  -4.2083  -2.7007  -2.5526
    -2.4587  -2.3847  -0.7633  -0.7002  -0.0923  -0.0145   0.7348   0.7945
     2.1569   2.2963   2.8209   2.9838   3.4712   3.5177   3.8882   3.9755
     4.2078   4.2394   5.7728   6.4003   6.6301   7.2503   8.0528   8.2507
     8.5322   8.8630   9.4277   9.5981   9.9146  10.1793  10.3617  10.6028
    10.6806  10.9493  11.3979  11.6409  12.0859  12.7138  12.8568  12.9554
    13.1969  13.7535  13.8804  14.2686  14.5603  14.7829

     occupation numbers 
     1.0000   1.0000   1.0000   1.0000   1.0000   1.0000   1.0000   1.0000
     1.0000   1.0000   1.0000   1.0000   1.0000   1.0000   1.0000   1.0000
     1.0000   1.0000   1.0000   1.0000   1.0000   1.0000   1.0000   1.0000
     1.0000   1.0000   1.0000   1.0000   1.0000   1.0000   1.0000   1.0000
     1.0000   1.0000   0.0000   0.0000   0.0000   0.0000   0.0000   0.0000
     0.0000   0.0000   0.0000   0.0000   0.0000   0.0000   0.0000   0.0000
     0.0000   0.0000   0.0000   0.0000   0.0000   0.0000   0.0000   0.0000
     0.0000   0.0000   0.0000   0.0000   0.0000   0.0000   0.0000   0.0000
     0.0000   0.0000   0.0000   0.0000   0.0000   0.0000

          k =-0.1667 0.4768-0.0831 ( 13456 PWs)   bands (ev):

   -54.0298 -53.9505 -49.8234 -30.3822 -30.3320 -30.1771 -30.1062 -29.7647
   -29.6831 -27.9137 -21.7490 -21.7339 -21.7308 -16.1293 -16.1120 -14.2518
   -14.1575 -11.4932 -11.4411 -11.3897  -4.2262  -4.2083  -2.7012  -2.5519
    -2.4584  -2.3852  -0.7701  -0.6922  -0.0941  -0.0132   0.7311   0.7974
     2.1573   2.2949   2.8121   2.9938   3.4224   3.5733   3.8847   3.9792
     4.2075   4.2444   5.7512   6.3130   6.8625   7.0247   8.1580   8.3461
     8.5392   8.9039   9.2390   9.5329   9.8979  10.1672  10.4424  10.5330
    10.8674  11.0533  11.2484  11.6819  11.9750  12.4700  12.8035  13.2212
    13.4447  13.6239  14.0459  14.2093  14.5762  14.7816

     occupation numbers 
     1.0000   1.0000   1.0000   1.0000   1.0000   1.0000   1.0000   1.0000
     1.0000   1.0000   1.0000   1.0000   1.0000   1.0000   1.0000   1.0000
     1.0000   1.0000   1.0000   1.0000   1.0000   1.0000   1.0000   1.0000
     1.0000   1.0000   1.0000   1.0000   1.0000   1.0000   1.0000   1.0000
     1.0000   1.0000   0.0000   0.0000   0.0000   0.0000   0.0000   0.0000
     0.0000   0.0000   0.0000   0.0000   0.0000   0.0000   0.0000   0.0000
     0.0000   0.0000   0.0000   0.0000   0.0000   0.0000   0.0000   0.0000
     0.0000   0.0000   0.0000   0.0000   0.0000   0.0000   0.0000   0.0000
     0.0000   0.0000   0.0000   0.0000   0.0000   0.0000

          k = 0.1667-0.4768-0.0831 ( 13456 PWs)   bands (ev):

   -54.0298 -53.9505 -49.8234 -30.3822 -30.3320 -30.1771 -30.1062 -29.7647
   -29.6831 -27.9137 -21.7490 -21.7339 -21.7308 -16.1293 -16.1120 -14.2518
   -14.1575 -11.4932 -11.4411 -11.3897  -4.2262  -4.2083  -2.7007  -2.5526
    -2.4587  -2.3847  -0.7633  -0.7002  -0.0923  -0.0145   0.7348   0.7945
     2.1569   2.2963   2.8210   2.9838   3.4711   3.5177   3.8882   3.9756
     4.2078   4.2394   5.7728   6.4005   6.6298   7.2506   8.0530   8.2502
     8.5322   8.8632   9.4281   9.5978   9.9145  10.1794  10.3621  10.6028
    10.6803  10.9495  11.3978  11.6410  12.0858  12.7137  12.8564  12.9560
    13.1969  13.7534  13.8805  14.2687  14.5604  14.7830

     occupation numbers 
     1.0000   1.0000   1.0000   1.0000   1.0000   1.0000   1.0000   1.0000
     1.0000   1.0000   1.0000   1.0000   1.0000   1.0000   1.0000   1.0000
     1.0000   1.0000   1.0000   1.0000   1.0000   1.0000   1.0000   1.0000
     1.0000   1.0000   1.0000   1.0000   1.0000   1.0000   1.0000   1.0000
     1.0000   1.0000   0.0000   0.0000   0.0000   0.0000   0.0000   0.0000
     0.0000   0.0000   0.0000   0.0000   0.0000   0.0000   0.0000   0.0000
     0.0000   0.0000   0.0000   0.0000   0.0000   0.0000   0.0000   0.0000
     0.0000   0.0000   0.0000   0.0000   0.0000   0.0000   0.0000   0.0000
     0.0000   0.0000   0.0000   0.0000   0.0000   0.0000

          k =-0.1667-0.4768 0.1662 ( 13436 PWs)   bands (ev):

   -54.0298 -53.9505 -49.8234 -30.3822 -30.3320 -30.1771 -30.1062 -29.7647
   -29.6831 -27.9137 -21.7489 -21.7339 -21.7308 -16.1307 -16.1106 -14.2518
   -14.1575 -11.4933 -11.4411 -11.3897  -4.2250  -4.2093  -2.6845  -2.5623
    -2.4566  -2.3957  -0.7619  -0.7036  -0.0788  -0.0256   0.7489   0.7825
     2.1717   2.2924   2.8541   2.9597   3.4163   3.5226   3.9054   3.9604
     4.2077   4.2381   5.8695   6.4678   6.5492   7.2428   7.9467   8.1792
     8.5185   8.9955   9.3687   9.6342   9.8918  10.2176  10.4655  10.5869
    10.6123  10.9882  11.4280  11.6174  12.2369  12.4980  12.7233  13.0562
    13.3032  13.5992  14.0070  14.1304  14.6573  14.8870

     occupation numbers 
     1.0000   1.0000   1.0000   1.0000   1.0000   1.0000   1.0000   1.0000
     1.0000   1.0000   1.0000   1.0000   1.0000   1.0000   1.0000   1.0000
     1.0000   1.0000   1.0000   1.0000   1.0000   1.0000   1.0000   1.0000
     1.0000   1.0000   1.0000   1.0000   1.0000   1.0000   1.0000   1.0000
     1.0000   1.0000   0.0000   0.0000   0.0000   0.0000   0.0000   0.0000
     0.0000   0.0000   0.0000   0.0000   0.0000   0.0000   0.0000   0.0000
     0.0000   0.0000   0.0000   0.0000   0.0000   0.0000   0.0000   0.0000
     0.0000   0.0000   0.0000   0.0000   0.0000   0.0000   0.0000   0.0000
     0.0000   0.0000   0.0000   0.0000   0.0000   0.0000

          k =-0.1667 0.4768-0.1662 ( 13436 PWs)   bands (ev):

   -54.0298 -53.9505 -49.8234 -30.3822 -30.3320 -30.1771 -30.1062 -29.7647
   -29.6831 -27.9137 -21.7490 -21.7338 -21.7308 -16.1307 -16.1106 -14.2518
   -14.1575 -11.4933 -11.4411 -11.3897  -4.2250  -4.2093  -2.6851  -2.5614
    -2.4561  -2.3963  -0.7691  -0.6951  -0.0812  -0.0237   0.7432   0.7873
     2.1725   2.2904   2.8407   2.9751   3.3828   3.5625   3.8983   3.9673
     4.2076   4.2424   5.8536   6.3155   6.8296   7.0331   8.0058   8.2663
     8.6311   8.9385   9.2385   9.5294   9.9569  10.1837  10.4561  10.5077
    10.9053  11.1202  11.1893  11.6260  12.1144  12.3872  12.8500  13.0956
    13.3994  13.5881  14.0726  14.2541  14.6323  14.9341

     occupation numbers 
     1.0000   1.0000   1.0000   1.0000   1.0000   1.0000   1.0000   1.0000
     1.0000   1.0000   1.0000   1.0000   1.0000   1.0000   1.0000   1.0000
     1.0000   1.0000   1.0000   1.0000   1.0000   1.0000   1.0000   1.0000
     1.0000   1.0000   1.0000   1.0000   1.0000   1.0000   1.0000   1.0000
     1.0000   1.0000   0.0000   0.0000   0.0000   0.0000   0.0000   0.0000
     0.0000   0.0000   0.0000   0.0000   0.0000   0.0000   0.0000   0.0000
     0.0000   0.0000   0.0000   0.0000   0.0000   0.0000   0.0000   0.0000
     0.0000   0.0000   0.0000   0.0000   0.0000   0.0000   0.0000   0.0000
     0.0000   0.0000   0.0000   0.0000   0.0000   0.0000

          k = 0.1667-0.4768-0.1662 ( 13436 PWs)   bands (ev):

   -54.0298 -53.9505 -49.8234 -30.3822 -30.3320 -30.1771 -30.1062 -29.7647
   -29.6831 -27.9137 -21.7489 -21.7339 -21.7308 -16.1307 -16.1106 -14.2518
   -14.1575 -11.4933 -11.4411 -11.3897  -4.2250  -4.2093  -2.6845  -2.5623
    -2.4566  -2.3957  -0.7619  -0.7035  -0.0788  -0.0256   0.7489   0.7825
     2.1717   2.2924   2.8542   2.9598   3.4161   3.5227   3.9053   3.9604
     4.2077   4.2381   5.8695   6.4677   6.5492   7.2432   7.9465   8.1789
     8.5185   8.9957   9.3687   9.6342   9.8922  10.2176  10.4654  10.5866
    10.6123  10.9884  11.4279  11.6177  12.2368  12.4981  12.7234  13.0558
    13.3032  13.5993  14.0069  14.1306  14.6575  14.8873

     occupation numbers 
     1.0000   1.0000   1.0000   1.0000   1.0000   1.0000   1.0000   1.0000
     1.0000   1.0000   1.0000   1.0000   1.0000   1.0000   1.0000   1.0000
     1.0000   1.0000   1.0000   1.0000   1.0000   1.0000   1.0000   1.0000
     1.0000   1.0000   1.0000   1.0000   1.0000   1.0000   1.0000   1.0000
     1.0000   1.0000   0.0000   0.0000   0.0000   0.0000   0.0000   0.0000
     0.0000   0.0000   0.0000   0.0000   0.0000   0.0000   0.0000   0.0000
     0.0000   0.0000   0.0000   0.0000   0.0000   0.0000   0.0000   0.0000
     0.0000   0.0000   0.0000   0.0000   0.0000   0.0000   0.0000   0.0000
     0.0000   0.0000   0.0000   0.0000   0.0000   0.0000

          k =-0.1667 0.4768 0.2494 ( 13436 PWs)   bands (ev):

   -54.0298 -53.9505 -49.8234 -30.3822 -30.3320 -30.1771 -30.1062 -29.7647
   -29.6831 -27.9137 -21.7490 -21.7339 -21.7308 -16.1313 -16.1100 -14.2518
   -14.1575 -11.4933 -11.4411 -11.3897  -4.2244  -4.2098  -2.6753  -2.5681
    -2.4550  -2.4018  -0.7651  -0.7007  -0.0709  -0.0325   0.7570   0.7750
     2.1804   2.2885   2.8697   2.9500   3.3771   3.5402   3.9129   3.9536
     4.2076   4.2396   5.9200   6.3685   6.6706   7.1622   7.9073   8.1970
     8.6146   8.9375   9.3475   9.5783   9.8946  10.2816  10.4630  10.4953
    10.7861  11.0348  11.3111  11.6737  12.1906  12.4059  12.7358  13.1281
    13.3010  13.5844  14.0235  14.2306  14.6676  14.9807

     occupation numbers 
     1.0000   1.0000   1.0000   1.0000   1.0000   1.0000   1.0000   1.0000
     1.0000   1.0000   1.0000   1.0000   1.0000   1.0000   1.0000   1.0000
     1.0000   1.0000   1.0000   1.0000   1.0000   1.0000   1.0000   1.0000
     1.0000   1.0000   1.0000   1.0000   1.0000   1.0000   1.0000   1.0000
     1.0000   1.0000   0.0000   0.0000   0.0000   0.0000   0.0000   0.0000
     0.0000   0.0000   0.0000   0.0000   0.0000   0.0000   0.0000   0.0000
     0.0000   0.0000   0.0000   0.0000   0.0000   0.0000   0.0000   0.0000
     0.0000   0.0000   0.0000   0.0000   0.0000   0.0000   0.0000   0.0000
     0.0000   0.0000   0.0000   0.0000   0.0000   0.0000

          k =-0.1667 0.7152 0.0831 ( 13466 PWs)   bands (ev):

   -54.0291 -53.9498 -49.8233 -30.4225 -30.3731 -30.1756 -30.1047 -29.7630
   -29.6813 -27.9103 -21.7487 -21.7338 -21.7333 -15.8157 -15.7989 -14.2527
   -14.1524 -11.5089 -11.4418 -11.4095  -4.8548  -4.8488  -3.0094  -2.8286
    -2.6684  -2.6116  -0.7438  -0.6818  -0.0562   0.0020   0.7313   0.7912
     2.3477   2.4295   2.8879   3.0121   3.6082   3.7396   4.1962   4.3987
     4.7546   4.7857   6.1999   6.2416   6.6747   6.8336   8.0594   8.2054
     8.8225   8.9612   9.1143   9.4855   9.7905   9.8883  10.2902  10.8607
    11.1260  11.2497  11.3029  11.6236  11.8192  12.3159  12.3891  12.5610
    12.8147  13.6576  14.0473  14.1066  14.3800  14.7281

     occupation numbers 
     1.0000   1.0000   1.0000   1.0000   1.0000   1.0000   1.0000   1.0000
     1.0000   1.0000   1.0000   1.0000   1.0000   1.0000   1.0000   1.0000
     1.0000   1.0000   1.0000   1.0000   1.0000   1.0000   1.0000   1.0000
     1.0000   1.0000   1.0000   1.0000   1.0000   1.0000   1.0000   1.0000
     1.0000   1.0000   0.0000   0.0000   0.0000   0.0000   0.0000   0.0000
     0.0000   0.0000   0.0000   0.0000   0.0000   0.0000   0.0000   0.0000
     0.0000   0.0000   0.0000   0.0000   0.0000   0.0000   0.0000   0.0000
     0.0000   0.0000   0.0000   0.0000   0.0000   0.0000   0.0000   0.0000
     0.0000   0.0000   0.0000   0.0000   0.0000   0.0000

          k =-0.1667 0.7152 0.1662 ( 13438 PWs)   bands (ev):

   -54.0291 -53.9497 -49.8233 -30.4225 -30.3731 -30.1756 -30.1046 -29.7630
   -29.6813 -27.9103 -21.7487 -21.7338 -21.7332 -15.8170 -15.7976 -14.2527
   -14.1524 -11.5089 -11.4419 -11.4095  -4.8548  -4.8488  -2.9917  -2.8427
    -2.6671  -2.6183  -0.7431  -0.6832  -0.0550   0.0010   0.7444   0.7801
     2.3347   2.4604   2.9017   2.9990   3.5892   3.7171   4.2257   4.3704
     4.7549   4.7865   6.1965   6.2556   6.7736   6.8286   7.9634   8.2594
     8.7924   8.8006   9.1243   9.6224   9.7167   9.9669  10.2300  10.7481
    11.1406  11.2122  11.5573  11.7038  11.7942  12.2003  12.4244  12.4653
    13.0984  13.7143  13.9693  13.9804  14.3146  14.6459

     occupation numbers 
     1.0000   1.0000   1.0000   1.0000   1.0000   1.0000   1.0000   1.0000
     1.0000   1.0000   1.0000   1.0000   1.0000   1.0000   1.0000   1.0000
     1.0000   1.0000   1.0000   1.0000   1.0000   1.0000   1.0000   1.0000
     1.0000   1.0000   1.0000   1.0000   1.0000   1.0000   1.0000   1.0000
     1.0000   1.0000   0.0000   0.0000   0.0000   0.0000   0.0000   0.0000
     0.0000   0.0000   0.0000   0.0000   0.0000   0.0000   0.0000   0.0000
     0.0000   0.0000   0.0000   0.0000   0.0000   0.0000   0.0000   0.0000
     0.0000   0.0000   0.0000   0.0000   0.0000   0.0000   0.0000   0.0000
     0.0000   0.0000   0.0000   0.0000   0.0000   0.0000

          k =-0.3333 0.0000 0.0831 ( 13456 PWs)   bands (ev):

   -54.0321 -53.9528 -49.8236 -30.2573 -30.2049 -30.1816 -30.1110 -29.7698
   -29.6884 -27.9239 -21.7500 -21.7356 -21.7223 -16.9563 -16.9355 -14.2563
   -14.1757 -11.4592 -11.3805 -11.3677  -2.1083  -1.9041  -1.8199  -1.8107
    -1.6140  -1.5969  -0.7420  -0.6930  -0.1768   0.0165   0.5170   0.5737
     1.8632   2.1541   2.5598   2.6234   2.6553   2.8800   2.9626   3.0261
     3.1131   3.2891   5.3859   5.4892   6.3251   6.6279   7.1639   7.8695
     8.2406   8.7547   9.3319   9.8350   9.9740  10.3370  10.3390  11.2651
    11.4773  12.0410  12.1350  12.6691  13.0729  13.5479  13.6108  13.8748
    14.0691  14.5674  14.6144  14.9116  14.9819  15.1790

     occupation numbers 
     1.0000   1.0000   1.0000   1.0000   1.0000   1.0000   1.0000   1.0000
     1.0000   1.0000   1.0000   1.0000   1.0000   1.0000   1.0000   1.0000
     1.0000   1.0000   1.0000   1.0000   1.0000   1.0000   1.0000   1.0000
     1.0000   1.0000   1.0000   1.0000   1.0000   1.0000   1.0000   1.0000
     1.0000   1.0000   0.0000   0.0000   0.0000   0.0000   0.0000   0.0000
     0.0000   0.0000   0.0000   0.0000   0.0000   0.0000   0.0000   0.0000
     0.0000   0.0000   0.0000   0.0000   0.0000   0.0000   0.0000   0.0000
     0.0000   0.0000   0.0000   0.0000   0.0000   0.0000   0.0000   0.0000
     0.0000   0.0000   0.0000   0.0000   0.0000   0.0000

          k =-0.3333 0.0000 0.1662 ( 13462 PWs)   bands (ev):

   -54.0321 -53.9528 -49.8236 -30.2573 -30.2049 -30.1816 -30.1110 -29.7698
   -29.6884 -27.9239 -21.7501 -21.7356 -21.7223 -16.9576 -16.9341 -14.2563
   -14.1757 -11.4592 -11.3805 -11.3678  -2.0896  -1.9255  -1.8199  -1.8107
    -1.6125  -1.5974  -0.7465  -0.6985  -0.1314  -0.0185   0.5164   0.5743
     1.9059   2.0888   2.6215   2.6378   2.6587   2.8395   2.9598   3.0273
     3.0745   3.2921   5.4715   5.5794   6.1339   6.6679   7.1782   7.6168
     8.2903   8.9255   9.5576   9.8109   9.9633  10.2359  10.3366  11.2243
    11.5024  12.1281  12.1476  12.6857  12.9906  13.3046  13.4653  13.6974
    14.1372  14.4865  14.6552  15.0059  15.1205  15.4170

     occupation numbers 
     1.0000   1.0000   1.0000   1.0000   1.0000   1.0000   1.0000   1.0000
     1.0000   1.0000   1.0000   1.0000   1.0000   1.0000   1.0000   1.0000
     1.0000   1.0000   1.0000   1.0000   1.0000   1.0000   1.0000   1.0000
     1.0000   1.0000   1.0000   1.0000   1.0000   1.0000   1.0000   1.0000
     1.0000   1.0000   0.0000   0.0000   0.0000   0.0000   0.0000   0.0000
     0.0000   0.0000   0.0000   0.0000   0.0000   0.0000   0.0000   0.0000
     0.0000   0.0000   0.0000   0.0000   0.0000   0.0000   0.0000   0.0000
     0.0000   0.0000   0.0000   0.0000   0.0000   0.0000   0.0000   0.0000
     0.0000   0.0000   0.0000   0.0000   0.0000   0.0000

          k =-0.3333 0.2384 0.0000 ( 13453 PWs)   bands (ev):

   -54.0313 -53.9520 -49.8235 -30.2996 -30.2480 -30.1801 -30.1093 -29.7681
   -29.6866 -27.9205 -21.7497 -21.7351 -21.7251 -16.6953 -16.6773 -14.2538
   -14.1692 -11.4564 -11.4323 -11.3595  -2.9697  -2.8981  -1.9811  -1.9591
    -1.9423  -1.7844  -0.7851  -0.7228  -0.1701   0.0162   0.6393   0.6986
     1.9643   2.2108   2.5908   2.8813   3.0798   3.1040   3.2156   3.2565
     3.3462   3.3859   5.5536   5.6167   6.7082   6.9384   7.6636   8.2672
     8.3801   8.8200   9.2610   9.5394   9.8617  10.0645  10.4037  10.6940
    11.3719  11.7735  11.8817  12.1523  12.4487  12.6778  13.4295  13.6681
    14.0252  14.2282  14.6371  14.9072  15.0623  15.2764

     occupation numbers 
     1.0000   1.0000   1.0000   1.0000   1.0000   1.0000   1.0000   1.0000
     1.0000   1.0000   1.0000   1.0000   1.0000   1.0000   1.0000   1.0000
     1.0000   1.0000   1.0000   1.0000   1.0000   1.0000   1.0000   1.0000
     1.0000   1.0000   1.0000   1.0000   1.0000   1.0000   1.0000   1.0000
     1.0000   1.0000   0.0000   0.0000   0.0000   0.0000   0.0000   0.0000
     0.0000   0.0000   0.0000   0.0000   0.0000   0.0000   0.0000   0.0000
     0.0000   0.0000   0.0000   0.0000   0.0000   0.0000   0.0000   0.0000
     0.0000   0.0000   0.0000   0.0000   0.0000   0.0000   0.0000   0.0000
     0.0000   0.0000   0.0000   0.0000   0.0000   0.0000

          k =-0.3333-0.2384 0.0831 ( 13457 PWs)   bands (ev):

   -54.0313 -53.9520 -49.8235 -30.2996 -30.2480 -30.1801 -30.1093 -29.7681
   -29.6866 -27.9205 -21.7497 -21.7351 -21.7251 -16.6960 -16.6765 -14.2538
   -14.1692 -11.4564 -11.4323 -11.3595  -2.9668  -2.9005  -1.9812  -1.9587
    -1.9367  -1.7918  -0.7831  -0.7290  -0.1534   0.0043   0.6402   0.6978
     1.9773   2.1952   2.6123   2.8687   3.0687   3.1007   3.2156   3.2552
     3.3313   3.4015   5.5787   5.6409   6.6697   6.9634   7.5786   8.1753
     8.4350   8.8753   9.3847   9.5083   9.8734  10.0220  10.4927  10.6795
    11.3841  11.5541  11.8428  12.0669  12.6455  12.8700  13.3437  13.7363
    13.8279  14.3754  14.4893  14.7342  15.1283  15.3129

     occupation numbers 
     1.0000   1.0000   1.0000   1.0000   1.0000   1.0000   1.0000   1.0000
     1.0000   1.0000   1.0000   1.0000   1.0000   1.0000   1.0000   1.0000
     1.0000   1.0000   1.0000   1.0000   1.0000   1.0000   1.0000   1.0000
     1.0000   1.0000   1.0000   1.0000   1.0000   1.0000   1.0000   1.0000
     1.0000   1.0000   0.0000   0.0000   0.0000   0.0000   0.0000   0.0000
     0.0000   0.0000   0.0000   0.0000   0.0000   0.0000   0.0000   0.0000
     0.0000   0.0000   0.0000   0.0000   0.0000   0.0000   0.0000   0.0000
     0.0000   0.0000   0.0000   0.0000   0.0000   0.0000   0.0000   0.0000
     0.0000   0.0000   0.0000   0.0000   0.0000   0.0000

          k =-0.3333 0.2384-0.0831 ( 13457 PWs)   bands (ev):

   -54.0313 -53.9520 -49.8235 -30.2996 -30.2480 -30.1801 -30.1093 -29.7681
   -29.6867 -27.9205 -21.7497 -21.7351 -21.7251 -16.6960 -16.6765 -14.2538
   -14.1692 -11.4564 -11.4323 -11.3595  -2.9667  -2.9006  -1.9794  -1.9594
    -1.9379  -1.7923  -0.7897  -0.7198  -0.1577   0.0068   0.6393   0.6979
     1.9760   2.1905   2.6192   2.8674   3.0950   3.1207   3.2029   3.2476
     3.2975   3.4041   5.6143   5.6693   6.4836   7.0150   7.7657   8.0079
     8.5292   8.9880   9.1996   9.6015   9.8297  10.0573  10.2821  10.7094
    11.3917  11.7922  11.9847  12.2242  12.3891  12.6370  13.3565  13.5224
    13.9303  14.2036  14.6496  14.8614  15.1210  15.5407

     occupation numbers 
     1.0000   1.0000   1.0000   1.0000   1.0000   1.0000   1.0000   1.0000
     1.0000   1.0000   1.0000   1.0000   1.0000   1.0000   1.0000   1.0000
     1.0000   1.0000   1.0000   1.0000   1.0000   1.0000   1.0000   1.0000
     1.0000   1.0000   1.0000   1.0000   1.0000   1.0000   1.0000   1.0000
     1.0000   1.0000   0.0000   0.0000   0.0000   0.0000   0.0000   0.0000
     0.0000   0.0000   0.0000   0.0000   0.0000   0.0000   0.0000   0.0000
     0.0000   0.0000   0.0000   0.0000   0.0000   0.0000   0.0000   0.0000
     0.0000   0.0000   0.0000   0.0000   0.0000   0.0000   0.0000   0.0000
     0.0000   0.0000   0.0000   0.0000   0.0000   0.0000

          k = 0.3333-0.2384-0.0831 ( 13457 PWs)   bands (ev):

   -54.0313 -53.9520 -49.8235 -30.2996 -30.2480 -30.1801 -30.1093 -29.7681
   -29.6866 -27.9205 -21.7497 -21.7351 -21.7251 -16.6960 -16.6765 -14.2538
   -14.1692 -11.4564 -11.4323 -11.3595  -2.9668  -2.9005  -1.9812  -1.9587
    -1.9367  -1.7918  -0.7831  -0.7290  -0.1534   0.0043   0.6402   0.6978
     1.9773   2.1951   2.6124   2.8687   3.0684   3.1008   3.2156   3.2552
     3.3318   3.4013   5.5787   5.6409   6.6696   6.9634   7.5786   8.1751
     8.4353   8.8751   9.3853   9.5080   9.8733  10.0220  10.4927  10.6797
    11.3842  11.5540  11.8427  12.0671  12.6454  12.8700  13.3436  13.7363
    13.8276  14.3753  14.4894  14.7344  15.1282  15.3130

     occupation numbers 
     1.0000   1.0000   1.0000   1.0000   1.0000   1.0000   1.0000   1.0000
     1.0000   1.0000   1.0000   1.0000   1.0000   1.0000   1.0000   1.0000
     1.0000   1.0000   1.0000   1.0000   1.0000   1.0000   1.0000   1.0000
     1.0000   1.0000   1.0000   1.0000   1.0000   1.0000   1.0000   1.0000
     1.0000   1.0000   0.0000   0.0000   0.0000   0.0000   0.0000   0.0000
     0.0000   0.0000   0.0000   0.0000   0.0000   0.0000   0.0000   0.0000
     0.0000   0.0000   0.0000   0.0000   0.0000   0.0000   0.0000   0.0000
     0.0000   0.0000   0.0000   0.0000   0.0000   0.0000   0.0000   0.0000
     0.0000   0.0000   0.0000   0.0000   0.0000   0.0000

          k =-0.3333-0.2384 0.1662 ( 13443 PWs)   bands (ev):

   -54.0313 -53.9520 -49.8235 -30.2996 -30.2479 -30.1801 -30.1093 -29.7680
   -29.6866 -27.9205 -21.7496 -21.7350 -21.7251 -16.6974 -16.6751 -14.2538
   -14.1692 -11.4564 -11.4323 -11.3595  -2.9601  -2.9062  -1.9799  -1.9586
    -1.9242  -1.8093  -0.7863  -0.7311  -0.1148  -0.0268   0.6412   0.6963
     2.0088   2.1542   2.6710   2.8316   3.0690   3.1089   3.2061   3.2462
     3.2965   3.4114   5.6713   5.7290   6.4251   6.9992   7.5854   8.0472
     8.4589   9.0796   9.3476   9.6737   9.8800   9.9542  10.3977  10.7057
    11.3770  11.4744  11.8724  12.0979  12.6462  12.9870  13.1987  13.5672
    13.9149  14.3092  14.4746  14.6204  15.1173  15.3862

     occupation numbers 
     1.0000   1.0000   1.0000   1.0000   1.0000   1.0000   1.0000   1.0000
     1.0000   1.0000   1.0000   1.0000   1.0000   1.0000   1.0000   1.0000
     1.0000   1.0000   1.0000   1.0000   1.0000   1.0000   1.0000   1.0000
     1.0000   1.0000   1.0000   1.0000   1.0000   1.0000   1.0000   1.0000
     1.0000   1.0000   0.0000   0.0000   0.0000   0.0000   0.0000   0.0000
     0.0000   0.0000   0.0000   0.0000   0.0000   0.0000   0.0000   0.0000
     0.0000   0.0000   0.0000   0.0000   0.0000   0.0000   0.0000   0.0000
     0.0000   0.0000   0.0000   0.0000   0.0000   0.0000   0.0000   0.0000
     0.0000   0.0000   0.0000   0.0000   0.0000   0.0000

          k =-0.3333 0.2384-0.1662 ( 13443 PWs)   bands (ev):

   -54.0313 -53.9520 -49.8235 -30.2996 -30.2479 -30.1801 -30.1093 -29.7680
   -29.6866 -27.9205 -21.7496 -21.7350 -21.7251 -16.6974 -16.6751 -14.2538
   -14.1692 -11.4564 -11.4323 -11.3595  -2.9600  -2.9064  -1.9782  -1.9593
    -1.9252  -1.8097  -0.7924  -0.7224  -0.1209  -0.0222   0.6404   0.6964
     2.0082   2.1487   2.6802   2.8294   3.1089   3.1302   3.1727   3.2324
     3.2762   3.4113   5.7016   5.8030   6.2407   7.0248   7.7313   7.9324
     8.5535   9.0550   9.4277   9.6560   9.7101  10.0651  10.2390  10.6744
    11.4582  11.6921  11.9299  12.1194  12.5118  12.8577  13.2405  13.3761
    13.9057  14.1692  14.5455  14.7814  15.2065  15.4693

     occupation numbers 
     1.0000   1.0000   1.0000   1.0000   1.0000   1.0000   1.0000   1.0000
     1.0000   1.0000   1.0000   1.0000   1.0000   1.0000   1.0000   1.0000
     1.0000   1.0000   1.0000   1.0000   1.0000   1.0000   1.0000   1.0000
     1.0000   1.0000   1.0000   1.0000   1.0000   1.0000   1.0000   1.0000
     1.0000   1.0000   0.0000   0.0000   0.0000   0.0000   0.0000   0.0000
     0.0000   0.0000   0.0000   0.0000   0.0000   0.0000   0.0000   0.0000
     0.0000   0.0000   0.0000   0.0000   0.0000   0.0000   0.0000   0.0000
     0.0000   0.0000   0.0000   0.0000   0.0000   0.0000   0.0000   0.0000
     0.0000   0.0000   0.0000   0.0000   0.0000   0.0000

          k = 0.3333-0.2384-0.1662 ( 13443 PWs)   bands (ev):

   -54.0313 -53.9520 -49.8235 -30.2996 -30.2479 -30.1801 -30.1093 -29.7680
   -29.6866 -27.9205 -21.7496 -21.7350 -21.7251 -16.6974 -16.6751 -14.2538
   -14.1692 -11.4564 -11.4323 -11.3595  -2.9602  -2.9062  -1.9798  -1.9586
    -1.9242  -1.8093  -0.7863  -0.7311  -0.1148  -0.0268   0.6412   0.6963
     2.0089   2.1540   2.6711   2.8316   3.0686   3.1089   3.2062   3.2461
     3.2971   3.4112   5.6713   5.7291   6.4250   6.9993   7.5854   8.0470
     8.4590   9.0798   9.3476   9.6736   9.8801   9.9542  10.3978  10.7058
    11.3770  11.4742  11.8725  12.0980  12.6464  12.9870  13.1985  13.5677
    13.9145  14.3089  14.4746  14.6206  15.1172  15.3852

     occupation numbers 
     1.0000   1.0000   1.0000   1.0000   1.0000   1.0000   1.0000   1.0000
     1.0000   1.0000   1.0000   1.0000   1.0000   1.0000   1.0000   1.0000
     1.0000   1.0000   1.0000   1.0000   1.0000   1.0000   1.0000   1.0000
     1.0000   1.0000   1.0000   1.0000   1.0000   1.0000   1.0000   1.0000
     1.0000   1.0000   0.0000   0.0000   0.0000   0.0000   0.0000   0.0000
     0.0000   0.0000   0.0000   0.0000   0.0000   0.0000   0.0000   0.0000
     0.0000   0.0000   0.0000   0.0000   0.0000   0.0000   0.0000   0.0000
     0.0000   0.0000   0.0000   0.0000   0.0000   0.0000   0.0000   0.0000
     0.0000   0.0000   0.0000   0.0000   0.0000   0.0000

          k =-0.3333 0.2384 0.2494 ( 13434 PWs)   bands (ev):

   -54.0313 -53.9520 -49.8235 -30.2996 -30.2479 -30.1801 -30.1093 -29.7680
   -29.6866 -27.9205 -21.7496 -21.7350 -21.7251 -16.6980 -16.6745 -14.2538
   -14.1692 -11.4564 -11.4323 -11.3595  -2.9561  -2.9097  -1.9785  -1.9589
    -1.9165  -1.8201  -0.7911  -0.7277  -0.0781  -0.0605   0.6413   0.6955
     2.0335   2.1224   2.7241   2.7928   3.0907   3.1160   3.1869   3.2336
     3.2784   3.4114   5.7295   5.8642   6.1855   6.9993   7.6437   7.9825
     8.5004   9.1194   9.4211   9.7100   9.8240   9.9729  10.2948  10.6611
    11.4269  11.5686  11.8823  12.1758  12.4755  12.9338  13.2716  13.4422
    13.9674  14.1238  14.5137  14.6492  15.2113  15.4016

     occupation numbers 
     1.0000   1.0000   1.0000   1.0000   1.0000   1.0000   1.0000   1.0000
     1.0000   1.0000   1.0000   1.0000   1.0000   1.0000   1.0000   1.0000
     1.0000   1.0000   1.0000   1.0000   1.0000   1.0000   1.0000   1.0000
     1.0000   1.0000   1.0000   1.0000   1.0000   1.0000   1.0000   1.0000
     1.0000   1.0000   0.0000   0.0000   0.0000   0.0000   0.0000   0.0000
     0.0000   0.0000   0.0000   0.0000   0.0000   0.0000   0.0000   0.0000
     0.0000   0.0000   0.0000   0.0000   0.0000   0.0000   0.0000   0.0000
     0.0000   0.0000   0.0000   0.0000   0.0000   0.0000   0.0000   0.0000
     0.0000   0.0000   0.0000   0.0000   0.0000   0.0000

          k =-0.3333 0.4768 0.0000 ( 13437 PWs)   bands (ev):

   -54.0298 -53.9505 -49.8234 -30.3821 -30.3320 -30.1771 -30.1062 -29.7647
   -29.6831 -27.9137 -21.7490 -21.7339 -21.7308 -16.1284 -16.1125 -14.2513
   -14.1571 -11.4935 -11.4416 -11.3906  -4.2263  -4.2075  -2.7085  -2.5590
    -2.4739  -2.3853  -0.7643  -0.7032  -0.0957   0.0093   0.7511   0.8080
     2.3055   2.3537   2.7565   2.9563   3.4847   3.5427   3.8946   3.9832
     4.2033   4.2389   5.9060   5.9931   6.8362   7.1693   7.9987   8.2913
     8.5243   8.5815   9.2364   9.2968   9.7072  10.0758  10.1917  10.4785
    10.8821  11.2395  11.4139  11.9861  12.3022  12.6563  13.0321  13.2372
    13.3379  13.6759  14.2444  14.4329  14.7985  14.9129

     occupation numbers 
     1.0000   1.0000   1.0000   1.0000   1.0000   1.0000   1.0000   1.0000
     1.0000   1.0000   1.0000   1.0000   1.0000   1.0000   1.0000   1.0000
     1.0000   1.0000   1.0000   1.0000   1.0000   1.0000   1.0000   1.0000
     1.0000   1.0000   1.0000   1.0000   1.0000   1.0000   1.0000   1.0000
     1.0000   1.0000   0.0000   0.0000   0.0000   0.0000   0.0000   0.0000
     0.0000   0.0000   0.0000   0.0000   0.0000   0.0000   0.0000   0.0000
     0.0000   0.0000   0.0000   0.0000   0.0000   0.0000   0.0000   0.0000
     0.0000   0.0000   0.0000   0.0000   0.0000   0.0000   0.0000   0.0000
     0.0000   0.0000   0.0000   0.0000   0.0000   0.0000

          k =-0.3333-0.4768 0.0831 ( 13441 PWs)   bands (ev):

   -54.0298 -53.9505 -49.8234 -30.3822 -30.3320 -30.1771 -30.1062 -29.7647
   -29.6831 -27.9137 -21.7490 -21.7339 -21.7308 -16.1292 -16.1118 -14.2513
   -14.1571 -11.4935 -11.4417 -11.3906  -4.2258  -4.2079  -2.7014  -2.5625
    -2.4731  -2.3908  -0.7640  -0.7047  -0.0885   0.0035   0.7565   0.8034
     2.2994   2.3661   2.7700   2.9410   3.4610   3.5525   3.9022   3.9767
     4.2043   4.2358   5.9118   6.0339   6.7689   7.3016   7.8906   8.2382
     8.3366   8.7225   9.2386   9.4251   9.7260  10.0485  10.1981  10.4857
    10.9324  11.1525  11.6024  11.8206  12.3697  12.4552  12.9544  13.3177
    13.4583  13.7253  14.2723  14.5098  14.6008  14.9127

     occupation numbers 
     1.0000   1.0000   1.0000   1.0000   1.0000   1.0000   1.0000   1.0000
     1.0000   1.0000   1.0000   1.0000   1.0000   1.0000   1.0000   1.0000
     1.0000   1.0000   1.0000   1.0000   1.0000   1.0000   1.0000   1.0000
     1.0000   1.0000   1.0000   1.0000   1.0000   1.0000   1.0000   1.0000
     1.0000   1.0000   0.0000   0.0000   0.0000   0.0000   0.0000   0.0000
     0.0000   0.0000   0.0000   0.0000   0.0000   0.0000   0.0000   0.0000
     0.0000   0.0000   0.0000   0.0000   0.0000   0.0000   0.0000   0.0000
     0.0000   0.0000   0.0000   0.0000   0.0000   0.0000   0.0000   0.0000
     0.0000   0.0000   0.0000   0.0000   0.0000   0.0000

          k =-0.3333 0.4768-0.0831 ( 13441 PWs)   bands (ev):

   -54.0298 -53.9505 -49.8234 -30.3822 -30.3320 -30.1771 -30.1062 -29.7647
   -29.6831 -27.9137 -21.7490 -21.7339 -21.7308 -16.1292 -16.1118 -14.2513
   -14.1571 -11.4935 -11.4417 -11.3906  -4.2257  -4.2080  -2.7019  -2.5618
    -2.4727  -2.3914  -0.7665  -0.7014  -0.0903   0.0048   0.7531   0.8062
     2.3049   2.3597   2.7661   2.9537   3.4525   3.5505   3.8967   3.9803
     4.2030   4.2408   5.9304   6.0550   6.7746   7.1107   7.9756   8.2335
     8.5193   8.8537   9.1283   9.2759   9.7056   9.9776  10.3262  10.4818
    10.7714  11.2713  11.4492  12.0834  12.2446  12.7446  12.9482  13.0653
    13.4359  13.7690  14.1052  14.3100  14.7111  15.0531

     occupation numbers 
     1.0000   1.0000   1.0000   1.0000   1.0000   1.0000   1.0000   1.0000
     1.0000   1.0000   1.0000   1.0000   1.0000   1.0000   1.0000   1.0000
     1.0000   1.0000   1.0000   1.0000   1.0000   1.0000   1.0000   1.0000
     1.0000   1.0000   1.0000   1.0000   1.0000   1.0000   1.0000   1.0000
     1.0000   1.0000   0.0000   0.0000   0.0000   0.0000   0.0000   0.0000
     0.0000   0.0000   0.0000   0.0000   0.0000   0.0000   0.0000   0.0000
     0.0000   0.0000   0.0000   0.0000   0.0000   0.0000   0.0000   0.0000
     0.0000   0.0000   0.0000   0.0000   0.0000   0.0000   0.0000   0.0000
     0.0000   0.0000   0.0000   0.0000   0.0000   0.0000

          k = 0.3333-0.4768-0.0831 ( 13441 PWs)   bands (ev):

   -54.0298 -53.9505 -49.8234 -30.3822 -30.3320 -30.1771 -30.1062 -29.7647
   -29.6831 -27.9137 -21.7490 -21.7339 -21.7308 -16.1292 -16.1118 -14.2513
   -14.1571 -11.4935 -11.4417 -11.3906  -4.2258  -4.2079  -2.7014  -2.5625
    -2.4731  -2.3908  -0.7640  -0.7047  -0.0885   0.0035   0.7565   0.8034
     2.2994   2.3661   2.7700   2.9410   3.4609   3.5526   3.9022   3.9768
     4.2043   4.2358   5.9118   6.0340   6.7687   7.3017   7.8907   8.2380
     8.3367   8.7220   9.2389   9.4254   9.7259  10.0487  10.1977  10.4858
    10.9323  11.1532  11.6023  11.8204  12.3694  12.4551  12.9551  13.3178
    13.4581  13.7254  14.2723  14.5096  14.6009  14.9132

     occupation numbers 
     1.0000   1.0000   1.0000   1.0000   1.0000   1.0000   1.0000   1.0000
     1.0000   1.0000   1.0000   1.0000   1.0000   1.0000   1.0000   1.0000
     1.0000   1.0000   1.0000   1.0000   1.0000   1.0000   1.0000   1.0000
     1.0000   1.0000   1.0000   1.0000   1.0000   1.0000   1.0000   1.0000
     1.0000   1.0000   0.0000   0.0000   0.0000   0.0000   0.0000   0.0000
     0.0000   0.0000   0.0000   0.0000   0.0000   0.0000   0.0000   0.0000
     0.0000   0.0000   0.0000   0.0000   0.0000   0.0000   0.0000   0.0000
     0.0000   0.0000   0.0000   0.0000   0.0000   0.0000   0.0000   0.0000
     0.0000   0.0000   0.0000   0.0000   0.0000   0.0000

          k =-0.3333-0.4768 0.1662 ( 13433 PWs)   bands (ev):

   -54.0298 -53.9505 -49.8234 -30.3821 -30.3320 -30.1771 -30.1062 -29.7647
   -29.6831 -27.9137 -21.7490 -21.7339 -21.7307 -16.1305 -16.1105 -14.2513
   -14.1571 -11.4935 -11.4417 -11.3907  -4.2246  -4.2089  -2.6860  -2.5706
    -2.4707  -2.4028  -0.7659  -0.7043  -0.0727  -0.0097   0.7666   0.7942
     2.2959   2.3813   2.8024   2.9133   3.4193   3.5566   3.9147   3.9644
     4.2047   4.2351   5.9562   6.1387   6.6423   7.3638   7.7691   8.0710
     8.4051   8.8647   9.2416   9.4461   9.7630   9.9596  10.2754  10.5377
    10.8762  11.1459  11.6700  11.8785  12.2266  12.4766  12.8985  13.1531
    13.6817  13.7478  14.0695  14.4631  14.7191  14.8920

     occupation numbers 
     1.0000   1.0000   1.0000   1.0000   1.0000   1.0000   1.0000   1.0000
     1.0000   1.0000   1.0000   1.0000   1.0000   1.0000   1.0000   1.0000
     1.0000   1.0000   1.0000   1.0000   1.0000   1.0000   1.0000   1.0000
     1.0000   1.0000   1.0000   1.0000   1.0000   1.0000   1.0000   1.0000
     1.0000   1.0000   0.0000   0.0000   0.0000   0.0000   0.0000   0.0000
     0.0000   0.0000   0.0000   0.0000   0.0000   0.0000   0.0000   0.0000
     0.0000   0.0000   0.0000   0.0000   0.0000   0.0000   0.0000   0.0000
     0.0000   0.0000   0.0000   0.0000   0.0000   0.0000   0.0000   0.0000
     0.0000   0.0000   0.0000   0.0000   0.0000   0.0000

          k =-0.3333 0.4768-0.1662 ( 13433 PWs)   bands (ev):

   -54.0298 -53.9505 -49.8234 -30.3821 -30.3320 -30.1771 -30.1062 -29.7647
   -29.6831 -27.9137 -21.7490 -21.7339 -21.7307 -16.1305 -16.1105 -14.2513
   -14.1571 -11.4935 -11.4417 -11.3907  -4.2246  -4.2089  -2.6867  -2.5698
    -2.4703  -2.4035  -0.7683  -0.7011  -0.0751  -0.0078   0.7615   0.7987
     2.2999   2.3762   2.7948   2.9305   3.4084   3.5566   3.9070   3.9701
     4.2036   4.2398   5.9624   6.2049   6.5803   7.2010   7.8371   8.1088
     8.6299   8.9112   9.1373   9.3136   9.7564   9.9380  10.3146  10.5480
    10.7387  11.1823  11.6691  12.1033  12.1389  12.5604  12.8769  13.1485
    13.5009  13.8352  13.9676  14.4382  14.5931  14.9858

     occupation numbers 
     1.0000   1.0000   1.0000   1.0000   1.0000   1.0000   1.0000   1.0000
     1.0000   1.0000   1.0000   1.0000   1.0000   1.0000   1.0000   1.0000
     1.0000   1.0000   1.0000   1.0000   1.0000   1.0000   1.0000   1.0000
     1.0000   1.0000   1.0000   1.0000   1.0000   1.0000   1.0000   1.0000
     1.0000   1.0000   0.0000   0.0000   0.0000   0.0000   0.0000   0.0000
     0.0000   0.0000   0.0000   0.0000   0.0000   0.0000   0.0000   0.0000
     0.0000   0.0000   0.0000   0.0000   0.0000   0.0000   0.0000   0.0000
     0.0000   0.0000   0.0000   0.0000   0.0000   0.0000   0.0000   0.0000
     0.0000   0.0000   0.0000   0.0000   0.0000   0.0000

          k = 0.3333-0.4768-0.1662 ( 13433 PWs)   bands (ev):

   -54.0298 -53.9505 -49.8234 -30.3821 -30.3320 -30.1771 -30.1062 -29.7647
   -29.6831 -27.9137 -21.7490 -21.7339 -21.7307 -16.1305 -16.1105 -14.2513
   -14.1571 -11.4935 -11.4417 -11.3907  -4.2246  -4.2089  -2.6860  -2.5706
    -2.4707  -2.4028  -0.7659  -0.7043  -0.0727  -0.0097   0.7666   0.7942
     2.2959   2.3813   2.8025   2.9133   3.4192   3.5567   3.9147   3.9644
     4.2047   4.2351   5.9561   6.1388   6.6420   7.3641   7.7691   8.0710
     8.4050   8.8643   9.2419   9.4465   9.7631   9.9596  10.2749  10.5375
    10.8763  11.1464  11.6699  11.8785  12.2267  12.4765  12.8988  13.1530
    13.6816  13.7479  14.0693  14.4633  14.7188  14.8922

     occupation numbers 
     1.0000   1.0000   1.0000   1.0000   1.0000   1.0000   1.0000   1.0000
     1.0000   1.0000   1.0000   1.0000   1.0000   1.0000   1.0000   1.0000
     1.0000   1.0000   1.0000   1.0000   1.0000   1.0000   1.0000   1.0000
     1.0000   1.0000   1.0000   1.0000   1.0000   1.0000   1.0000   1.0000
     1.0000   1.0000   0.0000   0.0000   0.0000   0.0000   0.0000   0.0000
     0.0000   0.0000   0.0000   0.0000   0.0000   0.0000   0.0000   0.0000
     0.0000   0.0000   0.0000   0.0000   0.0000   0.0000   0.0000   0.0000
     0.0000   0.0000   0.0000   0.0000   0.0000   0.0000   0.0000   0.0000
     0.0000   0.0000   0.0000   0.0000   0.0000   0.0000

          k =-0.3333 0.4768 0.2494 ( 13426 PWs)   bands (ev):

   -54.0298 -53.9504 -49.8234 -30.3821 -30.3320 -30.1771 -30.1062 -29.7647
   -29.6831 -27.9137 -21.7490 -21.7339 -21.7308 -16.1311 -16.1098 -14.2512
   -14.1571 -11.4935 -11.4417 -11.3907  -4.2240  -4.2095  -2.6774  -2.5754
    -2.4690  -2.4095  -0.7680  -0.7025  -0.0632  -0.0182   0.7710   0.7898
     2.2965   2.3860   2.8226   2.9003   3.3950   3.5569   3.9182   3.9598
     4.2043   4.2371   5.9804   6.2774   6.4909   7.3225   7.7312   8.0347
     8.5666   8.8898   9.2366   9.3621   9.7815   9.9687  10.2471  10.6277
    10.7678  11.1342  11.7612  11.9616  12.1426  12.5408  12.7881  13.1866
    13.5080  13.8720  14.0130  14.4440  14.7004  14.8950

     occupation numbers 
     1.0000   1.0000   1.0000   1.0000   1.0000   1.0000   1.0000   1.0000
     1.0000   1.0000   1.0000   1.0000   1.0000   1.0000   1.0000   1.0000
     1.0000   1.0000   1.0000   1.0000   1.0000   1.0000   1.0000   1.0000
     1.0000   1.0000   1.0000   1.0000   1.0000   1.0000   1.0000   1.0000
     1.0000   1.0000   0.0000   0.0000   0.0000   0.0000   0.0000   0.0000
     0.0000   0.0000   0.0000   0.0000   0.0000   0.0000   0.0000   0.0000
     0.0000   0.0000   0.0000   0.0000   0.0000   0.0000   0.0000   0.0000
     0.0000   0.0000   0.0000   0.0000   0.0000   0.0000   0.0000   0.0000
     0.0000   0.0000   0.0000   0.0000   0.0000   0.0000

          k =-0.3333 0.7152 0.0831 ( 13450 PWs)   bands (ev):

   -54.0291 -53.9497 -49.8233 -30.4225 -30.3731 -30.1757 -30.1047 -29.7630
   -29.6813 -27.9103 -21.7487 -21.7337 -21.7333 -15.8156 -15.7987 -14.2520
   -14.1520 -11.5094 -11.4417 -11.4112  -4.8547  -4.8486  -3.0093  -2.8354
    -2.6817  -2.6195  -0.7466  -0.6851  -0.0518   0.0163   0.7532   0.8045
     2.4085   2.5316   2.8422   2.9725   3.6259   3.7685   4.2365   4.4141
     4.7410   4.7689   6.1735   6.4049   6.5627   7.2167   8.0618   8.1066
     8.2645   8.4232   8.6991   9.1618   9.8220   9.9563  10.1079  10.8922
    11.0254  11.3132  11.6373  11.8328  12.0054  12.4252  12.7040  13.1049
    13.3305  13.6932  13.8515  14.1409  14.2546  14.6771

     occupation numbers 
     1.0000   1.0000   1.0000   1.0000   1.0000   1.0000   1.0000   1.0000
     1.0000   1.0000   1.0000   1.0000   1.0000   1.0000   1.0000   1.0000
     1.0000   1.0000   1.0000   1.0000   1.0000   1.0000   1.0000   1.0000
     1.0000   1.0000   1.0000   1.0000   1.0000   1.0000   1.0000   1.0000
     1.0000   1.0000   0.0000   0.0000   0.0000   0.0000   0.0000   0.0000
     0.0000   0.0000   0.0000   0.0000   0.0000   0.0000   0.0000   0.0000
     0.0000   0.0000   0.0000   0.0000   0.0000   0.0000   0.0000   0.0000
     0.0000   0.0000   0.0000   0.0000   0.0000   0.0000   0.0000   0.0000
     0.0000   0.0000   0.0000   0.0000   0.0000   0.0000

          k =-0.3333 0.7152 0.1662 ( 13446 PWs)   bands (ev):

   -54.0291 -53.9497 -49.8233 -30.4225 -30.3731 -30.1757 -30.1047 -29.7630
   -29.6813 -27.9103 -21.7487 -21.7337 -21.7333 -15.8169 -15.7975 -14.2520
   -14.1520 -11.5094 -11.4418 -11.4112  -4.8546  -4.8486  -2.9924  -2.8481
    -2.6803  -2.6270  -0.7480  -0.6843  -0.0494   0.0143   0.7634   0.7960
     2.4138   2.5405   2.8579   2.9550   3.6007   3.7626   4.2625   4.3909
     4.7411   4.7699   6.1779   6.4258   6.6958   7.1374   7.7689   8.1630
     8.2818   8.4291   8.7715   9.3669   9.6999   9.9021  10.2647  10.7339
    10.9333  11.3402  11.7227  11.9083  12.0144  12.6199  12.7748  12.9763
    12.9951  13.7094  13.8737  14.2926  14.2946  14.6216

     occupation numbers 
     1.0000   1.0000   1.0000   1.0000   1.0000   1.0000   1.0000   1.0000
     1.0000   1.0000   1.0000   1.0000   1.0000   1.0000   1.0000   1.0000
     1.0000   1.0000   1.0000   1.0000   1.0000   1.0000   1.0000   1.0000
     1.0000   1.0000   1.0000   1.0000   1.0000   1.0000   1.0000   1.0000
     1.0000   1.0000   0.0000   0.0000   0.0000   0.0000   0.0000   0.0000
     0.0000   0.0000   0.0000   0.0000   0.0000   0.0000   0.0000   0.0000
     0.0000   0.0000   0.0000   0.0000   0.0000   0.0000   0.0000   0.0000
     0.0000   0.0000   0.0000   0.0000   0.0000   0.0000   0.0000   0.0000
     0.0000   0.0000   0.0000   0.0000   0.0000   0.0000

          k = 0.5000-0.2384 0.0831 ( 13456 PWs)   bands (ev):

   -54.0313 -53.9520 -49.8235 -30.2996 -30.2480 -30.1801 -30.1094 -29.7681
   -29.6867 -27.9204 -21.7497 -21.7351 -21.7251 -16.6959 -16.6764 -14.2537
   -14.1690 -11.4565 -11.4327 -11.3596  -2.9664  -2.9002  -1.9890  -1.9680
    -1.9387  -1.7929  -0.7825  -0.7284  -0.1522   0.0184   0.6422   0.6984
     2.0990   2.2404   2.5875   2.8287   3.0636   3.1174   3.2053   3.2512
     3.3411   3.3879   5.3591   5.7251   6.5850   6.9788   7.5058   8.1647
     8.5415   8.9195   9.2205   9.4814   9.8159   9.9668  10.3348  10.6617
    11.3501  11.7001  12.0503  12.3719  12.7830  13.0308  13.4532  13.7519
    14.0324  14.3249  14.4075  14.7182  15.2209  15.4108

     occupation numbers 
     1.0000   1.0000   1.0000   1.0000   1.0000   1.0000   1.0000   1.0000
     1.0000   1.0000   1.0000   1.0000   1.0000   1.0000   1.0000   1.0000
     1.0000   1.0000   1.0000   1.0000   1.0000   1.0000   1.0000   1.0000
     1.0000   1.0000   1.0000   1.0000   1.0000   1.0000   1.0000   1.0000
     1.0000   1.0000   0.0000   0.0000   0.0000   0.0000   0.0000   0.0000
     0.0000   0.0000   0.0000   0.0000   0.0000   0.0000   0.0000   0.0000
     0.0000   0.0000   0.0000   0.0000   0.0000   0.0000   0.0000   0.0000
     0.0000   0.0000   0.0000   0.0000   0.0000   0.0000   0.0000   0.0000
     0.0000   0.0000   0.0000   0.0000   0.0000   0.0000

          k = 0.5000-0.2384 0.1662 ( 13462 PWs)   bands (ev):

   -54.0313 -53.9520 -49.8235 -30.2996 -30.2480 -30.1801 -30.1094 -29.7681
   -29.6867 -27.9204 -21.7497 -21.7351 -21.7251 -16.6973 -16.6751 -14.2537
   -14.1690 -11.4566 -11.4327 -11.3597  -2.9598  -2.9060  -1.9882  -1.9679
    -1.9258  -1.8103  -0.7840  -0.7320  -0.1129  -0.0139   0.6422   0.6974
     2.1148   2.2197   2.6434   2.7929   3.0827   3.1278   3.1894   3.2376
     3.3176   3.3704   5.4909   5.7380   6.4271   6.8841   7.6767   8.0125
     8.5954   8.9617   9.2999   9.6066   9.7775   9.9278  10.2061  10.6544
    11.4299  11.7022  12.0874  12.4020  12.6615  13.1882  13.4459  13.5980
    13.9847  14.1200  14.3615  14.7364  15.1912  15.3935

     occupation numbers 
     1.0000   1.0000   1.0000   1.0000   1.0000   1.0000   1.0000   1.0000
     1.0000   1.0000   1.0000   1.0000   1.0000   1.0000   1.0000   1.0000
     1.0000   1.0000   1.0000   1.0000   1.0000   1.0000   1.0000   1.0000
     1.0000   1.0000   1.0000   1.0000   1.0000   1.0000   1.0000   1.0000
     1.0000   1.0000   0.0000   0.0000   0.0000   0.0000   0.0000   0.0000
     0.0000   0.0000   0.0000   0.0000   0.0000   0.0000   0.0000   0.0000
     0.0000   0.0000   0.0000   0.0000   0.0000   0.0000   0.0000   0.0000
     0.0000   0.0000   0.0000   0.0000   0.0000   0.0000   0.0000   0.0000
     0.0000   0.0000   0.0000   0.0000   0.0000   0.0000

          k = 0.5000-0.4768 0.0831 ( 13444 PWs)   bands (ev):

   -54.0298 -53.9505 -49.8234 -30.3821 -30.3320 -30.1772 -30.1063 -29.7647
   -29.6831 -27.9137 -21.7490 -21.7339 -21.7308 -16.1291 -16.1117 -14.2510
   -14.1569 -11.4937 -11.4420 -11.3911  -4.2255  -4.2078  -2.7022  -2.5674
    -2.4799  -2.3938  -0.7653  -0.7056  -0.0871   0.0131   0.7648   0.8091
     2.3635   2.4274   2.7372   2.9104   3.4854   3.5537   3.9060   3.9797
     4.2016   4.2371   5.7457   6.0908   6.7891   7.2844   7.9461   8.1157
     8.4740   8.7410   9.1454   9.2065   9.5614   9.8428  10.2286  10.5113
    10.6947  11.3159  11.7370  12.1931  12.2745  12.6585  12.9748  13.0860
    13.6673  14.1152  14.2234  14.5720  14.6904  14.9117

     occupation numbers 
     1.0000   1.0000   1.0000   1.0000   1.0000   1.0000   1.0000   1.0000
     1.0000   1.0000   1.0000   1.0000   1.0000   1.0000   1.0000   1.0000
     1.0000   1.0000   1.0000   1.0000   1.0000   1.0000   1.0000   1.0000
     1.0000   1.0000   1.0000   1.0000   1.0000   1.0000   1.0000   1.0000
     1.0000   1.0000   0.0000   0.0000   0.0000   0.0000   0.0000   0.0000
     0.0000   0.0000   0.0000   0.0000   0.0000   0.0000   0.0000   0.0000
     0.0000   0.0000   0.0000   0.0000   0.0000   0.0000   0.0000   0.0000
     0.0000   0.0000   0.0000   0.0000   0.0000   0.0000   0.0000   0.0000
     0.0000   0.0000   0.0000   0.0000   0.0000   0.0000

          k = 0.5000-0.4768 0.1662 ( 13458 PWs)   bands (ev):

   -54.0298 -53.9505 -49.8234 -30.3821 -30.3320 -30.1772 -30.1063 -29.7647
   -29.6831 -27.9137 -21.7491 -21.7339 -21.7308 -16.1304 -16.1104 -14.2510
   -14.1569 -11.4937 -11.4420 -11.3911  -4.2244  -4.2087  -2.6873  -2.5747
    -2.4773  -2.4063  -0.7662  -0.7061  -0.0706  -0.0008   0.7724   0.8020
     2.3631   2.4392   2.7663   2.8849   3.4744   3.5292   3.9144   3.9693
     4.2026   4.2361   5.8598   6.1029   6.6718   7.2687   7.9311   8.0401
     8.5067   8.8395   9.1376   9.1929   9.6002   9.8444  10.1899  10.5449
    10.7557  11.2895  11.6658  12.1709  12.4025  12.5323  12.9420  13.3443
    13.5882  13.8976  14.2428  14.4338  14.5864  14.9507

     occupation numbers 
     1.0000   1.0000   1.0000   1.0000   1.0000   1.0000   1.0000   1.0000
     1.0000   1.0000   1.0000   1.0000   1.0000   1.0000   1.0000   1.0000
     1.0000   1.0000   1.0000   1.0000   1.0000   1.0000   1.0000   1.0000
     1.0000   1.0000   1.0000   1.0000   1.0000   1.0000   1.0000   1.0000
     1.0000   1.0000   0.0000   0.0000   0.0000   0.0000   0.0000   0.0000
     0.0000   0.0000   0.0000   0.0000   0.0000   0.0000   0.0000   0.0000
     0.0000   0.0000   0.0000   0.0000   0.0000   0.0000   0.0000   0.0000
     0.0000   0.0000   0.0000   0.0000   0.0000   0.0000   0.0000   0.0000
     0.0000   0.0000   0.0000   0.0000   0.0000   0.0000

     highest occupied, lowest unoccupied level (ev):     2.5955    2.5024

!    total energy              =   -1057.35359087 Ry

     total all-electron energy =    -17411.010743 Ry
     estimated scf accuracy    <          8.8E-09 Ry

     The total energy is the sum of the following terms:
     one-electron contribution =    -453.88975346 Ry
     hartree contribution      =     244.53797467 Ry
     xc contribution           =     -91.87549194 Ry
     ewald contribution        =    -209.61625321 Ry
     one-center paw contrib.   =    -546.51006693 Ry
      -> PAW hartree energy AE =      67.29826024 Ry
      -> PAW hartree energy PS =     -66.86477075 Ry
      -> PAW xc energy AE      =    -235.76051337 Ry
      -> PAW xc energy PS      =      16.54323868 Ry
      -> total E_H with PAW    =     244.97146416 Ry
      -> total E_XC with PAW   =    -311.09276662 Ry

     convergence has been achieved in  16 iterations

     Forces acting on atoms (cartesian axes, Ry/au):

     atom    1 type  3   force =     0.18650970   -0.00011241   -0.25900334
     atom    2 type  4   force =    -0.14369426   -0.00005154    0.15327728
     atom    3 type  4   force =    -0.06958085    0.00015019    0.05521503
     atom    4 type  1   force =     0.02937628    0.00000404    0.02549046
     atom    5 type  3   force =     0.18774457   -0.00008274   -0.21398965
     atom    6 type  4   force =    -0.13667099   -0.00006364    0.15659440
     atom    7 type  4   force =    -0.07405894    0.00013016    0.05115557
     atom    8 type  2   force =     0.02037449    0.00002594    0.03126026
     The non-local contrib.  to forces
     atom    1 type  3   force =     0.12089705    0.00007844   -0.15185558
     atom    2 type  4   force =    -0.77435401   -0.00012722    0.65908227
     atom    3 type  4   force =    -0.27259646   -0.00076140    0.32082474
     atom    4 type  1   force =    -0.23466207    0.00018473   -0.18147061
     atom    5 type  3   force =     0.13544285    0.00008822   -0.16626277
     atom    6 type  4   force =    -0.73634408   -0.00016118    0.64530858
     atom    7 type  4   force =    -0.26412068   -0.00078834    0.29769193
     atom    8 type  2   force =    -0.05062697    0.00003964   -0.02286280
     The ionic contribution  to forces
     atom    1 type  3   force =    -5.53996955   -0.01140499    7.98717632
     atom    2 type  4   force =    10.13240707   -0.00178528   -5.40059254
     atom    3 type  4   force =    -1.70416491    0.01098449    0.85703681
     atom    4 type  1   force =    -2.87114759    0.00209124   -4.83908668
     atom    5 type  3   force =    -5.54008133   -0.01118844    7.97921976
     atom    6 type  4   force =     9.86999218   -0.00162829   -5.00563389
     atom    7 type  4   force =    -1.70422150    0.01098445    0.72968973
     atom    8 type  2   force =    -2.64281438    0.00194682   -2.30780950
     The local contribution  to forces
     atom    1 type  3   force =     5.61624249    0.01123390   -8.10617755
     atom    2 type  4   force =    -9.50870058    0.00185912    4.90079054
     atom    3 type  4   force =     1.90446134   -0.01007380   -1.12004111
     atom    4 type  1   force =     3.13521934   -0.00226994    5.04601528
     atom    5 type  3   force =     5.60339373    0.01103819   -8.03939913
     atom    6 type  4   force =    -9.27675247    0.00172315    4.52284179
     atom    7 type  4   force =     1.89165912   -0.01006698   -0.97376672
     atom    8 type  2   force =     2.71075927   -0.00195912    2.35961849
     The core correction contribution to forces
     atom    1 type  3   force =    -0.01069026   -0.00002030    0.01190964
     atom    2 type  4   force =     0.00694239    0.00000150   -0.00598629
     atom    3 type  4   force =     0.00270194    0.00000063   -0.00255170
     atom    4 type  1   force =     0.00009529   -0.00000010    0.00006297
     atom    5 type  3   force =    -0.01100852   -0.00002054    0.01236495
     atom    6 type  4   force =     0.00643074    0.00000197   -0.00593705
     atom    7 type  4   force =     0.00260013    0.00000089   -0.00246803
     atom    8 type  2   force =     0.00307448   -0.00000155    0.00235453
     The Hubbard contrib.    to forces
     atom    1 type  3   force =     0.00000000    0.00000000    0.00000000
     atom    2 type  4   force =     0.00000000    0.00000000    0.00000000
     atom    3 type  4   force =     0.00000000    0.00000000    0.00000000
     atom    4 type  1   force =     0.00000000    0.00000000    0.00000000
     atom    5 type  3   force =     0.00000000    0.00000000    0.00000000
     atom    6 type  4   force =     0.00000000    0.00000000    0.00000000
     atom    7 type  4   force =     0.00000000    0.00000000    0.00000000
     atom    8 type  2   force =     0.00000000    0.00000000    0.00000000
     The SCF correction term to forces
     atom    1 type  3   force =     0.00001691    0.00000046   -0.00005191
     atom    2 type  4   force =    -0.00000218    0.00000025   -0.00001244
     atom    3 type  4   force =     0.00000419    0.00000018   -0.00004946
     atom    4 type  1   force =    -0.00014174   -0.00000197   -0.00002625
     atom    5 type  3   force =    -0.00001523   -0.00000025    0.00009179
     atom    6 type  4   force =    -0.00001043    0.00000064    0.00001922
     atom    7 type  4   force =     0.00001093    0.00000006    0.00001292
     atom    8 type  2   force =    -0.00003098    0.00000008   -0.00003621

     Total force =     0.537725     Total SCF correction =     0.000195


     Computing stress (Cartesian axis) and pressure

          total   stress  (Ry/bohr**3)                   (kbar)     P=      -66.52
  -0.00053979  -0.00000018   0.00048120          -79.41       -0.03       70.79
  -0.00000018  -0.00027241   0.00000012           -0.03      -40.07        0.02
   0.00048120   0.00000012  -0.00054442           70.79        0.02      -80.09

     kinetic stress (kbar)  11594.60     -0.06    218.60
                               -0.06  11540.88      0.01
                              218.60      0.01  11678.48

     local   stress (kbar)  11315.47      1.34   3143.98
                                1.34 -31853.23      1.21
                             3143.98      1.21 -19290.75

     nonloc. stress (kbar)   2999.62      0.00    -42.43
                                0.00   3013.38      0.02
                              -42.43      0.02   2950.60

     hartree stress (kbar)  -3527.77     -0.56  -1181.12
                               -0.56  14691.18     -0.36
                            -1181.12     -0.36   9838.93

     exc-cor stress (kbar)  -1151.80     -0.00     -1.25
                               -0.00  -1133.53     -0.00
                               -1.25     -0.00  -1141.96

     corecor stress (kbar)  -1239.60      0.00      0.68
                                0.00  -1242.06     -0.00
                                0.68     -0.00  -1238.95

     ewald   stress (kbar) -20069.92     -0.74  -2067.68
                               -0.74   4943.31     -0.86
                            -2067.68     -0.86  -2876.43

     hubbard stress (kbar)      0.00      0.00      0.00
                                0.00      0.00      0.00
                                0.00      0.00      0.00

     DFT-D   stress (kbar)      0.00      0.00      0.00
                                0.00      0.00      0.00
                                0.00      0.00      0.00

     XDM     stress (kbar)      0.00      0.00      0.00
                                0.00      0.00      0.00
                                0.00      0.00      0.00

     dft-nl  stress (kbar)      0.00      0.00      0.00
                                0.00      0.00      0.00
                                0.00      0.00      0.00

     TS-vdW  stress (kbar)      0.00      0.00      0.00
                                0.00      0.00      0.00
                                0.00      0.00      0.00


                                0.00      0.00      0.00
                                0.00      0.00      0.00


                                0.00      0.00      0.00


     Writing all to output data dir ./knn/knn.save/

     init_run     :     34.19s CPU     18.06s WALL (       1 calls)
     electrons    :   2158.59s CPU   1098.86s WALL (       1 calls)
     forces       :     14.67s CPU      7.45s WALL (       1 calls)
     stress       :     67.95s CPU     37.53s WALL (       1 calls)

     Called by init_run:
     wfcinit      :     29.51s CPU     15.09s WALL (       1 calls)
     wfcinit:atom :      0.22s CPU      0.10s WALL (     112 calls)
     wfcinit:wfcr :     28.66s CPU     14.66s WALL (     112 calls)
     potinit      :      1.45s CPU      0.82s WALL (       1 calls)
     hinit0       :      2.00s CPU      1.41s WALL (       1 calls)

     Called by electrons:
     c_bands      :   1823.85s CPU    927.25s WALL (      16 calls)
     sum_band     :    320.00s CPU    163.86s WALL (      16 calls)
     v_of_rho     :      1.34s CPU      0.72s WALL (      17 calls)
     v_h          :      0.07s CPU      0.04s WALL (      17 calls)
     v_xc         :      1.48s CPU      0.79s WALL (      19 calls)
     newd         :     11.77s CPU      6.18s WALL (      17 calls)
     PAW_pot      :      2.51s CPU      1.34s WALL (      17 calls)
     mix_rho      :      0.38s CPU      0.20s WALL (      16 calls)

     Called by c_bands:
     init_us_2    :     14.61s CPU      7.25s WALL (    3920 calls)
     init_us_2:cp :     14.56s CPU      7.23s WALL (    3920 calls)
     cegterg      :   1792.52s CPU    911.50s WALL (    1792 calls)

     Called by sum_band:
     sum_band:wei :      0.00s CPU      0.00s WALL (      16 calls)
     sum_band:loo :    306.11s CPU    156.01s WALL (      16 calls)
     sum_band:buf :      3.76s CPU      2.28s WALL (    1792 calls)
     sum_band:ini :      8.34s CPU      4.08s WALL (    1792 calls)
     sum_band:cal :     28.39s CPU     14.36s WALL (    1792 calls)
     sum_band:bec :     14.25s CPU      6.89s WALL (    1792 calls)
     addusdens    :     12.25s CPU      6.89s WALL (      16 calls)
     addusd:skk   :      0.05s CPU      0.03s WALL (      64 calls)
     addusd:dgemm :      2.78s CPU      2.08s WALL (      64 calls)
     addusd:qvan2 :      8.92s CPU      4.52s WALL (      64 calls)

     Called by *egterg:
     cdiaghg      :    116.76s CPU     59.19s WALL (    7907 calls)
     cegterg:over :     98.23s CPU     49.93s WALL (    6115 calls)
     cegterg:upda :     99.24s CPU     49.02s WALL (    6115 calls)
     cegterg:last :    106.14s CPU     53.46s WALL (    3352 calls)
     cdiaghg:chol :      5.59s CPU      2.74s WALL (    7907 calls)
     cdiaghg:inve :      1.95s CPU      0.97s WALL (    7907 calls)
     cdiaghg:para :     10.70s CPU      5.79s WALL (   15814 calls)
     h_psi        :   1186.51s CPU    606.07s WALL (    8019 calls)
     s_psi        :     58.63s CPU     30.66s WALL (    8019 calls)
     g_psi        :      9.76s CPU      5.40s WALL (    6115 calls)

     Called by h_psi:
     h_psi:calbec :    101.53s CPU     51.38s WALL (    8019 calls)
     vloc_psi     :   1023.68s CPU    523.72s WALL (    8019 calls)
     add_vuspsi   :     43.73s CPU     22.17s WALL (    8019 calls)

     General routines
     calbec       :    157.88s CPU     83.01s WALL (   10371 calls)
     fft          :      2.48s CPU      1.48s WALL (     244 calls)
     ffts         :      0.36s CPU      0.25s WALL (      33 calls)
     fftw         :   1152.81s CPU    589.73s WALL (  709256 calls)
     interpolate  :      0.21s CPU      0.19s WALL (      17 calls)

     Parallel routines

     PAW routines
     PAW_pot      :      2.51s CPU      1.34s WALL (      17 calls)

     PWSCF        :  37m57.35s CPU  19m24.39s WALL


   This run was terminated on:  10:15:46   8Jul2025            

=------------------------------------------------------------------------------=
   JOB DONE.
=------------------------------------------------------------------------------=
