
     Program PWSCF v.7.0 starts on  8Jul2025 at  2:58:34 

     This program is part of the open-source Quantum ESPRESSO suite
     for quantum simulation of materials; please cite
         "P. Giannozzi et al., J. Phys.:Condens. Matter 21 395502 (2009);
         "P. Giannozzi et al., J. Phys.:Condens. Matter 29 465901 (2017);
         "P. Giannozzi et al., J. Chem. Phys. 152 154105 (2020);
          URL http://www.quantum-espresso.org", 
     in publications or presentations arising from this work. More details at
     http://www.quantum-espresso.org/quote

     Parallel version (MPI & OpenMP), running on      16 processor cores
     Number of MPI processes:                 8
     Threads/MPI process:                     2

     MPI processes distributed on     1 nodes
     R & G space division:  proc/nbgrp/npool/nimage =       8
     62951 MiB available memory on the printing compute node when the environment starts

     Waiting for input...
     Reading input from standard input

     Current dimensions of program PWSCF are:
     Max number of different atomic species (ntypx) = 10
     Max number of k-points (npk) =  40000
     Max angular momentum in pseudopotentials (lmaxx) =  4
     file Sn.pbe-dn-kjpaw_psl.1.0.0.UPF: wavefunction(s)  5S 5P 4D renormalized
     file O.pbe-n-kjpaw_psl.1.0.0.UPF: wavefunction(s)  2S 2P renormalized

     IMPORTANT: XC functional enforced from input :
     Exchange-correlation= PBE
                           (   1   4   3   4   0   0   0)
     Any further DFT definition will be discarded
     Please, verify this is what you really want


     Subspace diagonalization in iterative solution of the eigenvalue problem:
     one sub-group per band group will be used
     scalapack distributed-memory algorithm (size of sub-group:  2*  2 procs)


     Parallelization info
     --------------------
     sticks:   dense  smooth     PW     G-vecs:    dense   smooth      PW
     Min         387     193     57                10906     3851     627
     Max         389     194     59                10907     3854     628
     Sum        3109    1549    465                87255    30817    5017

     Using Slab Decomposition



     bravais-lattice index     =            6
     lattice parameter (alat)  =       9.0042  a.u.
     unit-cell volume          =     491.4235 (a.u.)^3
     number of atoms/cell      =            6
     number of atomic types    =            2
     number of electrons       =        52.00
     number of Kohn-Sham states=           40
     kinetic-energy cutoff     =      60.0000  Ry
     charge density cutoff     =     480.0000  Ry
     scf convergence threshold =      1.0E-06
     mixing beta               =       0.3000
     number of iterations used =            8  plain     mixing
     Exchange-correlation= PBE
                           (   1   4   3   4   0   0   0)

     celldm(1)=   9.004201  celldm(2)=   0.000000  celldm(3)=   0.673163
     celldm(4)=   0.000000  celldm(5)=   0.000000  celldm(6)=   0.000000

     crystal axes: (cart. coord. in units of alat)
               a(1) = (   1.000000   0.000000   0.000000 )  
               a(2) = (   0.000000   1.000000   0.000000 )  
               a(3) = (   0.000000   0.000000   0.673163 )  

     reciprocal axes: (cart. coord. in units 2 pi/alat)
               b(1) = (  1.000000  0.000000  0.000000 )  
               b(2) = (  0.000000  1.000000  0.000000 )  
               b(3) = (  0.000000  0.000000  1.485524 )  


     PseudoPot. # 1 for Sn read from file:
     ./Sn.pbe-dn-kjpaw_psl.1.0.0.UPF
     MD5 check sum: 2f92149585f6306fdaeeb1c6304ac66c
     Pseudo is Projector augmented-wave + core cor, Zval = 14.0
     Generated using &quot;atomic&quot; code by A. Dal Corso  v.6.3
     Shape of augmentation charge: PSQ
     Using radial grid of 1243 points,  6 beta functions with: 
                l(1) =   0
                l(2) =   0
                l(3) =   1
                l(4) =   1
                l(5) =   2
                l(6) =   2
     Q(r) pseudized with 0 coefficients 


     PseudoPot. # 2 for O  read from file:
     ./O.pbe-n-kjpaw_psl.1.0.0.UPF
     MD5 check sum: bad118ecf0cbddbdac989655ac72557d
     Pseudo is Projector augmented-wave + core cor, Zval =  6.0
     Generated using &quot;atomic&quot; code by A. Dal Corso  v.6.3
     Shape of augmentation charge: PSQ
     Using radial grid of 1095 points,  4 beta functions with: 
                l(1) =   0
                l(2) =   0
                l(3) =   1
                l(4) =   1
     Q(r) pseudized with 0 coefficients 


     atomic species   valence    mass     pseudopotential
        Sn            14.00   118.71000     Sn( 1.00)
        O              6.00    15.99900     O ( 1.00)

     16 Sym. Ops., with inversion, found ( 8 have fractional translation)


                                    s                        frac. trans.

      isym =  1     identity                                     

 cryst.   s( 1) = (     1          0          0      )
                  (     0          1          0      )
                  (     0          0          1      )

 cart.    s( 1) = (  1.0000000  0.0000000  0.0000000 )
                  (  0.0000000  1.0000000  0.0000000 )
                  (  0.0000000  0.0000000  1.0000000 )


      isym =  2     180 deg rotation - cart. axis [0,0,1]        

 cryst.   s( 2) = (    -1          0          0      )
                  (     0         -1          0      )
                  (     0          0          1      )

 cart.    s( 2) = ( -1.0000000  0.0000000  0.0000000 )
                  (  0.0000000 -1.0000000  0.0000000 )
                  (  0.0000000  0.0000000  1.0000000 )


      isym =  3     180 deg rotation - cart. axis [0,1,0]        

 cryst.   s( 3) = (    -1          0          0      )    f =(  0.5000000 )
                  (     0          1          0      )       (  0.5000000 )
                  (     0          0         -1      )       ( -0.5000000 )

 cart.    s( 3) = ( -1.0000000  0.0000000  0.0000000 )    f =(  0.5000000 )
                  (  0.0000000  1.0000000  0.0000000 )       (  0.5000000 )
                  (  0.0000000  0.0000000 -1.0000000 )       ( -0.3365816 )


      isym =  4     180 deg rotation - cart. axis [1,0,0]        

 cryst.   s( 4) = (     1          0          0      )    f =(  0.5000000 )
                  (     0         -1          0      )       (  0.5000000 )
                  (     0          0         -1      )       ( -0.5000000 )

 cart.    s( 4) = (  1.0000000  0.0000000  0.0000000 )    f =(  0.5000000 )
                  (  0.0000000 -1.0000000  0.0000000 )       (  0.5000000 )
                  (  0.0000000  0.0000000 -1.0000000 )       ( -0.3365816 )


      isym =  5     180 deg rotation - cart. axis [1,1,0]        

 cryst.   s( 5) = (     0          1          0      )
                  (     1          0          0      )
                  (     0          0         -1      )

 cart.    s( 5) = (  0.0000000  1.0000000  0.0000000 )
                  (  1.0000000  0.0000000  0.0000000 )
                  (  0.0000000  0.0000000 -1.0000000 )


      isym =  6     180 deg rotation - cart. axis [1,-1,0]       

 cryst.   s( 6) = (     0         -1          0      )
                  (    -1          0          0      )
                  (     0          0         -1      )

 cart.    s( 6) = (  0.0000000 -1.0000000  0.0000000 )
                  ( -1.0000000  0.0000000  0.0000000 )
                  (  0.0000000  0.0000000 -1.0000000 )


      isym =  7      90 deg rotation - cart. axis [0,0,-1]       

 cryst.   s( 7) = (     0         -1          0      )    f =(  0.5000000 )
                  (     1          0          0      )       (  0.5000000 )
                  (     0          0          1      )       ( -0.5000000 )

 cart.    s( 7) = (  0.0000000  1.0000000  0.0000000 )    f =(  0.5000000 )
                  ( -1.0000000  0.0000000  0.0000000 )       (  0.5000000 )
                  (  0.0000000  0.0000000  1.0000000 )       ( -0.3365816 )


      isym =  8      90 deg rotation - cart. axis [0,0,1]        

 cryst.   s( 8) = (     0          1          0      )    f =(  0.5000000 )
                  (    -1          0          0      )       (  0.5000000 )
                  (     0          0          1      )       ( -0.5000000 )

 cart.    s( 8) = (  0.0000000 -1.0000000  0.0000000 )    f =(  0.5000000 )
                  (  1.0000000  0.0000000  0.0000000 )       (  0.5000000 )
                  (  0.0000000  0.0000000  1.0000000 )       ( -0.3365816 )


      isym =  9     inversion                                    

 cryst.   s( 9) = (    -1          0          0      )
                  (     0         -1          0      )
                  (     0          0         -1      )

 cart.    s( 9) = ( -1.0000000  0.0000000  0.0000000 )
                  (  0.0000000 -1.0000000  0.0000000 )
                  (  0.0000000  0.0000000 -1.0000000 )


      isym = 10     inv. 180 deg rotation - cart. axis [0,0,1]   

 cryst.   s(10) = (     1          0          0      )
                  (     0          1          0      )
                  (     0          0         -1      )

 cart.    s(10) = (  1.0000000  0.0000000  0.0000000 )
                  (  0.0000000  1.0000000  0.0000000 )
                  (  0.0000000  0.0000000 -1.0000000 )


      isym = 11     inv. 180 deg rotation - cart. axis [0,1,0]   

 cryst.   s(11) = (     1          0          0      )    f =(  0.5000000 )
                  (     0         -1          0      )       (  0.5000000 )
                  (     0          0          1      )       ( -0.5000000 )

 cart.    s(11) = (  1.0000000  0.0000000  0.0000000 )    f =(  0.5000000 )
                  (  0.0000000 -1.0000000  0.0000000 )       (  0.5000000 )
                  (  0.0000000  0.0000000  1.0000000 )       ( -0.3365816 )


      isym = 12     inv. 180 deg rotation - cart. axis [1,0,0]   

 cryst.   s(12) = (    -1          0          0      )    f =(  0.5000000 )
                  (     0          1          0      )       (  0.5000000 )
                  (     0          0          1      )       ( -0.5000000 )

 cart.    s(12) = ( -1.0000000  0.0000000  0.0000000 )    f =(  0.5000000 )
                  (  0.0000000  1.0000000  0.0000000 )       (  0.5000000 )
                  (  0.0000000  0.0000000  1.0000000 )       ( -0.3365816 )


      isym = 13     inv. 180 deg rotation - cart. axis [1,1,0]   

 cryst.   s(13) = (     0         -1          0      )
                  (    -1          0          0      )
                  (     0          0          1      )

 cart.    s(13) = (  0.0000000 -1.0000000  0.0000000 )
                  ( -1.0000000  0.0000000  0.0000000 )
                  (  0.0000000  0.0000000  1.0000000 )


      isym = 14     inv. 180 deg rotation - cart. axis [1,-1,0]  

 cryst.   s(14) = (     0          1          0      )
                  (     1          0          0      )
                  (     0          0          1      )

 cart.    s(14) = (  0.0000000  1.0000000  0.0000000 )
                  (  1.0000000  0.0000000  0.0000000 )
                  (  0.0000000  0.0000000  1.0000000 )


      isym = 15     inv.  90 deg rotation - cart. axis [0,0,-1]  

 cryst.   s(15) = (     0          1          0      )    f =(  0.5000000 )
                  (    -1          0          0      )       (  0.5000000 )
                  (     0          0         -1      )       ( -0.5000000 )

 cart.    s(15) = (  0.0000000 -1.0000000  0.0000000 )    f =(  0.5000000 )
                  (  1.0000000  0.0000000  0.0000000 )       (  0.5000000 )
                  (  0.0000000  0.0000000 -1.0000000 )       ( -0.3365816 )


      isym = 16     inv.  90 deg rotation - cart. axis [0,0,1]   

 cryst.   s(16) = (     0         -1          0      )    f =(  0.5000000 )
                  (     1          0          0      )       (  0.5000000 )
                  (     0          0         -1      )       ( -0.5000000 )

 cart.    s(16) = (  0.0000000  1.0000000  0.0000000 )    f =(  0.5000000 )
                  ( -1.0000000  0.0000000  0.0000000 )       (  0.5000000 )
                  (  0.0000000  0.0000000 -1.0000000 )       ( -0.3365816 )


     point group D_4h(4/mmm)
     there are 10 classes
     the character table:

       E     2C4   C2    2C2'  2C2'' i     2S4   s_h   2s_v  2s_d 
A_1g   1.00  1.00  1.00  1.00  1.00  1.00  1.00  1.00  1.00  1.00
A_2g   1.00  1.00  1.00 -1.00 -1.00  1.00  1.00  1.00 -1.00 -1.00
B_1g   1.00 -1.00  1.00  1.00 -1.00  1.00 -1.00  1.00  1.00 -1.00
B_2g   1.00 -1.00  1.00 -1.00  1.00  1.00 -1.00  1.00 -1.00  1.00
E_g    2.00  0.00 -2.00  0.00  0.00  2.00  0.00 -2.00  0.00  0.00
A_1u   1.00  1.00  1.00  1.00  1.00 -1.00 -1.00 -1.00 -1.00 -1.00
A_2u   1.00  1.00  1.00 -1.00 -1.00 -1.00 -1.00 -1.00  1.00  1.00
B_1u   1.00 -1.00  1.00  1.00 -1.00 -1.00  1.00 -1.00 -1.00  1.00
B_2u   1.00 -1.00  1.00 -1.00  1.00 -1.00  1.00 -1.00  1.00 -1.00
E_u    2.00  0.00 -2.00  0.00  0.00 -2.00  0.00  2.00  0.00  0.00

     the symmetry operations in each class and the name of the first element:

     E        1
          identity                                               
     2C4      7    8
           90 deg rotation - cart. axis [0,0,-1]                 
     C2       2
          180 deg rotation - cart. axis [0,0,1]                  
     2C2'     3    4
          180 deg rotation - cart. axis [0,1,0]                  
     2C2''    5    6
          180 deg rotation - cart. axis [1,1,0]                  
     i        9
          inversion                                              
     2S4     15   16
          inv.  90 deg rotation - cart. axis [0,0,-1]            
     s_h     10
          inv. 180 deg rotation - cart. axis [0,0,1]             
     2s_v    11   12
          inv. 180 deg rotation - cart. axis [0,1,0]             
     2s_d    13   14
          inv. 180 deg rotation - cart. axis [1,1,0]             

   Cartesian axes

     site n.     atom                  positions (alat units)
         1           Sn  tau(   1) = (   0.5000000   0.5000000   0.3365816  )
         2           Sn  tau(   2) = (   0.0000000   0.0000000   0.0000000  )
         3           O   tau(   3) = (   0.8059723   0.1940277   0.3365816  )
         4           O   tau(   4) = (   0.1940277   0.8059723   0.3365816  )
         5           O   tau(   5) = (   0.3059723   0.3059723   0.0000000  )
         6           O   tau(   6) = (   0.6940277   0.6940277   0.0000000  )

   Crystallographic axes

     site n.     atom                  positions (cryst. coord.)
         1           Sn  tau(   1) = (  0.5000000  0.5000000  0.5000000  )
         2           Sn  tau(   2) = (  0.0000000  0.0000000  0.0000000  )
         3           O   tau(   3) = (  0.8059723  0.1940277  0.5000000  )
         4           O   tau(   4) = (  0.1940277  0.8059723  0.5000000  )
         5           O   tau(   5) = (  0.3059723  0.3059723  0.0000000  )
         6           O   tau(   6) = (  0.6940277  0.6940277  0.0000000  )

     number of k points=    40
                       cart. coord. in units 2pi/alat
        k(    1) = (   0.0000000   0.0000000   0.0000000), wk =   0.0092593
        k(    2) = (   0.0000000   0.0000000   0.2475873), wk =   0.0185185
        k(    3) = (   0.0000000   0.0000000   0.4951747), wk =   0.0185185
        k(    4) = (   0.0000000   0.0000000  -0.7427620), wk =   0.0092593
        k(    5) = (   0.0000000   0.1666667   0.0000000), wk =   0.0370370
        k(    6) = (   0.0000000   0.1666667   0.2475873), wk =   0.0740741
        k(    7) = (   0.0000000   0.1666667   0.4951747), wk =   0.0740741
        k(    8) = (   0.0000000   0.1666667  -0.7427620), wk =   0.0370370
        k(    9) = (   0.0000000   0.3333333   0.0000000), wk =   0.0370370
        k(   10) = (   0.0000000   0.3333333   0.2475873), wk =   0.0740741
        k(   11) = (   0.0000000   0.3333333   0.4951747), wk =   0.0740741
        k(   12) = (   0.0000000   0.3333333  -0.7427620), wk =   0.0370370
        k(   13) = (   0.0000000  -0.5000000   0.0000000), wk =   0.0185185
        k(   14) = (   0.0000000  -0.5000000   0.2475873), wk =   0.0370370
        k(   15) = (   0.0000000  -0.5000000   0.4951747), wk =   0.0370370
        k(   16) = (   0.0000000  -0.5000000  -0.7427620), wk =   0.0185185
        k(   17) = (   0.1666667   0.1666667   0.0000000), wk =   0.0370370
        k(   18) = (   0.1666667   0.1666667   0.2475873), wk =   0.0740741
        k(   19) = (   0.1666667   0.1666667   0.4951747), wk =   0.0740741
        k(   20) = (   0.1666667   0.1666667  -0.7427620), wk =   0.0370370
        k(   21) = (   0.1666667   0.3333333   0.0000000), wk =   0.0740741
        k(   22) = (   0.1666667   0.3333333   0.2475873), wk =   0.1481481
        k(   23) = (   0.1666667   0.3333333   0.4951747), wk =   0.1481481
        k(   24) = (   0.1666667   0.3333333  -0.7427620), wk =   0.0740741
        k(   25) = (   0.1666667  -0.5000000   0.0000000), wk =   0.0370370
        k(   26) = (   0.1666667  -0.5000000   0.2475873), wk =   0.0740741
        k(   27) = (   0.1666667  -0.5000000   0.4951747), wk =   0.0740741
        k(   28) = (   0.1666667  -0.5000000  -0.7427620), wk =   0.0370370
        k(   29) = (   0.3333333   0.3333333   0.0000000), wk =   0.0370370
        k(   30) = (   0.3333333   0.3333333   0.2475873), wk =   0.0740741
        k(   31) = (   0.3333333   0.3333333   0.4951747), wk =   0.0740741
        k(   32) = (   0.3333333   0.3333333  -0.7427620), wk =   0.0370370
        k(   33) = (   0.3333333  -0.5000000   0.0000000), wk =   0.0370370
        k(   34) = (   0.3333333  -0.5000000   0.2475873), wk =   0.0740741
        k(   35) = (   0.3333333  -0.5000000   0.4951747), wk =   0.0740741
        k(   36) = (   0.3333333  -0.5000000  -0.7427620), wk =   0.0370370
        k(   37) = (  -0.5000000  -0.5000000   0.0000000), wk =   0.0092593
        k(   38) = (  -0.5000000  -0.5000000   0.2475873), wk =   0.0185185
        k(   39) = (  -0.5000000  -0.5000000   0.4951747), wk =   0.0185185
        k(   40) = (  -0.5000000  -0.5000000  -0.7427620), wk =   0.0092593

                       cryst. coord.
        k(    1) = (   0.0000000   0.0000000   0.0000000), wk =   0.0092593
        k(    2) = (   0.0000000   0.0000000   0.1666667), wk =   0.0185185
        k(    3) = (   0.0000000   0.0000000   0.3333333), wk =   0.0185185
        k(    4) = (   0.0000000   0.0000000  -0.5000000), wk =   0.0092593
        k(    5) = (   0.0000000   0.1666667   0.0000000), wk =   0.0370370
        k(    6) = (   0.0000000   0.1666667   0.1666667), wk =   0.0740741
        k(    7) = (   0.0000000   0.1666667   0.3333333), wk =   0.0740741
        k(    8) = (   0.0000000   0.1666667  -0.5000000), wk =   0.0370370
        k(    9) = (   0.0000000   0.3333333   0.0000000), wk =   0.0370370
        k(   10) = (   0.0000000   0.3333333   0.1666667), wk =   0.0740741
        k(   11) = (   0.0000000   0.3333333   0.3333333), wk =   0.0740741
        k(   12) = (   0.0000000   0.3333333  -0.5000000), wk =   0.0370370
        k(   13) = (   0.0000000  -0.5000000   0.0000000), wk =   0.0185185
        k(   14) = (   0.0000000  -0.5000000   0.1666667), wk =   0.0370370
        k(   15) = (   0.0000000  -0.5000000   0.3333333), wk =   0.0370370
        k(   16) = (   0.0000000  -0.5000000  -0.5000000), wk =   0.0185185
        k(   17) = (   0.1666667   0.1666667   0.0000000), wk =   0.0370370
        k(   18) = (   0.1666667   0.1666667   0.1666667), wk =   0.0740741
        k(   19) = (   0.1666667   0.1666667   0.3333333), wk =   0.0740741
        k(   20) = (   0.1666667   0.1666667  -0.5000000), wk =   0.0370370
        k(   21) = (   0.1666667   0.3333333   0.0000000), wk =   0.0740741
        k(   22) = (   0.1666667   0.3333333   0.1666667), wk =   0.1481481
        k(   23) = (   0.1666667   0.3333333   0.3333333), wk =   0.1481481
        k(   24) = (   0.1666667   0.3333333  -0.5000000), wk =   0.0740741
        k(   25) = (   0.1666667  -0.5000000   0.0000000), wk =   0.0370370
        k(   26) = (   0.1666667  -0.5000000   0.1666667), wk =   0.0740741
        k(   27) = (   0.1666667  -0.5000000   0.3333333), wk =   0.0740741
        k(   28) = (   0.1666667  -0.5000000  -0.5000000), wk =   0.0370370
        k(   29) = (   0.3333333   0.3333333   0.0000000), wk =   0.0370370
        k(   30) = (   0.3333333   0.3333333   0.1666667), wk =   0.0740741
        k(   31) = (   0.3333333   0.3333333   0.3333333), wk =   0.0740741
        k(   32) = (   0.3333333   0.3333333  -0.5000000), wk =   0.0370370
        k(   33) = (   0.3333333  -0.5000000   0.0000000), wk =   0.0370370
        k(   34) = (   0.3333333  -0.5000000   0.1666667), wk =   0.0740741
        k(   35) = (   0.3333333  -0.5000000   0.3333333), wk =   0.0740741
        k(   36) = (   0.3333333  -0.5000000  -0.5000000), wk =   0.0370370
        k(   37) = (  -0.5000000  -0.5000000   0.0000000), wk =   0.0092593
        k(   38) = (  -0.5000000  -0.5000000   0.1666667), wk =   0.0185185
        k(   39) = (  -0.5000000  -0.5000000   0.3333333), wk =   0.0185185
        k(   40) = (  -0.5000000  -0.5000000  -0.5000000), wk =   0.0092593

     Dense  grid:    87255 G-vectors     FFT dimensions: (  64,  64,  48)

     Smooth grid:    30817 G-vectors     FFT dimensions: (  48,  48,  30)

     Dynamical RAM for                 wfc:       0.29 MB

     Dynamical RAM for     wfc (w. buffer):      12.06 MB

     Dynamical RAM for           str. fact:       0.33 MB

     Dynamical RAM for           local pot:       0.00 MB

     Dynamical RAM for          nlocal pot:       0.50 MB

     Dynamical RAM for                qrad:       3.52 MB

     Dynamical RAM for          rho,v,vnew:       1.06 MB

     Dynamical RAM for               rhoin:       0.35 MB

     Dynamical RAM for            rho*nmix:       2.66 MB

     Dynamical RAM for           G-vectors:       0.65 MB

     Dynamical RAM for          h,s,v(r/c):       0.07 MB

     Dynamical RAM for          <psi|beta>:       0.04 MB

     Dynamical RAM for                 psi:       0.59 MB

     Dynamical RAM for                hpsi:       0.59 MB

     Dynamical RAM for                spsi:       0.59 MB

     Dynamical RAM for      wfcinit/wfcrot:       0.63 MB

     Dynamical RAM for           addusdens:      31.62 MB

     Estimated static dynamical RAM per process >      19.92 MB

     Estimated max dynamical RAM per process >      54.20 MB

     Estimated total dynamical RAM >     433.60 MB

     Initial potential from superposition of free atoms

     starting charge      51.9972, renormalised to      52.0000
     Starting wfcs are   34 randomized atomic wfcs +    6 random wfcs
     Checking if some PAW data can be deallocated... 
       PAW data deallocated on    4 nodes for type:  1
       PAW data deallocated on    4 nodes for type:  2

     total cpu time spent up to now is        6.6 secs

     per-process dynamical memory:    37.7 Mb

     Self-consistent Calculation

     iteration #  1     ecut=    60.00 Ry     beta= 0.30
     Davidson diagonalization with overlap

---- Real-time Memory Report at c_bands before calling an iterative solver
           128 MiB given to the printing process from OS
            36 MiB allocation reported by mallinfo(arena+hblkhd)
         63290 MiB available memory on the node where the printing process lives
------------------
     ethr =  1.00E-02,  avg # of iterations =  7.9

     total cpu time spent up to now is       57.8 secs

     total energy              =   -1050.62430062 Ry
     estimated scf accuracy    <       1.65085147 Ry

     iteration #  2     ecut=    60.00 Ry     beta= 0.30
     Davidson diagonalization with overlap

---- Real-time Memory Report at c_bands before calling an iterative solver
           148 MiB given to the printing process from OS
            69 MiB allocation reported by mallinfo(arena+hblkhd)
         62974 MiB available memory on the node where the printing process lives
------------------
     ethr =  3.17E-03,  avg # of iterations =  1.9

     total cpu time spent up to now is       77.8 secs

     total energy              =   -1050.80814623 Ry
     estimated scf accuracy    <       0.11396334 Ry

     iteration #  3     ecut=    60.00 Ry     beta= 0.30
     Davidson diagonalization with overlap

---- Real-time Memory Report at c_bands before calling an iterative solver
           148 MiB given to the printing process from OS
            69 MiB allocation reported by mallinfo(arena+hblkhd)
         62915 MiB available memory on the node where the printing process lives
------------------
     ethr =  2.19E-04,  avg # of iterations =  5.5

     total cpu time spent up to now is      115.3 secs

     total energy              =   -1050.88572459 Ry
     estimated scf accuracy    <       0.04922984 Ry

     iteration #  4     ecut=    60.00 Ry     beta= 0.30
     Davidson diagonalization with overlap

---- Real-time Memory Report at c_bands before calling an iterative solver
           148 MiB given to the printing process from OS
            69 MiB allocation reported by mallinfo(arena+hblkhd)
         62914 MiB available memory on the node where the printing process lives
------------------
     ethr =  9.47E-05,  avg # of iterations =  2.8

     total cpu time spent up to now is      145.7 secs

     total energy              =   -1050.89401316 Ry
     estimated scf accuracy    <       0.01432289 Ry

     iteration #  5     ecut=    60.00 Ry     beta= 0.30
     Davidson diagonalization with overlap

---- Real-time Memory Report at c_bands before calling an iterative solver
           148 MiB given to the printing process from OS
            69 MiB allocation reported by mallinfo(arena+hblkhd)
         63008 MiB available memory on the node where the printing process lives
------------------
     ethr =  2.75E-05,  avg # of iterations =  5.2

     total cpu time spent up to now is      178.3 secs

     total energy              =   -1050.89617060 Ry
     estimated scf accuracy    <       0.00046762 Ry

     iteration #  6     ecut=    60.00 Ry     beta= 0.30
     Davidson diagonalization with overlap

---- Real-time Memory Report at c_bands before calling an iterative solver
           148 MiB given to the printing process from OS
            69 MiB allocation reported by mallinfo(arena+hblkhd)
         62873 MiB available memory on the node where the printing process lives
------------------
     c_bands:  1 eigenvalues not converged
     ethr =  8.99E-07,  avg # of iterations =  6.4

     total cpu time spent up to now is      220.8 secs

     total energy              =   -1050.89625437 Ry
     estimated scf accuracy    <       0.00022330 Ry

     iteration #  7     ecut=    60.00 Ry     beta= 0.30
     Davidson diagonalization with overlap

---- Real-time Memory Report at c_bands before calling an iterative solver
           149 MiB given to the printing process from OS
            69 MiB allocation reported by mallinfo(arena+hblkhd)
         62690 MiB available memory on the node where the printing process lives
------------------
     ethr =  4.29E-07,  avg # of iterations =  4.3

     total cpu time spent up to now is      256.9 secs

     total energy              =   -1050.89632861 Ry
     estimated scf accuracy    <       0.00004476 Ry

     iteration #  8     ecut=    60.00 Ry     beta= 0.30
     Davidson diagonalization with overlap

---- Real-time Memory Report at c_bands before calling an iterative solver
           149 MiB given to the printing process from OS
            69 MiB allocation reported by mallinfo(arena+hblkhd)
         62148 MiB available memory on the node where the printing process lives
------------------
     ethr =  8.61E-08,  avg # of iterations =  4.2

     total cpu time spent up to now is      290.3 secs

     total energy              =   -1050.89631306 Ry
     estimated scf accuracy    <       0.00004886 Ry

     iteration #  9     ecut=    60.00 Ry     beta= 0.30
     Davidson diagonalization with overlap

---- Real-time Memory Report at c_bands before calling an iterative solver
           149 MiB given to the printing process from OS
            69 MiB allocation reported by mallinfo(arena+hblkhd)
         62587 MiB available memory on the node where the printing process lives
------------------
     ethr =  8.61E-08,  avg # of iterations =  2.0

     total cpu time spent up to now is      316.1 secs

     End of self-consistent calculation

          k = 0.0000 0.0000 0.0000 (  3863 PWs)   bands (ev):

   -11.7940 -11.0577 -10.8318 -10.8001 -10.8001 -10.7324 -10.6922 -10.6123
   -10.5787 -10.5787  -9.5060  -7.6952  -7.6952  -5.9820   1.2511   5.3472
     5.3472   5.4678   6.3132   7.3958   7.4302   8.1113   8.1113   8.6298
     8.6298   9.3602  10.3809  15.3669  15.6153  15.6153  19.7371  19.7658
    21.3424  21.3424  21.8486  21.9124  24.3055  26.2249  28.3118  28.7854

     occupation numbers 
     1.0000   1.0000   1.0000   1.0000   1.0000   1.0000   1.0000   1.0000
     1.0000   1.0000   1.0000   1.0000   1.0000   1.0000   1.0000   1.0000
     1.0000   1.0000   1.0000   1.0000   1.0000   1.0000   1.0000   1.0000
     1.0000   1.0000   0.0000   0.0000   0.0000   0.0000   0.0000   0.0000
     0.0000   0.0000   0.0000   0.0000   0.0000   0.0000   0.0000   0.0000

          k = 0.0000 0.0000 0.2476 (  3835 PWs)   bands (ev):

   -11.6733 -11.0232 -11.0232 -10.9282 -10.7856 -10.7510 -10.6824 -10.6130
   -10.6089 -10.6089  -9.3478  -7.3156  -7.3156  -6.1861   1.2489   5.2617
     5.5878   5.5878   5.8451   6.4947   7.1828   7.2266   7.2266   8.6328
     8.6328   9.1410  11.8980  15.8461  16.6909  16.6909  18.4804  21.0090
    21.2399  21.2399  21.4825  21.8730  23.9649  24.5463  26.1936  26.1936

     occupation numbers 
     1.0000   1.0000   1.0000   1.0000   1.0000   1.0000   1.0000   1.0000
     1.0000   1.0000   1.0000   1.0000   1.0000   1.0000   1.0000   1.0000
     1.0000   1.0000   1.0000   1.0000   1.0000   1.0000   1.0000   1.0000
     1.0000   1.0000   0.0000   0.0000   0.0000   0.0000   0.0000   0.0000
     0.0000   0.0000   0.0000   0.0000   0.0000   0.0000   0.0000   0.0000

          k = 0.0000 0.0000 0.4952 (  3855 PWs)   bands (ev):

   -11.3879 -11.3855 -11.3855 -10.8990 -10.6751 -10.6591 -10.6584 -10.6584
   -10.6512 -10.6188  -8.7836  -6.8305  -6.6252  -6.6252   1.4237   3.7598
     5.1664   5.7052   5.7052   6.3708   6.3708   6.4313   7.0091   8.3920
     8.3920   8.5449  13.9301  16.1052  18.1348  18.6767  18.6767  20.4150
    20.8521  20.8521  21.8501  22.0547  22.9215  23.8129  24.4886  24.4887

     occupation numbers 
     1.0000   1.0000   1.0000   1.0000   1.0000   1.0000   1.0000   1.0000
     1.0000   1.0000   1.0000   1.0000   1.0000   1.0000   1.0000   1.0000
     1.0000   1.0000   1.0000   1.0000   1.0000   1.0000   1.0000   1.0000
     1.0000   1.0000   0.0000   0.0000   0.0000   0.0000   0.0000   0.0000
     0.0000   0.0000   0.0000   0.0000   0.0000   0.0000   0.0000   0.0000

          k = 0.0000 0.0000-0.7428 (  3830 PWs)   bands (ev):

   -11.5377 -11.5377 -11.0956 -11.0956 -10.6815 -10.6815 -10.6345 -10.6345
   -10.5894 -10.5893  -7.8220  -7.8220  -6.2927  -6.2927   2.2023   2.2023
     5.1822   5.1822   5.6148   5.6148   6.7397   6.7397   7.7553   7.7553
     8.1343   8.1343  15.3458  15.3458  19.0314  19.0314  19.9694  19.9694
    20.2671  20.2671  22.0949  22.0949  23.1229  23.1229  24.0097  24.0097

     occupation numbers 
     1.0000   1.0000   1.0000   1.0000   1.0000   1.0000   1.0000   1.0000
     1.0000   1.0000   1.0000   1.0000   1.0000   1.0000   1.0000   1.0000
     1.0000   1.0000   1.0000   1.0000   1.0000   1.0000   1.0000   1.0000
     1.0000   1.0000   0.0000   0.0000   0.0000   0.0000   0.0000   0.0000
     0.0000   0.0000   0.0000   0.0000   0.0000   0.0000   0.0000   0.0000

          k = 0.0000 0.1667 0.0000 (  3870 PWs)   bands (ev):

   -11.7534 -11.1038 -10.8314 -10.7983 -10.7982 -10.7662 -10.6864 -10.6164
   -10.5811 -10.5809  -9.4202  -7.8733  -7.5397  -6.0427   1.4349   4.8529
     5.4806   5.5717   6.4692   7.2138   7.6125   8.0658   8.1205   8.1435
     8.6458   9.2254  11.1000  15.1161  15.7396  15.8717  19.9718  20.0234
    21.0941  21.3680  21.8836  21.9006  23.8995  26.3489  26.8615  27.7649

     occupation numbers 
     1.0000   1.0000   1.0000   1.0000   1.0000   1.0000   1.0000   1.0000
     1.0000   1.0000   1.0000   1.0000   1.0000   1.0000   1.0000   1.0000
     1.0000   1.0000   1.0000   1.0000   1.0000   1.0000   1.0000   1.0000
     1.0000   1.0000   0.0000   0.0000   0.0000   0.0000   0.0000   0.0000
     0.0000   0.0000   0.0000   0.0000   0.0000   0.0000   0.0000   0.0000

          k = 0.0000 0.1667 0.2476 (  3864 PWs)   bands (ev):

   -11.6429 -11.1064 -11.0160 -10.9199 -10.7813 -10.7408 -10.6777 -10.6179
   -10.6093 -10.6063  -9.2603  -7.5404  -7.1945  -6.1732   1.4423   4.9500
     4.9898   5.6841   6.1008   6.5411   7.1001   7.3609   7.5827   8.4947
     8.6193   9.0883  12.2403  15.6716  16.7755  16.8323  18.6506  20.8437
    21.0817  21.3881  21.5640  21.8391  23.5194  24.6834  25.4894  26.7175

     occupation numbers 
     1.0000   1.0000   1.0000   1.0000   1.0000   1.0000   1.0000   1.0000
     1.0000   1.0000   1.0000   1.0000   1.0000   1.0000   1.0000   1.0000
     1.0000   1.0000   1.0000   1.0000   1.0000   1.0000   1.0000   1.0000
     1.0000   1.0000   0.0000   0.0000   0.0000   0.0000   0.0000   0.0000
     0.0000   0.0000   0.0000   0.0000   0.0000   0.0000   0.0000   0.0000

          k = 0.0000 0.1667 0.4952 (  3839 PWs)   bands (ev):

   -11.5160 -11.4431 -11.2175 -10.8541 -10.6826 -10.6668 -10.6587 -10.6460
   -10.6451 -10.6195  -8.7420  -7.2240  -6.5536  -6.3653   1.5873   3.6434
     4.6713   5.3474   5.7218   5.7948   6.8038   7.2187   7.2588   8.3530
     8.4498   8.5886  14.0656  16.0443  18.0423  18.5122  18.7476  20.0767
    20.9439  21.1494  21.8170  22.0262  22.9331  23.0959  24.2632  25.6289

     occupation numbers 
     1.0000   1.0000   1.0000   1.0000   1.0000   1.0000   1.0000   1.0000
     1.0000   1.0000   1.0000   1.0000   1.0000   1.0000   1.0000   1.0000
     1.0000   1.0000   1.0000   1.0000   1.0000   1.0000   1.0000   1.0000
     1.0000   1.0000   0.0000   0.0000   0.0000   0.0000   0.0000   0.0000
     0.0000   0.0000   0.0000   0.0000   0.0000   0.0000   0.0000   0.0000

          k = 0.0000 0.1667-0.7428 (  3832 PWs)   bands (ev):

   -11.5984 -11.5984 -11.0106 -11.0106 -10.6850 -10.6850 -10.6325 -10.6325
   -10.5852 -10.5852  -7.8933  -7.8933  -6.2375  -6.2375   2.2516   2.2516
     4.8475   4.8475   5.3526   5.3526   7.2745   7.2745   7.8583   7.8583
     8.1658   8.1658  15.3907  15.3907  18.4940  18.4940  20.0412  20.0412
    20.6429  20.6429  22.1480  22.1480  22.6030  22.6030  24.4239  24.4239

     occupation numbers 
     1.0000   1.0000   1.0000   1.0000   1.0000   1.0000   1.0000   1.0000
     1.0000   1.0000   1.0000   1.0000   1.0000   1.0000   1.0000   1.0000
     1.0000   1.0000   1.0000   1.0000   1.0000   1.0000   1.0000   1.0000
     1.0000   1.0000   0.0000   0.0000   0.0000   0.0000   0.0000   0.0000
     0.0000   0.0000   0.0000   0.0000   0.0000   0.0000   0.0000   0.0000

          k = 0.0000 0.3333 0.0000 (  3856 PWs)   bands (ev):

   -11.6351 -11.2532 -10.8295 -10.8082 -10.7940 -10.7939 -10.6702 -10.6299
   -10.5852 -10.5852  -9.1653  -8.2930  -7.1489  -6.2724   1.9796   3.8585
     5.8556   5.8670   6.7930   6.8899   7.1887   7.7310   8.1440   8.1739
     8.6873   8.9374  12.3599  14.5499  16.0885  16.2497  20.2029  20.5496
    20.7371  21.5620  21.8454  22.2448  22.9151  24.7801  26.6977  27.1738

     occupation numbers 
     1.0000   1.0000   1.0000   1.0000   1.0000   1.0000   1.0000   1.0000
     1.0000   1.0000   1.0000   1.0000   1.0000   1.0000   1.0000   1.0000
     1.0000   1.0000   1.0000   1.0000   1.0000   1.0000   1.0000   1.0000
     1.0000   1.0000   0.0000   0.0000   0.0000   0.0000   0.0000   0.0000
     0.0000   0.0000   0.0000   0.0000   0.0000   0.0000   0.0000   0.0000

          k = 0.0000 0.3333 0.2476 (  3868 PWs)   bands (ev):

   -11.5545 -11.2596 -10.9951 -10.9351 -10.7687 -10.7381 -10.6638 -10.6299
   -10.6093 -10.6051  -8.9889  -8.0287  -6.8900  -6.2657   2.0039   3.9254
     4.8077   5.2941   6.5200   6.9813   6.9858   7.6692   7.8812   8.1698
     8.5959   8.8920  13.1199  15.1169  17.0581  17.1471  18.9451  20.0093
    21.3341  21.6895  21.7614  21.8875  22.7768  24.0170  25.2523  27.1474

     occupation numbers 
     1.0000   1.0000   1.0000   1.0000   1.0000   1.0000   1.0000   1.0000
     1.0000   1.0000   1.0000   1.0000   1.0000   1.0000   1.0000   1.0000
     1.0000   1.0000   1.0000   1.0000   1.0000   1.0000   1.0000   1.0000
     1.0000   1.0000   0.0000   0.0000   0.0000   0.0000   0.0000   0.0000
     0.0000   0.0000   0.0000   0.0000   0.0000   0.0000   0.0000   0.0000

          k = 0.0000 0.3333 0.4952 (  3852 PWs)   bands (ev):

   -11.5884 -11.5385 -11.0364 -10.8203 -10.6913 -10.6805 -10.6508 -10.6402
   -10.6326 -10.6214  -8.5733  -7.7496  -6.3880  -6.2096   2.0516   3.3149
     4.1766   4.4360   5.7050   5.7084   7.5510   7.6075   7.7512   8.3144
     8.4768   8.6762  14.4989  15.7719  17.8717  18.0955  18.9416  19.6970
    21.2335  21.4255  21.7907  21.8671  22.2633  23.0437  24.3589  26.3472

     occupation numbers 
     1.0000   1.0000   1.0000   1.0000   1.0000   1.0000   1.0000   1.0000
     1.0000   1.0000   1.0000   1.0000   1.0000   1.0000   1.0000   1.0000
     1.0000   1.0000   1.0000   1.0000   1.0000   1.0000   1.0000   1.0000
     1.0000   1.0000   0.0000   0.0000   0.0000   0.0000   0.0000   0.0000
     0.0000   0.0000   0.0000   0.0000   0.0000   0.0000   0.0000   0.0000

          k = 0.0000 0.3333-0.7428 (  3838 PWs)   bands (ev):

   -11.6848 -11.6848 -10.8769 -10.8769 -10.6873 -10.6873 -10.6293 -10.6293
   -10.5771 -10.5771  -8.0288  -8.0288  -6.1369  -6.1369   2.3869   2.3869
     4.1679   4.1679   5.2490   5.2490   7.6418   7.6418   8.1519   8.1519
     8.4168   8.4168  15.5111  15.5111  17.6924  17.6924  20.1872  20.1872
    21.1061  21.1061  21.9471  21.9471  22.1684  22.1684  24.9134  24.9134

     occupation numbers 
     1.0000   1.0000   1.0000   1.0000   1.0000   1.0000   1.0000   1.0000
     1.0000   1.0000   1.0000   1.0000   1.0000   1.0000   1.0000   1.0000
     1.0000   1.0000   1.0000   1.0000   1.0000   1.0000   1.0000   1.0000
     1.0000   1.0000   0.0000   0.0000   0.0000   0.0000   0.0000   0.0000
     0.0000   0.0000   0.0000   0.0000   0.0000   0.0000   0.0000   0.0000

          k = 0.0000-0.5000 0.0000 (  3858 PWs)   bands (ev):

   -11.4551 -11.4551 -10.8243 -10.8243 -10.7919 -10.7919 -10.6495 -10.6495
   -10.5877 -10.5877  -8.7666  -8.7666  -6.6760  -6.6760   2.8295   2.8295
     6.3029   6.3029   6.4349   6.4349   7.4131   7.4131   8.1685   8.1685
     8.7575   8.7575  13.5962  13.5962  16.3815  16.3815  20.2086  20.2086
    21.7647  21.7648  21.7764  21.7764  23.1875  23.1875  27.1991  27.1991

     occupation numbers 
     1.0000   1.0000   1.0000   1.0000   1.0000   1.0000   1.0000   1.0000
     1.0000   1.0000   1.0000   1.0000   1.0000   1.0000   1.0000   1.0000
     1.0000   1.0000   1.0000   1.0000   1.0000   1.0000   1.0000   1.0000
     1.0000   1.0000   0.0000   0.0000   0.0000   0.0000   0.0000   0.0000
     0.0000   0.0000   0.0000   0.0000   0.0000   0.0000   0.0000   0.0000

          k = 0.0000-0.5000 0.2476 (  3852 PWs)   bands (ev):

   -11.4195 -11.4195 -10.9649 -10.9649 -10.7515 -10.7515 -10.6463 -10.6463
   -10.6074 -10.6074  -8.5540  -8.5540  -6.5337  -6.5337   2.8690   2.8690
     4.9488   4.9488   6.7517   6.7517   7.6373   7.6373   7.9463   7.9463
     8.6539   8.6539  14.1947  14.1947  17.3123  17.3123  19.2723  19.2723
    21.7782  21.7782  21.9539  21.9539  22.7065  22.7065  26.3693  26.3693

     occupation numbers 
     1.0000   1.0000   1.0000   1.0000   1.0000   1.0000   1.0000   1.0000
     1.0000   1.0000   1.0000   1.0000   1.0000   1.0000   1.0000   1.0000
     1.0000   1.0000   1.0000   1.0000   1.0000   1.0000   1.0000   1.0000
     1.0000   1.0000   0.0000   0.0000   0.0000   0.0000   0.0000   0.0000
     0.0000   0.0000   0.0000   0.0000   0.0000   0.0000   0.0000   0.0000

          k = 0.0000-0.5000 0.4952 (  3854 PWs)   bands (ev):

   -11.5950 -11.5950 -10.8865 -10.8865 -10.6914 -10.6914 -10.6423 -10.6423
   -10.6242 -10.6242  -8.2300  -8.2300  -6.2376  -6.2376   2.7166   2.7166
     4.0378   4.0378   5.6817   5.6817   7.7469   7.7469   8.2492   8.2492
     8.5337   8.5337  15.1748  15.1748  17.8335  17.8335  19.2728  19.2728
    21.6466  21.6466  21.7114  21.7114  22.2607  22.2607  25.4954  25.4954

     occupation numbers 
     1.0000   1.0000   1.0000   1.0000   1.0000   1.0000   1.0000   1.0000
     1.0000   1.0000   1.0000   1.0000   1.0000   1.0000   1.0000   1.0000
     1.0000   1.0000   1.0000   1.0000   1.0000   1.0000   1.0000   1.0000
     1.0000   1.0000   0.0000   0.0000   0.0000   0.0000   0.0000   0.0000
     0.0000   0.0000   0.0000   0.0000   0.0000   0.0000   0.0000   0.0000

          k = 0.0000-0.5000-0.7428 (  3840 PWs)   bands (ev):

   -11.7190 -11.7190 -10.8224 -10.8224 -10.6840 -10.6840 -10.6274 -10.6274
   -10.5726 -10.5726  -8.0943  -8.0943  -6.0905  -6.0905   2.4884   2.4884
     3.8498   3.8498   5.2198   5.2198   7.6470   7.6470   8.3111   8.3111
     8.6411   8.6411  15.6037  15.6037  17.3045  17.3045  20.2725  20.2725
    21.4948  21.4948  21.5025  21.5025  22.0746  22.0746  25.1943  25.1944

     occupation numbers 
     1.0000   1.0000   1.0000   1.0000   1.0000   1.0000   1.0000   1.0000
     1.0000   1.0000   1.0000   1.0000   1.0000   1.0000   1.0000   1.0000
     1.0000   1.0000   1.0000   1.0000   1.0000   1.0000   1.0000   1.0000
     1.0000   1.0000   0.0000   0.0000   0.0000   0.0000   0.0000   0.0000
     0.0000   0.0000   0.0000   0.0000   0.0000   0.0000   0.0000   0.0000

          k = 0.1667 0.1667 0.0000 (  3864 PWs)   bands (ev):

   -11.7216 -11.1561 -10.8303 -10.8005 -10.7936 -10.7841 -10.6813 -10.6203
   -10.5853 -10.5783  -9.3274  -7.7247  -7.7140  -6.1247   1.6297   4.7400
     5.3613   5.6668   6.5939   7.0852   7.6548   7.7722   8.0919   8.1735
     8.5997   9.1156  11.6087  14.9301  15.9729  15.9897  19.9640  20.2541
    21.0486  21.3709  21.8398  22.0594  23.5825  26.4591  26.5599  27.2573

     occupation numbers 
     1.0000   1.0000   1.0000   1.0000   1.0000   1.0000   1.0000   1.0000
     1.0000   1.0000   1.0000   1.0000   1.0000   1.0000   1.0000   1.0000
     1.0000   1.0000   1.0000   1.0000   1.0000   1.0000   1.0000   1.0000
     1.0000   1.0000   0.0000   0.0000   0.0000   0.0000   0.0000   0.0000
     0.0000   0.0000   0.0000   0.0000   0.0000   0.0000   0.0000   0.0000

          k = 0.1667 0.1667 0.2476 (  3869 PWs)   bands (ev):

   -11.6165 -11.1534 -11.0253 -10.9236 -10.7812 -10.7342 -10.6730 -10.6214
   -10.6085 -10.6075  -9.1628  -7.4771  -7.3424  -6.1955   1.6328   4.3506
     5.5445   5.6218   5.8549   6.5097   7.1052   7.3892   7.8246   8.3750
     8.6101   9.0560  12.5343  15.4874  16.9009  16.9646  18.6971  20.8029
    20.9373  21.5560  21.6986  21.7997  23.1017  24.7655  25.8005  26.2527

     occupation numbers 
     1.0000   1.0000   1.0000   1.0000   1.0000   1.0000   1.0000   1.0000
     1.0000   1.0000   1.0000   1.0000   1.0000   1.0000   1.0000   1.0000
     1.0000   1.0000   1.0000   1.0000   1.0000   1.0000   1.0000   1.0000
     1.0000   1.0000   0.0000   0.0000   0.0000   0.0000   0.0000   0.0000
     0.0000   0.0000   0.0000   0.0000   0.0000   0.0000   0.0000   0.0000

          k = 0.1667 0.1667 0.4952 (  3841 PWs)   bands (ev):

   -11.5730 -11.3885 -11.2396 -10.8232 -10.6872 -10.6659 -10.6598 -10.6469
   -10.6386 -10.6206  -8.6844  -7.3167  -6.6474  -6.2422   1.6983   3.4560
     4.3279   5.4929   5.5082   6.2849   6.2866   7.4180   7.6636   8.4234
     8.4263   8.6210  14.1412  15.8988  17.7870  18.6880  18.7559  20.2399
    20.5306  21.3822  21.8679  22.1248  22.5756  23.2472  24.1275  26.2326

     occupation numbers 
     1.0000   1.0000   1.0000   1.0000   1.0000   1.0000   1.0000   1.0000
     1.0000   1.0000   1.0000   1.0000   1.0000   1.0000   1.0000   1.0000
     1.0000   1.0000   1.0000   1.0000   1.0000   1.0000   1.0000   1.0000
     1.0000   1.0000   0.0000   0.0000   0.0000   0.0000   0.0000   0.0000
     0.0000   0.0000   0.0000   0.0000   0.0000   0.0000   0.0000   0.0000

          k = 0.1667 0.1667-0.7428 (  3842 PWs)   bands (ev):

   -11.6834 -11.5409 -11.1008 -10.8700 -10.6884 -10.6856 -10.6329 -10.6296
   -10.5847 -10.5803  -8.0474  -7.7798  -6.3124  -6.1295   1.9766   2.5404
     4.2760   4.8786   4.9509   6.1611   6.7466   7.9529   7.9607   7.9638
     8.0933   8.2416  15.1086  15.6075  17.5675  19.3215  19.7634  20.1253
    20.1854  21.2948  22.1294  22.2817  22.2906  22.7868  23.6556  25.4550

     occupation numbers 
     1.0000   1.0000   1.0000   1.0000   1.0000   1.0000   1.0000   1.0000
     1.0000   1.0000   1.0000   1.0000   1.0000   1.0000   1.0000   1.0000
     1.0000   1.0000   1.0000   1.0000   1.0000   1.0000   1.0000   1.0000
     1.0000   1.0000   0.0000   0.0000   0.0000   0.0000   0.0000   0.0000
     0.0000   0.0000   0.0000   0.0000   0.0000   0.0000   0.0000   0.0000

          k = 0.1667 0.3333 0.0000 (  3853 PWs)   bands (ev):

   -11.6271 -11.3006 -10.8264 -10.8071 -10.7988 -10.7918 -10.6665 -10.6315
   -10.5875 -10.5803  -9.0553  -8.1472  -7.3263  -6.3979   2.1913   3.9867
     5.6705   5.9350   6.7489   6.9424   6.9933   7.7252   8.0982   8.1717
     8.6094   8.8632  12.6452  14.4905  16.2585  16.3548  19.9927  20.6199
    20.8910  21.5212  21.8005  22.5996  22.7800  24.7902  26.7712  27.1091

     occupation numbers 
     1.0000   1.0000   1.0000   1.0000   1.0000   1.0000   1.0000   1.0000
     1.0000   1.0000   1.0000   1.0000   1.0000   1.0000   1.0000   1.0000
     1.0000   1.0000   1.0000   1.0000   1.0000   1.0000   1.0000   1.0000
     1.0000   1.0000   0.0000   0.0000   0.0000   0.0000   0.0000   0.0000
     0.0000   0.0000   0.0000   0.0000   0.0000   0.0000   0.0000   0.0000

          k = 0.1667 0.3333 0.2476 (  3859 PWs)   bands (ev):

   -11.5395 -11.2786 -11.0122 -10.9465 -10.7729 -10.7391 -10.6606 -10.6310
   -10.6096 -10.6068  -8.8723  -7.9005  -7.0699  -6.3538   2.1686   3.7248
     5.1863   5.3152   6.3856   6.6734   6.9794   7.6810   8.0384   8.0694
     8.5877   8.9031  13.2857  14.9849  17.1786  17.2338  18.8747  20.1492
    21.1075  21.6821  21.7925  22.2490  22.5126  24.5212  25.2139  26.6536

     occupation numbers 
     1.0000   1.0000   1.0000   1.0000   1.0000   1.0000   1.0000   1.0000
     1.0000   1.0000   1.0000   1.0000   1.0000   1.0000   1.0000   1.0000
     1.0000   1.0000   1.0000   1.0000   1.0000   1.0000   1.0000   1.0000
     1.0000   1.0000   0.0000   0.0000   0.0000   0.0000   0.0000   0.0000
     0.0000   0.0000   0.0000   0.0000   0.0000   0.0000   0.0000   0.0000

          k = 0.1667 0.3333 0.4952 (  3866 PWs)   bands (ev):

   -11.6001 -11.4718 -11.1150 -10.8371 -10.6915 -10.6752 -10.6529 -10.6404
   -10.6336 -10.6233  -8.4792  -7.6725  -6.5365  -6.2064   2.0009   2.9456
     4.2636   5.0227   5.4186   5.8398   7.2154   7.7457   7.9959   8.3467
     8.4767   8.6707  14.4035  15.4479  17.7312  18.4950  18.9547  19.8273
    20.8046  21.5282  21.8477  21.9753  22.4023  23.4856  24.1539  26.7741

     occupation numbers 
     1.0000   1.0000   1.0000   1.0000   1.0000   1.0000   1.0000   1.0000
     1.0000   1.0000   1.0000   1.0000   1.0000   1.0000   1.0000   1.0000
     1.0000   1.0000   1.0000   1.0000   1.0000   1.0000   1.0000   1.0000
     1.0000   1.0000   0.0000   0.0000   0.0000   0.0000   0.0000   0.0000
     0.0000   0.0000   0.0000   0.0000   0.0000   0.0000   0.0000   0.0000

          k = 0.1667 0.3333-0.7428 (  3850 PWs)   bands (ev):

   -11.7189 -11.6028 -11.0196 -10.8157 -10.6902 -10.6862 -10.6307 -10.6276
   -10.5780 -10.5763  -8.0948  -7.8332  -6.2626  -6.0886   1.9046   2.4448
     4.0841   4.6113   4.8972   5.7881   7.3883   7.9813   8.1158   8.2558
     8.2921   8.5000  14.9462  15.4219  17.2788  18.5943  19.9960  20.2404
    20.5778  21.3976  21.8241  22.3036  22.4257  22.5057  24.1335  25.9669

     occupation numbers 
     1.0000   1.0000   1.0000   1.0000   1.0000   1.0000   1.0000   1.0000
     1.0000   1.0000   1.0000   1.0000   1.0000   1.0000   1.0000   1.0000
     1.0000   1.0000   1.0000   1.0000   1.0000   1.0000   1.0000   1.0000
     1.0000   1.0000   0.0000   0.0000   0.0000   0.0000   0.0000   0.0000
     0.0000   0.0000   0.0000   0.0000   0.0000   0.0000   0.0000   0.0000

          k = 0.1667-0.5000 0.0000 (  3860 PWs)   bands (ev):

   -11.4775 -11.4775 -10.8195 -10.8194 -10.7946 -10.7945 -10.6484 -10.6484
   -10.5849 -10.5849  -8.6366  -8.6366  -6.8370  -6.8370   3.0314   3.0314
     6.2640   6.2640   6.3251   6.3251   7.4123   7.4123   8.1361   8.1361
     8.6825   8.6825  13.6993  13.6993  16.4854  16.4854  20.1751  20.1751
    21.7283  21.7283  21.7961  21.7961  23.3796  23.3796  27.2248  27.2248

     occupation numbers 
     1.0000   1.0000   1.0000   1.0000   1.0000   1.0000   1.0000   1.0000
     1.0000   1.0000   1.0000   1.0000   1.0000   1.0000   1.0000   1.0000
     1.0000   1.0000   1.0000   1.0000   1.0000   1.0000   1.0000   1.0000
     1.0000   1.0000   0.0000   0.0000   0.0000   0.0000   0.0000   0.0000
     0.0000   0.0000   0.0000   0.0000   0.0000   0.0000   0.0000   0.0000

          k = 0.1667-0.5000 0.2476 (  3860 PWs)   bands (ev):

   -11.4202 -11.4202 -10.9814 -10.9814 -10.7566 -10.7566 -10.6452 -10.6452
   -10.6084 -10.6084  -8.4244  -8.4244  -6.6787  -6.6787   2.9355   2.9355
     5.0980   5.0980   6.6136   6.6136   7.4803   7.4803   8.0064   8.0064
     8.6818   8.6818  14.1979  14.1979  17.3658  17.3658  19.3416  19.3416
    21.6287  21.6287  21.8204  21.8204  23.2565  23.2565  26.1426  26.1426

     occupation numbers 
     1.0000   1.0000   1.0000   1.0000   1.0000   1.0000   1.0000   1.0000
     1.0000   1.0000   1.0000   1.0000   1.0000   1.0000   1.0000   1.0000
     1.0000   1.0000   1.0000   1.0000   1.0000   1.0000   1.0000   1.0000
     1.0000   1.0000   0.0000   0.0000   0.0000   0.0000   0.0000   0.0000
     0.0000   0.0000   0.0000   0.0000   0.0000   0.0000   0.0000   0.0000

          k = 0.1667-0.5000 0.4952 (  3854 PWs)   bands (ev):

   -11.5637 -11.5637 -10.9506 -10.9506 -10.6861 -10.6861 -10.6431 -10.6431
   -10.6273 -10.6273  -8.1157  -8.1157  -6.3307  -6.3307   2.4301   2.4301
     4.5200   4.5200   5.5439   5.5439   7.8527   7.8527   8.1609   8.1609
     8.5464   8.5464  14.8749  14.8749  18.0451  18.0451  19.3192  19.3192
    21.2650  21.2650  21.8659  21.8659  22.7855  22.7855  25.5345  25.5345

     occupation numbers 
     1.0000   1.0000   1.0000   1.0000   1.0000   1.0000   1.0000   1.0000
     1.0000   1.0000   1.0000   1.0000   1.0000   1.0000   1.0000   1.0000
     1.0000   1.0000   1.0000   1.0000   1.0000   1.0000   1.0000   1.0000
     1.0000   1.0000   0.0000   0.0000   0.0000   0.0000   0.0000   0.0000
     0.0000   0.0000   0.0000   0.0000   0.0000   0.0000   0.0000   0.0000

          k = 0.1667-0.5000-0.7428 (  3828 PWs)   bands (ev):

   -11.6871 -11.6871 -10.8832 -10.8832 -10.6874 -10.6874 -10.6278 -10.6278
   -10.5752 -10.5752  -7.9924  -7.9924  -6.1483  -6.1483   2.0915   2.0915
     4.3106   4.3106   5.2140   5.2140   7.8067   7.8067   8.3637   8.3637
     8.4859   8.4859  15.0456  15.0456  17.7392  17.7392  20.2272  20.2272
    21.0280  21.0280  21.9203  21.9203  22.4833  22.4833  25.2924  25.2924

     occupation numbers 
     1.0000   1.0000   1.0000   1.0000   1.0000   1.0000   1.0000   1.0000
     1.0000   1.0000   1.0000   1.0000   1.0000   1.0000   1.0000   1.0000
     1.0000   1.0000   1.0000   1.0000   1.0000   1.0000   1.0000   1.0000
     1.0000   1.0000   0.0000   0.0000   0.0000   0.0000   0.0000   0.0000
     0.0000   0.0000   0.0000   0.0000   0.0000   0.0000   0.0000   0.0000

          k = 0.3333 0.3333 0.0000 (  3870 PWs)   bands (ev):

   -11.5932 -11.4094 -10.8186 -10.8074 -10.8018 -10.7947 -10.6576 -10.6373
   -10.5845 -10.5779  -8.7425  -7.7837  -7.7404  -6.7544   2.7643   4.0573
     5.4544   6.1212   6.4598   6.6048   7.1394   7.6458   8.0534   8.1265
     8.5247   8.6814  13.2745  14.3115  16.5437  16.5797  19.9330  20.5207
    21.3054  21.5290  21.8121  22.3989  23.0127  24.1929  26.7177  26.9733

     occupation numbers 
     1.0000   1.0000   1.0000   1.0000   1.0000   1.0000   1.0000   1.0000
     1.0000   1.0000   1.0000   1.0000   1.0000   1.0000   1.0000   1.0000
     1.0000   1.0000   1.0000   1.0000   1.0000   1.0000   1.0000   1.0000
     1.0000   1.0000   0.0000   0.0000   0.0000   0.0000   0.0000   0.0000
     0.0000   0.0000   0.0000   0.0000   0.0000   0.0000   0.0000   0.0000

          k = 0.3333 0.3333 0.2476 (  3862 PWs)   bands (ev):

   -11.4944 -11.3389 -11.0286 -10.9788 -10.7731 -10.7505 -10.6524 -10.6352
   -10.6103 -10.6083  -8.5467  -7.6678  -7.3960  -6.6346   2.5882   3.4337
     5.3437   5.7040   6.1718   6.4526   6.7648   7.6510   7.9058   8.2846
     8.5438   8.8297  13.7080  14.6629  17.3786  17.3883  19.0253  20.3460
    20.6232  21.7244  21.8643  21.8715  23.3124  25.0782  25.2517  25.7423

     occupation numbers 
     1.0000   1.0000   1.0000   1.0000   1.0000   1.0000   1.0000   1.0000
     1.0000   1.0000   1.0000   1.0000   1.0000   1.0000   1.0000   1.0000
     1.0000   1.0000   1.0000   1.0000   1.0000   1.0000   1.0000   1.0000
     1.0000   1.0000   0.0000   0.0000   0.0000   0.0000   0.0000   0.0000
     0.0000   0.0000   0.0000   0.0000   0.0000   0.0000   0.0000   0.0000

          k = 0.3333 0.3333 0.4952 (  3856 PWs)   bands (ev):

   -11.5662 -11.3940 -11.2092 -10.9377 -10.6851 -10.6646 -10.6598 -10.6377
   -10.6370 -10.6273  -8.2100  -7.6123  -6.6916  -6.3294   1.9682   2.4184
     4.8706   5.1469   5.1502   6.3657   6.7280   8.0555   8.1349   8.2589
     8.4984   8.6889  14.2921  14.8360  17.9398  18.5865  19.0957  20.0468
    20.3073  21.2295  21.8743  22.2035  23.4652  23.8695  24.2008  27.1364

     occupation numbers 
     1.0000   1.0000   1.0000   1.0000   1.0000   1.0000   1.0000   1.0000
     1.0000   1.0000   1.0000   1.0000   1.0000   1.0000   1.0000   1.0000
     1.0000   1.0000   1.0000   1.0000   1.0000   1.0000   1.0000   1.0000
     1.0000   1.0000   0.0000   0.0000   0.0000   0.0000   0.0000   0.0000
     0.0000   0.0000   0.0000   0.0000   0.0000   0.0000   0.0000   0.0000

          k = 0.3333 0.3333-0.7428 (  3850 PWs)   bands (ev):

   -11.6883 -11.5474 -11.1087 -10.8824 -10.6889 -10.6867 -10.6304 -10.6275
   -10.5801 -10.5777  -7.9747  -7.6934  -6.3516  -6.1523   1.6001   1.9558
     4.5645   4.5773   4.8938   6.7683   6.7829   8.2342   8.2805   8.2855
     8.3509   8.4620  14.4499  14.7053  17.6288  18.7392  19.8422  20.2817
    20.5563  20.9695  21.9091  22.5901  23.1624  23.6254  23.6806  27.1939

     occupation numbers 
     1.0000   1.0000   1.0000   1.0000   1.0000   1.0000   1.0000   1.0000
     1.0000   1.0000   1.0000   1.0000   1.0000   1.0000   1.0000   1.0000
     1.0000   1.0000   1.0000   1.0000   1.0000   1.0000   1.0000   1.0000
     1.0000   1.0000   0.0000   0.0000   0.0000   0.0000   0.0000   0.0000
     0.0000   0.0000   0.0000   0.0000   0.0000   0.0000   0.0000   0.0000

          k = 0.3333-0.5000 0.0000 (  3870 PWs)   bands (ev):

   -11.5190 -11.5190 -10.8112 -10.8112 -10.7997 -10.7997 -10.6465 -10.6465
   -10.5798 -10.5798  -8.2810  -8.2810  -7.2530  -7.2530   3.5146   3.5146
     5.8295   5.8295   6.3719   6.3719   7.4199   7.4199   8.0691   8.0691
     8.5424   8.5424  13.9031  13.9031  16.6829  16.6829  20.2035  20.2035
    21.7656  21.7656  21.8594  21.8594  23.2618  23.2618  26.8732  26.8732

     occupation numbers 
     1.0000   1.0000   1.0000   1.0000   1.0000   1.0000   1.0000   1.0000
     1.0000   1.0000   1.0000   1.0000   1.0000   1.0000   1.0000   1.0000
     1.0000   1.0000   1.0000   1.0000   1.0000   1.0000   1.0000   1.0000
     1.0000   1.0000   0.0000   0.0000   0.0000   0.0000   0.0000   0.0000
     0.0000   0.0000   0.0000   0.0000   0.0000   0.0000   0.0000   0.0000

          k = 0.3333-0.5000 0.2476 (  3870 PWs)   bands (ev):

   -11.4219 -11.4219 -11.0140 -11.0140 -10.7647 -10.7647 -10.6427 -10.6427
   -10.6096 -10.6096  -8.0812  -8.0812  -7.0539  -7.0539   3.0683   3.0683
     5.4777   5.4777   6.3904   6.3904   7.0397   7.0397   8.2040   8.2040
     8.6444   8.6444  14.2161  14.2161  17.4541  17.4541  19.6382  19.6382
    21.0710  21.0710  21.9596  21.9596  24.1818  24.1818  25.7253  25.7253

     occupation numbers 
     1.0000   1.0000   1.0000   1.0000   1.0000   1.0000   1.0000   1.0000
     1.0000   1.0000   1.0000   1.0000   1.0000   1.0000   1.0000   1.0000
     1.0000   1.0000   1.0000   1.0000   1.0000   1.0000   1.0000   1.0000
     1.0000   1.0000   0.0000   0.0000   0.0000   0.0000   0.0000   0.0000
     0.0000   0.0000   0.0000   0.0000   0.0000   0.0000   0.0000   0.0000

          k = 0.3333-0.5000 0.4952 (  3866 PWs)   bands (ev):

   -11.4771 -11.4771 -11.0974 -11.0974 -10.6742 -10.6742 -10.6483 -10.6483
   -10.6320 -10.6320  -7.8505  -7.8505  -6.5586  -6.5586   2.0884   2.0884
     5.0351   5.0351   5.7059   5.7059   7.4979   7.4979   8.3002   8.3002
     8.5979   8.5979  14.4098  14.4098  18.2847  18.2847  19.5337  19.5337
    20.6732  20.6732  22.1982  22.1982  23.8747  23.8747  25.5300  25.5300

     occupation numbers 
     1.0000   1.0000   1.0000   1.0000   1.0000   1.0000   1.0000   1.0000
     1.0000   1.0000   1.0000   1.0000   1.0000   1.0000   1.0000   1.0000
     1.0000   1.0000   1.0000   1.0000   1.0000   1.0000   1.0000   1.0000
     1.0000   1.0000   0.0000   0.0000   0.0000   0.0000   0.0000   0.0000
     0.0000   0.0000   0.0000   0.0000   0.0000   0.0000   0.0000   0.0000

          k = 0.3333-0.5000-0.7428 (  3848 PWs)   bands (ev):

   -11.6069 -11.6069 -11.0250 -11.0250 -10.6864 -10.6864 -10.6288 -10.6288
   -10.5803 -10.5803  -7.7729  -7.7729  -6.2857  -6.2857   1.6158   1.6158
     4.4818   4.4818   5.8637   5.8637   7.7083   7.7083   8.3488   8.3488
     8.4874   8.4874  14.3191  14.3191  18.1516  18.1516  20.1783  20.1783
    20.6143  20.6143  22.2960  22.2960  23.5635  23.5635  25.3772  25.3772

     occupation numbers 
     1.0000   1.0000   1.0000   1.0000   1.0000   1.0000   1.0000   1.0000
     1.0000   1.0000   1.0000   1.0000   1.0000   1.0000   1.0000   1.0000
     1.0000   1.0000   1.0000   1.0000   1.0000   1.0000   1.0000   1.0000
     1.0000   1.0000   0.0000   0.0000   0.0000   0.0000   0.0000   0.0000
     0.0000   0.0000   0.0000   0.0000   0.0000   0.0000   0.0000   0.0000

          k =-0.5000-0.5000 0.0000 (  3896 PWs)   bands (ev):

   -11.5386 -11.5386 -10.8081 -10.8080 -10.8022 -10.8022 -10.6456 -10.6456
   -10.5776 -10.5776  -7.8134  -7.8134  -7.7500  -7.7500   3.8401   3.8401
     5.5231   5.5231   6.3966   6.3966   7.4276   7.4276   8.0343   8.0343
     8.4757   8.4757  14.0052  14.0052  16.7719  16.7719  20.2780  20.2780
    21.8913  21.8913  21.9425  21.9425  22.8112  22.8112  26.6566  26.6566

     occupation numbers 
     1.0000   1.0000   1.0000   1.0000   1.0000   1.0000   1.0000   1.0000
     1.0000   1.0000   1.0000   1.0000   1.0000   1.0000   1.0000   1.0000
     1.0000   1.0000   1.0000   1.0000   1.0000   1.0000   1.0000   1.0000
     1.0000   1.0000   0.0000   0.0000   0.0000   0.0000   0.0000   0.0000
     0.0000   0.0000   0.0000   0.0000   0.0000   0.0000   0.0000   0.0000

          k =-0.5000-0.5000 0.2476 (  3864 PWs)   bands (ev):

   -11.4227 -11.4227 -11.0300 -11.0300 -10.7678 -10.7678 -10.6414 -10.6414
   -10.6099 -10.6099  -7.7288  -7.7288  -7.4227  -7.4227   3.1352   3.1352
     5.7373   5.7373   6.4341   6.4341   6.6037   6.6037   8.4186   8.4186
     8.4959   8.4959  14.2309  14.2309  17.4856  17.4856  20.0542  20.0543
    20.5585  20.5585  22.0643  22.0643  24.5989  24.5989  26.0219  26.0230

     occupation numbers 
     1.0000   1.0000   1.0000   1.0000   1.0000   1.0000   1.0000   1.0000
     1.0000   1.0000   1.0000   1.0000   1.0000   1.0000   1.0000   1.0000
     1.0000   1.0000   1.0000   1.0000   1.0000   1.0000   1.0000   1.0000
     1.0000   1.0000   0.0000   0.0000   0.0000   0.0000   0.0000   0.0000
     0.0000   0.0000   0.0000   0.0000   0.0000   0.0000   0.0000   0.0000

          k =-0.5000-0.5000 0.4952 (  3880 PWs)   bands (ev):

   -11.3970 -11.3970 -11.2055 -11.2055 -10.6606 -10.6606 -10.6598 -10.6598
   -10.6334 -10.6334  -7.6791  -7.6791  -6.7136  -6.7136   1.9649   1.9649
     4.9913   4.9913   6.4344   6.4344   6.8650   6.8650   8.5153   8.5153
     8.5369   8.5369  14.2205  14.2205  18.3344  18.3344  19.8794  19.8794
    20.1897  20.1897  22.3875  22.3875  25.0404  25.0404  25.2235  25.2235

     occupation numbers 
     1.0000   1.0000   1.0000   1.0000   1.0000   1.0000   1.0000   1.0000
     1.0000   1.0000   1.0000   1.0000   1.0000   1.0000   1.0000   1.0000
     1.0000   1.0000   1.0000   1.0000   1.0000   1.0000   1.0000   1.0000
     1.0000   1.0000   0.0000   0.0000   0.0000   0.0000   0.0000   0.0000
     0.0000   0.0000   0.0000   0.0000   0.0000   0.0000   0.0000   0.0000

          k =-0.5000-0.5000-0.7428 (  3832 PWs)   bands (ev):

   -11.5502 -11.5502 -11.1113 -11.1113 -10.6839 -10.6839 -10.6290 -10.6290
   -10.5828 -10.5828  -7.6492  -7.6492  -6.3708  -6.3708   1.4385   1.4385
     4.4187   4.4187   6.8084   6.8084   6.9674   6.9674   8.4326   8.4326
     8.5579   8.5579  14.0373  14.0373  18.2420  18.2420  20.2647  20.2647
    20.3580  20.3580  22.4705  22.4705  24.6321  24.6321  25.0754  25.0756

     occupation numbers 
     1.0000   1.0000   1.0000   1.0000   1.0000   1.0000   1.0000   1.0000
     1.0000   1.0000   1.0000   1.0000   1.0000   1.0000   1.0000   1.0000
     1.0000   1.0000   1.0000   1.0000   1.0000   1.0000   1.0000   1.0000
     1.0000   1.0000   0.0000   0.0000   0.0000   0.0000   0.0000   0.0000
     0.0000   0.0000   0.0000   0.0000   0.0000   0.0000   0.0000   0.0000

     highest occupied, lowest unoccupied level (ev):     9.3602   10.3809

!    total energy              =   -1050.89632210 Ry

     total all-electron energy =    -25311.539456 Ry
     estimated scf accuracy    <       0.00000034 Ry

     The total energy is the sum of the following terms:
     one-electron contribution =    -123.28258563 Ry
     hartree contribution      =     105.22614198 Ry
     xc contribution           =    -126.78183750 Ry
     ewald contribution        =    -305.76311463 Ry
     one-center paw contrib.   =    -600.29492632 Ry
      -> PAW hartree energy AE =     107.97765919 Ry
      -> PAW hartree energy PS =    -107.24975121 Ry
      -> PAW xc energy AE      =    -328.98163469 Ry
      -> PAW xc energy PS      =      47.28285530 Ry
      -> total E_H with PAW    =     105.95404996 Ry
      -> total E_XC with PAW   =    -408.48061689 Ry

     convergence has been achieved in   9 iterations

     Writing all to output data dir ./tmp/SnO2.save/

     init_run     :     11.35s CPU      6.49s WALL (       1 calls)
     electrons    :    543.94s CPU    309.51s WALL (       1 calls)

     Called by init_run:
     wfcinit      :     10.03s CPU      5.56s WALL (       1 calls)
     wfcinit:atom :      0.27s CPU      0.14s WALL (      40 calls)
     wfcinit:wfcr :      9.56s CPU      5.32s WALL (      40 calls)
     potinit      :      0.47s CPU      0.32s WALL (       1 calls)
     hinit0       :      0.52s CPU      0.37s WALL (       1 calls)

     Called by electrons:
     c_bands      :    473.68s CPU    269.62s WALL (       9 calls)
     sum_band     :     66.86s CPU     37.93s WALL (       9 calls)
     v_of_rho     :      0.37s CPU      0.22s WALL (      10 calls)
     v_h          :      0.03s CPU      0.02s WALL (      10 calls)
     v_xc         :      0.34s CPU      0.20s WALL (      10 calls)
     newd         :      2.22s CPU      1.26s WALL (      10 calls)
     PAW_pot      :      1.10s CPU      0.64s WALL (      10 calls)
     mix_rho      :      0.08s CPU      0.05s WALL (       9 calls)

     Called by c_bands:
     init_us_2    :      2.85s CPU      1.53s WALL (     760 calls)
     init_us_2:cp :      2.85s CPU      1.53s WALL (     760 calls)
     cegterg      :    466.35s CPU    265.53s WALL (     360 calls)

     Called by sum_band:
     sum_band:wei :      0.00s CPU      0.00s WALL (       9 calls)
     sum_band:loo :     62.94s CPU     35.64s WALL (       9 calls)
     sum_band:buf :      0.06s CPU      0.04s WALL (     360 calls)
     sum_band:ini :      1.31s CPU      0.72s WALL (     360 calls)
     sum_band:cal :      7.33s CPU      4.06s WALL (     360 calls)
     sum_band:bec :      7.83s CPU      4.25s WALL (     360 calls)
     addusdens    :      2.69s CPU      1.54s WALL (       9 calls)
     addusd:skk   :      0.06s CPU      0.03s WALL (      18 calls)
     addusd:dgemm :      0.53s CPU      0.36s WALL (      18 calls)
     addusd:qvan2 :      2.00s CPU      1.08s WALL (      18 calls)

     Called by *egterg:
     cdiaghg      :     23.96s CPU     13.58s WALL (    1963 calls)
     cegterg:over :     32.40s CPU     18.24s WALL (    1603 calls)
     cegterg:upda :     32.65s CPU     17.93s WALL (    1603 calls)
     cegterg:last :     29.59s CPU     16.57s WALL (     802 calls)
     cdiaghg:chol :      2.15s CPU      1.20s WALL (    1963 calls)
     cdiaghg:inve :      0.44s CPU      0.25s WALL (    1963 calls)
     cdiaghg:para :      2.43s CPU      1.42s WALL (    3926 calls)
     h_psi        :    287.33s CPU    165.72s WALL (    2003 calls)
     s_psi        :      7.46s CPU      4.36s WALL (    2003 calls)
     g_psi        :      6.85s CPU      3.81s WALL (    1603 calls)

     Called by h_psi:
     h_psi:calbec :     38.34s CPU     21.39s WALL (    2003 calls)
     vloc_psi     :    237.46s CPU    137.80s WALL (    2003 calls)
     add_vuspsi   :      2.76s CPU      1.70s WALL (    2003 calls)

     General routines
     calbec       :     45.66s CPU     25.44s WALL (    2363 calls)
     fft          :      0.47s CPU      0.33s WALL (     128 calls)
     ffts         :      0.66s CPU      0.41s WALL (      19 calls)
     fftw         :    252.93s CPU    146.59s WALL (   90636 calls)
     interpolate  :      0.16s CPU      0.14s WALL (      10 calls)

     Parallel routines

     PAW routines
     PAW_pot      :      1.10s CPU      0.64s WALL (      10 calls)
     PAW_symme    :      0.14s CPU      0.08s WALL (      19 calls)

     PWSCF        :   9m16.04s CPU   5m16.64s WALL


   This run was terminated on:   3: 3:51   8Jul2025            

=------------------------------------------------------------------------------=
   JOB DONE.
=------------------------------------------------------------------------------=
