https://jarvis.nist.gov/jalignn/

Time for all 8 (combined): 51.80 seconds.

Outputs (ALIGNN):
SnS Series (Tin Sulfide)
Monolayer: 0.972 eV
Bilayer: 0.951 eV
Trilayer: 0.945 eV
Bulk: 0.933 eV

SnSe Series (Tin Selenide)
Monolayer: 0.61 eV
Bilayer: 0.666 eV
Trilayer: 0.724 eV
Bulk: 0.686 eV

Outputs:
Formation energy/atom (eV):-0.461
Bandgap OptB88vdW (eV): 0.972
Energy/atom (eV): -2.018

 input
SnS monolayer
1.0
   3.95685521   0.00000000   0.00000000
   0.00000000   4.53281069   0.00000000
   0.00000000   0.00000000  26.39201851
Sn S
4 4
Direct
0.25000000  0.36953984  0.26832551
0.75000000  0.63046016  0.16332084
0.75000000  0.86953984  0.37914402
0.25000000  0.13046016  0.05250233
0.25000000  0.01059680  0.14999601
0.75000000  0.98940320  0.28165034
0.75000000  0.51059680  0.06582717
0.25000000  0.48940320  0.36581919

Formation energy/atom (eV):-0.486
Bandgap OptB88vdW (eV): 0.951
Energy/atom (eV): -2.038

 input
SnS bilayer
1.0
   3.95685521   0.00000000   0.00000000
   0.00000000   4.53281069   0.00000000
   0.00000000   0.00000000  37.78403702
Sn S
8 8
Direct
0.25000000  0.36953984  0.18742443
0.75000000  0.63046016  0.11407904
0.75000000  0.86953984  0.26483078
0.25000000  0.13046016  0.03667270
0.25000000  0.36953984  0.48892791
0.75000000  0.63046016  0.41558252
0.75000000  0.86953984  0.56633426
0.25000000  0.13046016  0.33817617
0.25000000  0.01059680  0.10477169
0.75000000  0.98940320  0.19673178
0.75000000  0.51059680  0.04598005
0.25000000  0.48940320  0.25552343
0.25000000  0.01059680  0.40627517
0.75000000  0.98940320  0.49823526
0.75000000  0.51059680  0.34748352
0.25000000  0.48940320  0.55702691

Formation energy/atom (eV):-0.495
Bandgap OptB88vdW (eV): 0.945
Energy/atom (eV): -2.045

 input
SnS trilayer
1.0
   3.95685521   0.00000000   0.00000000
   0.00000000   4.53281069   0.00000000
   0.00000000   0.00000000  49.17605553
Sn S
12 12
Direct
0.25000000  0.36953984  0.14400610
0.75000000  0.63046016  0.08765174
0.75000000  0.86953984  0.20348065
0.25000000  0.13046016  0.02817718
0.25000000  0.36953984  0.37566393
0.75000000  0.63046016  0.31930957
0.75000000  0.86953984  0.43513849
0.25000000  0.13046016  0.25983501
0.25000000  0.36953984  0.60732176
0.75000000  0.63046016  0.55096741
0.75000000  0.86953984  0.66679632
0.25000000  0.13046016  0.49149285
0.25000000  0.01059680  0.08050051
0.75000000  0.98940320  0.15115733
0.75000000  0.51059680  0.03532841
0.25000000  0.48940320  0.19632943
0.25000000  0.01059680  0.31215834
0.75000000  0.98940320  0.38281516
0.75000000  0.51059680  0.26698624
0.25000000  0.48940320  0.42798726
0.25000000  0.01059680  0.54381618
0.75000000  0.98940320  0.61447299
0.75000000  0.51059680  0.49864408
0.25000000  0.48940320  0.65964509

Formation energy/atom (eV):-0.513
Bandgap OptB88vdW (eV): 0.933
Energy/atom (eV): -2.058

 input
SnS bulk
1.0
   3.95685521   0.00000000   0.00000000
   0.00000000   4.53281069   0.00000000
   0.00000000   0.00000000  11.39201851
Sn S
4 4
Direct
0.25000000  0.36953984  0.62163275
0.75000000  0.63046016  0.37836725
0.75000000  0.86953984  0.87836725
0.25000000  0.13046016  0.12163275
0.25000000  0.01059680  0.34749746
0.75000000  0.98940320  0.65250254
0.75000000  0.51059680  0.15250254
0.25000000  0.48940320  0.84749746

Formation energy/atom (eV):-0.429
Bandgap OptB88vdW (eV): 0.61
Energy/atom (eV): -1.634

 input
SnSe monolayer
1.0
   4.12625095   0.00000000   0.00000000
   0.00000000   4.70090745   0.00000000
   0.00000000   0.00000000  26.67108300
Sn Se
4 4
Direct
0.75000000  0.37655430  0.27062318
0.25000000  0.87655430  0.38539396
0.25000000  0.62344570  0.16672158
0.75000000  0.12344570  0.05195081
0.25000000  0.50918180  0.06496889
0.25000000  0.99081820  0.28364127
0.75000000  0.00918180  0.15370349
0.75000000  0.49081820  0.37237588

Formation energy/atom (eV):-0.448
Bandgap OptB88vdW (eV): 0.666
Energy/atom (eV): -1.65

 input
SnSe bilayer
1.0
   4.12625095   0.00000000   0.00000000
   0.00000000   4.70090745   0.00000000
   0.00000000   0.00000000  38.33554150
Sn Se
8 8
Direct
0.75000000  0.37655430  0.18827994
0.25000000  0.87655430  0.26812910
0.25000000  0.62344570  0.11599276
0.75000000  0.12344570  0.03614360
0.75000000  0.37655430  0.49255264
0.25000000  0.87655430  0.57240179
0.25000000  0.62344570  0.42026544
0.75000000  0.12344570  0.34041629
0.25000000  0.50918180  0.04520063
0.25000000  0.99081820  0.19733697
0.75000000  0.00918180  0.10693571
0.75000000  0.49081820  0.25907207
0.25000000  0.50918180  0.34947332
0.25000000  0.99081820  0.50160968
0.75000000  0.00918180  0.41120841
0.75000000  0.49081820  0.56334476

Formation energy/atom (eV):-0.464
Bandgap OptB88vdW (eV): 0.724
Energy/atom (eV): -1.667

 input
SnSe bulk
1.0
   4.12625095   0.00000000   0.00000000
   0.00000000   4.70090745   0.00000000
   0.00000000   0.00000000  11.66445850
Sn Se
4 4
Direct
0.75000000  0.37655430  0.61878685
0.25000000  0.87655430  0.88121315
0.25000000  0.62344570  0.38121315
0.75000000  0.12344570  0.11878685
0.25000000  0.50918180  0.14855303
0.25000000  0.99081820  0.64855303
0.75000000  0.00918180  0.35144697
0.75000000  0.49081820  0.85144697

Formation energy/atom (eV):-0.453
Bandgap OptB88vdW (eV): 0.686
Energy/atom (eV): -1.656

 input
SnSe trilayer
1.0
   4.12625095   0.00000000   0.00000000
   0.00000000   4.70090745   0.00000000
   0.00000000   0.00000000  50.00000000
Sn Se
12 12
Direct
0.75000000  0.37655430  0.14435627
0.25000000  0.87655430  0.20557749
0.25000000  0.62344570  0.08893290
0.75000000  0.12344570  0.02771169
0.75000000  0.37655430  0.37764544
0.25000000  0.87655430  0.43886665
0.25000000  0.62344570  0.32222207
0.75000000  0.12344570  0.26100086
0.75000000  0.37655430  0.61093461
0.25000000  0.87655430  0.67215582
0.25000000  0.62344570  0.55551124
0.75000000  0.12344570  0.49429002
0.25000000  0.50918180  0.03465582
0.25000000  0.99081820  0.15130040
0.75000000  0.00918180  0.08198877
0.75000000  0.49081820  0.19863336
0.25000000  0.50918180  0.26794498
0.25000000  0.99081820  0.38458957
0.75000000  0.00918180  0.31527794
0.75000000  0.49081820  0.43192253
0.25000000  0.50918180  0.50123415
0.25000000  0.99081820  0.61787874
0.75000000  0.00918180  0.54856711
0.75000000  0.49081820  0.66521169
