SnSe bilayer
1.0
   4.12625095   0.00000000   0.00000000
   0.00000000   4.70090745   0.00000000
   0.00000000   0.00000000  38.33554150
Sn Se
8 8
Direct
0.75000000  0.37655430  0.18827994
0.25000000  0.87655430  0.26812910
0.25000000  0.62344570  0.11599276
0.75000000  0.12344570  0.03614360
0.75000000  0.37655430  0.49255264
0.25000000  0.87655430  0.57240179
0.25000000  0.62344570  0.42026544
0.75000000  0.12344570  0.34041629
0.25000000  0.50918180  0.04520063
0.25000000  0.99081820  0.19733697
0.75000000  0.00918180  0.10693571
0.75000000  0.49081820  0.25907207
0.25000000  0.50918180  0.34947332
0.25000000  0.99081820  0.50160968
0.75000000  0.00918180  0.41120841
0.75000000  0.49081820  0.56334476