SnS bilayer
1.0
   3.95685521   0.00000000   0.00000000
   0.00000000   4.53281069   0.00000000
   0.00000000   0.00000000  37.78403702
Sn S
8 8
Direct
0.25000000  0.36953984  0.18742443
0.75000000  0.63046016  0.11407904
0.75000000  0.86953984  0.26483078
0.25000000  0.13046016  0.03667270
0.25000000  0.36953984  0.48892791
0.75000000  0.63046016  0.41558252
0.75000000  0.86953984  0.56633426
0.25000000  0.13046016  0.33817617
0.25000000  0.01059680  0.10477169
0.75000000  0.98940320  0.19673178
0.75000000  0.51059680  0.04598005
0.25000000  0.48940320  0.25552343
0.25000000  0.01059680  0.40627517
0.75000000  0.98940320  0.49823526
0.75000000  0.51059680  0.34748352
0.25000000  0.48940320  0.55702691
