SnS trilayer
1.0
   3.95685521   0.00000000   0.00000000
   0.00000000   4.53281069   0.00000000
   0.00000000   0.00000000  49.17605553
Sn S
12 12
Direct
0.25000000  0.36953984  0.14400610
0.75000000  0.63046016  0.08765174
0.75000000  0.86953984  0.20348065
0.25000000  0.13046016  0.02817718
0.25000000  0.36953984  0.37566393
0.75000000  0.63046016  0.31930957
0.75000000  0.86953984  0.43513849
0.25000000  0.13046016  0.25983501
0.25000000  0.36953984  0.60732176
0.75000000  0.63046016  0.55096741
0.75000000  0.86953984  0.66679632
0.25000000  0.13046016  0.49149285
0.25000000  0.01059680  0.08050051
0.75000000  0.98940320  0.15115733
0.75000000  0.51059680  0.03532841
0.25000000  0.48940320  0.19632943
0.25000000  0.01059680  0.31215834
0.75000000  0.98940320  0.38281516
0.75000000  0.51059680  0.26698624
0.25000000  0.48940320  0.42798726
0.25000000  0.01059680  0.54381618
0.75000000  0.98940320  0.61447299
0.75000000  0.51059680  0.49864408
0.25000000  0.48940320  0.65964509
