SnSe trilayer
1.0
   4.12625095   0.00000000   0.00000000
   0.00000000   4.70090745   0.00000000
   0.00000000   0.00000000  50.00000000
Sn Se
12 12
Direct
0.75000000  0.37655430  0.14435627
0.25000000  0.87655430  0.20557749
0.25000000  0.62344570  0.08893290
0.75000000  0.12344570  0.02771169
0.75000000  0.37655430  0.37764544
0.25000000  0.87655430  0.43886665
0.25000000  0.62344570  0.32222207
0.75000000  0.12344570  0.26100086
0.75000000  0.37655430  0.61093461
0.25000000  0.87655430  0.67215582
0.25000000  0.62344570  0.55551124
0.75000000  0.12344570  0.49429002
0.25000000  0.50918180  0.03465582
0.25000000  0.99081820  0.15130040
0.75000000  0.00918180  0.08198877
0.75000000  0.49081820  0.19863336
0.25000000  0.50918180  0.26794498
0.25000000  0.99081820  0.38458957
0.75000000  0.00918180  0.31527794
0.75000000  0.49081820  0.43192253
0.25000000  0.50918180  0.50123415
0.25000000  0.99081820  0.61787874
0.75000000  0.00918180  0.54856711
0.75000000  0.49081820  0.66521169