
     Program PWSCF v.7.0 starts on 23Jun2025 at  1:17:56 

     This program is part of the open-source Quantum ESPRESSO suite
     for quantum simulation of materials; please cite
         "P. Giannozzi et al., J. Phys.:Condens. Matter 21 395502 (2009);
         "P. Giannozzi et al., J. Phys.:Condens. Matter 29 465901 (2017);
         "P. Giannozzi et al., J. Chem. Phys. 152 154105 (2020);
          URL http://www.quantum-espresso.org", 
     in publications or presentations arising from this work. More details at
     http://www.quantum-espresso.org/quote

     Parallel version (MPI), running on     8 processors

     MPI processes distributed on     1 nodes
     R & G space division:  proc/nbgrp/npool/nimage =       8
     6099 MiB available memory on the printing compute node when the environment starts

     Waiting for input...
     Reading input from standard input

     Current dimensions of program PWSCF are:
     Max number of different atomic species (ntypx) = 10
     Max number of k-points (npk) =  40000
     Max angular momentum in pseudopotentials (lmaxx) =  4
     file Sn.pbe-dn-kjpaw_psl.1.0.0.UPF: wavefunction(s)  5S 5P 4D renormalized
     file Se.pbe-dn-kjpaw_psl.1.0.0.UPF: wavefunction(s)  4S 4P 3D renormalized

     IMPORTANT: XC functional enforced from input :
     Exchange-correlation= PBE
                           (   1   4   3   4   0   0   0)
     Any further DFT definition will be discarded
     Please, verify this is what you really want

     Message from routine setup:
     using ibrav=0 with symmetry is DISCOURAGED, use correct ibrav instead

     Subspace diagonalization in iterative solution of the eigenvalue problem:
     a serial algorithm will be used


     Parallelization info
     --------------------
     sticks:   dense  smooth     PW     G-vecs:    dense   smooth      PW
     Min         276     137     40                84750    29965    4674
     Max         277     138     41                84775    29988    4695
     Sum        2209    1101    323               678045   239803   37457

     Using Slab Decomposition



     bravais-lattice index     =            0
     lattice parameter (alat)  =       7.7975  a.u.
     unit-cell volume          =    5018.0564 (a.u.)^3
     number of atoms/cell      =           16
     number of atomic types    =            2
     number of electrons       =       240.00
     number of Kohn-Sham states=          150
     kinetic-energy cutoff     =      50.0000  Ry
     charge density cutoff     =     400.0000  Ry
     scf convergence threshold =      1.0E-08
     mixing beta               =       0.3000
     number of iterations used =            8  plain     mixing
     Exchange-correlation= PBE
                           (   1   4   3   4   0   0   0)

     celldm(1)=   7.797484  celldm(2)=   0.000000  celldm(3)=   0.000000
     celldm(4)=   0.000000  celldm(5)=   0.000000  celldm(6)=   0.000000

     crystal axes: (cart. coord. in units of alat)
               a(1) = (   1.000000   0.000000   0.000000 )  
               a(2) = (   0.000000   1.139268   0.000000 )  
               a(3) = (   0.000000   0.000000   9.290647 )  

     reciprocal axes: (cart. coord. in units 2 pi/alat)
               b(1) = (  1.000000  0.000000  0.000000 )  
               b(2) = (  0.000000  0.877756  0.000000 )  
               b(3) = (  0.000000  0.000000  0.107635 )  


     PseudoPot. # 1 for Sn read from file:
     ./Sn.pbe-dn-kjpaw_psl.1.0.0.UPF
     MD5 check sum: d69e53522d199ccc4f306ae57c56b55d
     Pseudo is Projector augmented-wave + core cor, Zval = 14.0
     Generated using &quot;atomic&quot; code by A. Dal Corso  v.6.3
     Shape of augmentation charge: PSQ
     Using radial grid of 1243 points,  6 beta functions with: 
                l(1) =   0
                l(2) =   0
                l(3) =   1
                l(4) =   1
                l(5) =   2
                l(6) =   2
     Q(r) pseudized with 0 coefficients 


     PseudoPot. # 2 for Se read from file:
     ./Se.pbe-dn-kjpaw_psl.1.0.0.UPF
     MD5 check sum: 4f8dd506ed2a5e2391ebbdbef81d58a8
     Pseudo is Projector augmented-wave + core cor, Zval = 16.0
     Generated using &quot;atomic&quot; code by A. Dal Corso  v.6.3
     Shape of augmentation charge: PSQ
     Using radial grid of 1211 points,  6 beta functions with: 
                l(1) =   0
                l(2) =   0
                l(3) =   1
                l(4) =   1
                l(5) =   2
                l(6) =   2
     Q(r) pseudized with 0 coefficients 


     atomic species   valence    mass     pseudopotential
        Sn            14.00   118.71000     Sn( 1.00)
        Se            16.00    78.96000     Se( 1.00)

      2 Sym. Ops. (no inversion) found ( 1 have fractional translation)


                                    s                        frac. trans.

      isym =  1     identity                                     

 cryst.   s( 1) = (     1          0          0      )
                  (     0          1          0      )
                  (     0          0          1      )

 cart.    s( 1) = (  1.0000000  0.0000000  0.0000000 )
                  (  0.0000000  1.0000000  0.0000000 )
                  (  0.0000000  0.0000000  1.0000000 )


      isym =  2     inv. 180 deg rotation - cart. axis [1,0,0]   

 cryst.   s( 2) = (    -1          0          0      )    f =(  0.5000000 )
                  (     0          1          0      )       (  0.0000000 )
                  (     0          0          1      )       (  0.0000000 )

 cart.    s( 2) = ( -1.0000000  0.0000000  0.0000000 )    f =(  0.5000000 )
                  (  0.0000000  1.0000000  0.0000000 )       (  0.0000000 )
                  (  0.0000000  0.0000000  1.0000000 )       (  0.0000000 )


   Cartesian axes

     site n.     atom                  positions (alat units)
         1           Sn  tau(   1) = (   0.7500000   0.4289964   1.7492425  )
         2           Sn  tau(   2) = (   0.2500000   0.9986306   2.4910929  )
         3           Sn  tau(   3) = (   0.2500000   0.7102720   1.0776478  )
         4           Sn  tau(   4) = (   0.7500000   0.1406378   0.3357974  )
         5           Se  tau(   5) = (   0.2500000   0.5800948   0.4199431  )
         6           Se  tau(   6) = (   0.2500000   1.1288079   1.8333882  )
         7           Se  tau(   7) = (   0.7500000   0.0104605   0.9935019  )
         8           Se  tau(   8) = (   0.7500000   0.5591737   2.4069472  )
         9           Sn  tau(   9) = (   0.7500000   0.4289964   4.5761328  )
        10           Sn  tau(  10) = (   0.2500000   0.9986306   5.3179830  )
        11           Sn  tau(  11) = (   0.2500000   0.7102720   3.9045379  )
        12           Sn  tau(  12) = (   0.7500000   0.1406378   3.1626876  )
        13           Se  tau(  13) = (   0.2500000   0.5800948   3.2468333  )
        14           Se  tau(  14) = (   0.2500000   1.1288079   4.6602785  )
        15           Se  tau(  15) = (   0.7500000   0.0104605   3.8203922  )
        16           Se  tau(  16) = (   0.7500000   0.5591737   5.2338374  )

   Crystallographic axes

     site n.     atom                  positions (cryst. coord.)
         1           Sn  tau(   1) = (  0.7500000  0.3765543  0.1882799  )
         2           Sn  tau(   2) = (  0.2500000  0.8765543  0.2681291  )
         3           Sn  tau(   3) = (  0.2500000  0.6234457  0.1159928  )
         4           Sn  tau(   4) = (  0.7500000  0.1234457  0.0361436  )
         5           Se  tau(   5) = (  0.2500000  0.5091818  0.0452006  )
         6           Se  tau(   6) = (  0.2500000  0.9908182  0.1973370  )
         7           Se  tau(   7) = (  0.7500000  0.0091818  0.1069357  )
         8           Se  tau(   8) = (  0.7500000  0.4908182  0.2590721  )
         9           Sn  tau(   9) = (  0.7500000  0.3765543  0.4925526  )
        10           Sn  tau(  10) = (  0.2500000  0.8765543  0.5724018  )
        11           Sn  tau(  11) = (  0.2500000  0.6234457  0.4202654  )
        12           Sn  tau(  12) = (  0.7500000  0.1234457  0.3404163  )
        13           Se  tau(  13) = (  0.2500000  0.5091818  0.3494733  )
        14           Se  tau(  14) = (  0.2500000  0.9908182  0.5016097  )
        15           Se  tau(  15) = (  0.7500000  0.0091818  0.4112084  )
        16           Se  tau(  16) = (  0.7500000  0.4908182  0.5633448  )

     number of k points=    16
                       cart. coord. in units 2pi/alat
        k(    1) = (   0.0000000   0.0000000   0.0000000), wk =   0.0555556
        k(    2) = (   0.0000000   0.1462927   0.0000000), wk =   0.1111111
        k(    3) = (   0.0000000   0.2925854   0.0000000), wk =   0.1111111
        k(    4) = (   0.0000000  -0.4388781   0.0000000), wk =   0.0555556
        k(    5) = (   0.1666667   0.0000000   0.0000000), wk =   0.1111111
        k(    6) = (   0.1666667   0.1462927   0.0000000), wk =   0.2222222
        k(    7) = (   0.1666667   0.2925854   0.0000000), wk =   0.2222222
        k(    8) = (   0.1666667  -0.4388781   0.0000000), wk =   0.1111111
        k(    9) = (   0.3333333   0.0000000   0.0000000), wk =   0.1111111
        k(   10) = (   0.3333333   0.1462927   0.0000000), wk =   0.2222222
        k(   11) = (   0.3333333   0.2925854   0.0000000), wk =   0.2222222
        k(   12) = (   0.3333333  -0.4388781   0.0000000), wk =   0.1111111
        k(   13) = (  -0.5000000   0.0000000   0.0000000), wk =   0.0555556
        k(   14) = (  -0.5000000   0.1462927   0.0000000), wk =   0.1111111
        k(   15) = (  -0.5000000   0.2925854   0.0000000), wk =   0.1111111
        k(   16) = (  -0.5000000  -0.4388781   0.0000000), wk =   0.0555556

                       cryst. coord.
        k(    1) = (   0.0000000   0.0000000   0.0000000), wk =   0.0555556
        k(    2) = (   0.0000000   0.1666667   0.0000000), wk =   0.1111111
        k(    3) = (   0.0000000   0.3333333   0.0000000), wk =   0.1111111
        k(    4) = (   0.0000000  -0.5000000   0.0000000), wk =   0.0555556
        k(    5) = (   0.1666667   0.0000000   0.0000000), wk =   0.1111111
        k(    6) = (   0.1666667   0.1666667   0.0000000), wk =   0.2222222
        k(    7) = (   0.1666667   0.3333333   0.0000000), wk =   0.2222222
        k(    8) = (   0.1666667  -0.5000000   0.0000000), wk =   0.1111111
        k(    9) = (   0.3333333   0.0000000   0.0000000), wk =   0.1111111
        k(   10) = (   0.3333333   0.1666667   0.0000000), wk =   0.2222222
        k(   11) = (   0.3333333   0.3333333   0.0000000), wk =   0.2222222
        k(   12) = (   0.3333333  -0.5000000   0.0000000), wk =   0.1111111
        k(   13) = (  -0.5000000   0.0000000   0.0000000), wk =   0.0555556
        k(   14) = (  -0.5000000   0.1666667   0.0000000), wk =   0.1111111
        k(   15) = (  -0.5000000   0.3333333   0.0000000), wk =   0.1111111
        k(   16) = (  -0.5000000  -0.5000000   0.0000000), wk =   0.0555556

     Dense  grid:   678045 G-vectors     FFT dimensions: (  50,  60, 480)

     Smooth grid:   239803 G-vectors     FFT dimensions: (  36,  40, 360)

     Dynamical RAM for                 wfc:       8.57 MB

     Dynamical RAM for     wfc (w. buffer):     145.72 MB

     Dynamical RAM for           str. fact:       2.59 MB

     Dynamical RAM for           local pot:       0.00 MB

     Dynamical RAM for          nlocal pot:      16.46 MB

     Dynamical RAM for                qrad:       3.21 MB

     Dynamical RAM for          rho,v,vnew:       8.00 MB

     Dynamical RAM for               rhoin:       2.67 MB

     Dynamical RAM for            rho*nmix:      20.69 MB

     Dynamical RAM for           G-vectors:       5.08 MB

     Dynamical RAM for          h,s,v(r/c):       4.12 MB

     Dynamical RAM for          <psi|beta>:       0.66 MB

     Dynamical RAM for                 psi:      17.14 MB

     Dynamical RAM for                hpsi:      17.14 MB

     Dynamical RAM for                spsi:      17.14 MB

     Dynamical RAM for      wfcinit/wfcrot:      17.66 MB

     Dynamical RAM for           addusdens:     250.89 MB

     Dynamical RAM for          addusforce:     269.67 MB

     Dynamical RAM for         addusstress:     259.94 MB

     Estimated static dynamical RAM per process >     194.46 MB

     Estimated max dynamical RAM per process >     484.83 MB

     Estimated total dynamical RAM >       3.79 GB

     Initial potential from superposition of free atoms

     starting charge     239.9883, renormalised to     240.0000

     negative rho (up, down):  1.122E-03 0.000E+00
     Starting wfcs are  144 randomized atomic wfcs +    6 random wfcs
     Checking if some PAW data can be deallocated... 
       PAW data deallocated on    4 nodes for type:  1
       PAW data deallocated on    4 nodes for type:  2

     total cpu time spent up to now is       50.7 secs

     Self-consistent Calculation

     iteration #  1     ecut=    50.00 Ry     beta= 0.30
     Davidson diagonalization with overlap

---- Real-time Memory Report at c_bands before calling an iterative solver
           327 MiB given to the printing process from OS
             0 MiB allocation reported by mallinfo(arena+hblkhd)
          4240 MiB available memory on the node where the printing process lives
------------------
     ethr =  1.00E-02,  avg # of iterations =  6.9

     Threshold (ethr) on eigenvalues was too large:
     Diagonalizing with lowered threshold

     Davidson diagonalization with overlap

---- Real-time Memory Report at c_bands before calling an iterative solver
           507 MiB given to the printing process from OS
             0 MiB allocation reported by mallinfo(arena+hblkhd)
          4072 MiB available memory on the node where the printing process lives
------------------
     ethr =  2.06E-04,  avg # of iterations =  9.1

     negative rho (up, down):  1.114E-03 0.000E+00

     total cpu time spent up to now is      650.9 secs

     total energy              =   -6751.29563492 Ry
     estimated scf accuracy    <       0.47757239 Ry

     iteration #  2     ecut=    50.00 Ry     beta= 0.30
     Davidson diagonalization with overlap

---- Real-time Memory Report at c_bands before calling an iterative solver
           513 MiB given to the printing process from OS
             0 MiB allocation reported by mallinfo(arena+hblkhd)
          4009 MiB available memory on the node where the printing process lives
------------------
     ethr =  1.99E-04,  avg # of iterations =  6.4

     negative rho (up, down):  1.112E-03 0.000E+00

     total cpu time spent up to now is      898.3 secs

     total energy              =   -6751.33467739 Ry
     estimated scf accuracy    <       0.07727911 Ry

     iteration #  3     ecut=    50.00 Ry     beta= 0.30
     Davidson diagonalization with overlap

---- Real-time Memory Report at c_bands before calling an iterative solver
           514 MiB given to the printing process from OS
             0 MiB allocation reported by mallinfo(arena+hblkhd)
          4008 MiB available memory on the node where the printing process lives
------------------
     ethr =  3.22E-05,  avg # of iterations = 11.1

     negative rho (up, down):  1.109E-03 0.000E+00

     total cpu time spent up to now is     1323.9 secs

     total energy              =   -6751.33038296 Ry
     estimated scf accuracy    <       0.14501511 Ry

     iteration #  4     ecut=    50.00 Ry     beta= 0.30
     Davidson diagonalization with overlap

---- Real-time Memory Report at c_bands before calling an iterative solver
           515 MiB given to the printing process from OS
             0 MiB allocation reported by mallinfo(arena+hblkhd)
          3996 MiB available memory on the node where the printing process lives
------------------
     ethr =  3.22E-05,  avg # of iterations = 12.0

     negative rho (up, down):  1.123E-03 0.000E+00

     total cpu time spent up to now is     1822.7 secs

     total energy              =   -6751.34317124 Ry
     estimated scf accuracy    <       0.02243204 Ry

     iteration #  5     ecut=    50.00 Ry     beta= 0.30
     Davidson diagonalization with overlap

---- Real-time Memory Report at c_bands before calling an iterative solver
           516 MiB given to the printing process from OS
             0 MiB allocation reported by mallinfo(arena+hblkhd)
          3992 MiB available memory on the node where the printing process lives
------------------
     ethr =  9.35E-06,  avg # of iterations =  8.1

     negative rho (up, down):  1.142E-03 0.000E+00

     total cpu time spent up to now is     2149.6 secs

     total energy              =   -6751.34435104 Ry
     estimated scf accuracy    <       0.01151234 Ry

     iteration #  6     ecut=    50.00 Ry     beta= 0.30
     Davidson diagonalization with overlap

---- Real-time Memory Report at c_bands before calling an iterative solver
           516 MiB given to the printing process from OS
             0 MiB allocation reported by mallinfo(arena+hblkhd)
          3981 MiB available memory on the node where the printing process lives
------------------
     ethr =  4.80E-06,  avg # of iterations =  4.6

     negative rho (up, down):  1.151E-03 0.000E+00

     total cpu time spent up to now is     2369.1 secs

     total energy              =   -6751.34557915 Ry
     estimated scf accuracy    <       0.00068171 Ry

     iteration #  7     ecut=    50.00 Ry     beta= 0.30
     Davidson diagonalization with overlap

---- Real-time Memory Report at c_bands before calling an iterative solver
           517 MiB given to the printing process from OS
             0 MiB allocation reported by mallinfo(arena+hblkhd)
          3979 MiB available memory on the node where the printing process lives
------------------
     ethr =  2.84E-07,  avg # of iterations =  4.2

     negative rho (up, down):  1.151E-03 0.000E+00

     total cpu time spent up to now is     2602.2 secs

     total energy              =   -6751.34561860 Ry
     estimated scf accuracy    <       0.00011564 Ry

     iteration #  8     ecut=    50.00 Ry     beta= 0.30
     Davidson diagonalization with overlap

---- Real-time Memory Report at c_bands before calling an iterative solver
           518 MiB given to the printing process from OS
             0 MiB allocation reported by mallinfo(arena+hblkhd)
          3968 MiB available memory on the node where the printing process lives
------------------
     ethr =  4.82E-08,  avg # of iterations =  3.4

     negative rho (up, down):  1.149E-03 0.000E+00

     total cpu time spent up to now is     2795.6 secs

     total energy              =   -6751.34562121 Ry
     estimated scf accuracy    <       0.00011131 Ry

     iteration #  9     ecut=    50.00 Ry     beta= 0.30
     Davidson diagonalization with overlap

---- Real-time Memory Report at c_bands before calling an iterative solver
           519 MiB given to the printing process from OS
             0 MiB allocation reported by mallinfo(arena+hblkhd)
          3960 MiB available memory on the node where the printing process lives
------------------
     ethr =  4.64E-08,  avg # of iterations =  1.6

     negative rho (up, down):  1.148E-03 0.000E+00

     total cpu time spent up to now is     2937.9 secs

     total energy              =   -6751.34563552 Ry
     estimated scf accuracy    <       0.00001397 Ry

     iteration # 10     ecut=    50.00 Ry     beta= 0.30
     Davidson diagonalization with overlap

---- Real-time Memory Report at c_bands before calling an iterative solver
           520 MiB given to the printing process from OS
             0 MiB allocation reported by mallinfo(arena+hblkhd)
          3944 MiB available memory on the node where the printing process lives
------------------
     ethr =  5.82E-09,  avg # of iterations =  2.0

     negative rho (up, down):  1.146E-03 0.000E+00

     total cpu time spent up to now is     3083.5 secs

     total energy              =   -6751.34563735 Ry
     estimated scf accuracy    <       0.00000140 Ry

     iteration # 11     ecut=    50.00 Ry     beta= 0.30
     Davidson diagonalization with overlap

---- Real-time Memory Report at c_bands before calling an iterative solver
           520 MiB given to the printing process from OS
             0 MiB allocation reported by mallinfo(arena+hblkhd)
          3939 MiB available memory on the node where the printing process lives
------------------
     ethr =  5.84E-10,  avg # of iterations =  2.0

     negative rho (up, down):  1.145E-03 0.000E+00

     total cpu time spent up to now is     3233.0 secs

     total energy              =   -6751.34563761 Ry
     estimated scf accuracy    <       0.00000056 Ry

     iteration # 12     ecut=    50.00 Ry     beta= 0.30
     Davidson diagonalization with overlap

---- Real-time Memory Report at c_bands before calling an iterative solver
           520 MiB given to the printing process from OS
             0 MiB allocation reported by mallinfo(arena+hblkhd)
          3946 MiB available memory on the node where the printing process lives
------------------
     ethr =  2.33E-10,  avg # of iterations =  2.0

     negative rho (up, down):  1.144E-03 0.000E+00

     total cpu time spent up to now is     3378.8 secs

     total energy              =   -6751.34563773 Ry
     estimated scf accuracy    <       0.00000013 Ry

     iteration # 13     ecut=    50.00 Ry     beta= 0.30
     Davidson diagonalization with overlap

---- Real-time Memory Report at c_bands before calling an iterative solver
           520 MiB given to the printing process from OS
             0 MiB allocation reported by mallinfo(arena+hblkhd)
          3945 MiB available memory on the node where the printing process lives
------------------
     ethr =  5.24E-11,  avg # of iterations =  2.0

     negative rho (up, down):  1.144E-03 0.000E+00

     total cpu time spent up to now is     3546.2 secs

     total energy              =   -6751.34563775 Ry
     estimated scf accuracy    <       0.00000001 Ry

     iteration # 14     ecut=    50.00 Ry     beta= 0.30
     Davidson diagonalization with overlap

---- Real-time Memory Report at c_bands before calling an iterative solver
           520 MiB given to the printing process from OS
             0 MiB allocation reported by mallinfo(arena+hblkhd)
          3944 MiB available memory on the node where the printing process lives
------------------
     ethr =  6.20E-12,  avg # of iterations =  2.0

     negative rho (up, down):  1.143E-03 0.000E+00

     total cpu time spent up to now is     3693.2 secs

     End of self-consistent calculation

          k = 0.0000 0.0000 0.0000 ( 29897 PWs)   bands (ev):

   -44.1940 -44.1939 -44.1930 -44.1926 -44.1884 -44.1883 -44.1882 -44.1882
   -44.1875 -44.1874 -44.1870 -44.1870 -44.1636 -44.1634 -44.1601 -44.1601
   -44.1588 -44.1587 -44.1581 -44.1580 -44.1544 -44.1544 -44.1542 -44.1541
   -44.1512 -44.1509 -44.1458 -44.1458 -44.1455 -44.1453 -44.0950 -44.0949
   -44.0937 -44.0937 -44.0578 -44.0578 -44.0537 -44.0536 -44.0427 -44.0426
   -18.1635 -18.1576 -18.1487 -18.1470 -18.1452 -18.1420 -18.1395 -18.1388
   -18.1308 -18.1307 -18.1235 -18.1230 -18.1208 -18.1180 -18.1178 -18.1151
   -18.1151 -18.1105 -18.1101 -18.1082 -18.1079 -18.1070 -18.1065 -18.0954
   -18.0953 -18.0900 -18.0897 -18.0840 -18.0839 -18.0811 -18.0772 -18.0772
   -18.0647 -18.0647 -18.0597 -18.0597 -18.0575 -18.0575 -18.0522 -18.0521
   -10.4215 -10.3417 -10.2450 -10.1904  -9.4039  -9.2781  -9.1667  -9.1114
    -3.9708  -3.7788  -3.5043  -3.2544  -2.2078  -1.9737  -1.8329  -1.7905
    -1.3268  -1.0033  -0.5876  -0.1757  -0.0182   0.1719   0.2024   0.2749
     0.3333   0.3859   0.4063   0.5012   1.2621   1.2989   1.3170   1.4300
     1.4898   1.5835   1.6747   1.9000   2.4867   2.6801   2.8545   2.9023
     4.1821   4.7258   5.4555   5.6369   5.6553   5.7790   5.8156   6.0217
     6.0285   6.2384   6.5029   6.6225   6.7672   6.8121   7.0975   7.1241
     7.2405   7.4182   7.6322   7.8885   7.9753   8.0208   8.0975   8.3341
     8.3566   8.6746   8.7737   8.8671   9.0475   9.1357

     occupation numbers 
     1.0000   1.0000   1.0000   1.0000   1.0000   1.0000   1.0000   1.0000
     1.0000   1.0000   1.0000   1.0000   1.0000   1.0000   1.0000   1.0000
     1.0000   1.0000   1.0000   1.0000   1.0000   1.0000   1.0000   1.0000
     1.0000   1.0000   1.0000   1.0000   1.0000   1.0000   1.0000   1.0000
     1.0000   1.0000   1.0000   1.0000   1.0000   1.0000   1.0000   1.0000
     1.0000   1.0000   1.0000   1.0000   1.0000   1.0000   1.0000   1.0000
     1.0000   1.0000   1.0000   1.0000   1.0000   1.0000   1.0000   1.0000
     1.0000   1.0000   1.0000   1.0000   1.0000   1.0000   1.0000   1.0000
     1.0000   1.0000   1.0000   1.0000   1.0000   1.0000   1.0000   1.0000
     1.0000   1.0000   1.0000   1.0000   1.0000   1.0000   1.0000   1.0000
     1.0000   1.0000   1.0000   1.0000   1.0000   1.0000   1.0000   1.0000
     1.0000   1.0000   1.0000   1.0000   1.0000   1.0000   1.0000   1.0000
     1.0000   1.0000   1.0000   1.0000   1.0000   1.0000   1.0000   1.0000
     1.0000   1.0000   1.0000   1.0000   1.0000   1.0000   1.0000   1.0000
     1.0000   1.0000   1.0000   1.0000   1.0000   1.0000   1.0000   1.0000
     0.0000   0.0000   0.0000   0.0000   0.0000   0.0000   0.0000   0.0000
     0.0000   0.0000   0.0000   0.0000   0.0000   0.0000   0.0000   0.0000
     0.0000   0.0000   0.0000   0.0000   0.0000   0.0000   0.0000   0.0000
     0.0000   0.0000   0.0000   0.0000   0.0000   0.0000

          k = 0.0000 0.1463 0.0000 ( 29970 PWs)   bands (ev):

   -44.1941 -44.1940 -44.1930 -44.1928 -44.1884 -44.1884 -44.1883 -44.1882
   -44.1874 -44.1874 -44.1872 -44.1871 -44.1639 -44.1636 -44.1602 -44.1601
   -44.1591 -44.1590 -44.1584 -44.1583 -44.1545 -44.1544 -44.1542 -44.1542
   -44.1512 -44.1510 -44.1458 -44.1457 -44.1455 -44.1454 -44.0950 -44.0950
   -44.0938 -44.0938 -44.0581 -44.0580 -44.0537 -44.0537 -44.0427 -44.0426
   -18.1624 -18.1568 -18.1491 -18.1474 -18.1459 -18.1421 -18.1403 -18.1394
   -18.1298 -18.1298 -18.1222 -18.1214 -18.1206 -18.1182 -18.1180 -18.1155
   -18.1155 -18.1104 -18.1100 -18.1087 -18.1086 -18.1069 -18.1064 -18.0946
   -18.0943 -18.0897 -18.0891 -18.0838 -18.0837 -18.0811 -18.0772 -18.0771
   -18.0645 -18.0644 -18.0595 -18.0595 -18.0578 -18.0578 -18.0527 -18.0527
   -10.3288 -10.2512 -10.1564 -10.1026  -9.4201  -9.3028  -9.2010  -9.1526
    -4.2356  -4.0225  -3.7138  -3.4066  -2.7581  -2.5022  -2.3066  -2.2103
    -1.2041  -0.7832  -0.2738   0.2320   0.2557   0.3089   0.4079   0.5341
     0.6133   0.6248   0.6764   0.7825   1.3124   1.4661   1.6038   1.6502
     1.6831   1.7358   1.9573   2.1779   2.3124   2.4704   2.6945   2.8071
     4.3300   4.8247   5.1158   5.3520   5.5271   5.7918   5.8323   5.8519
     5.9259   5.9982   6.1249   6.2583   6.3311   6.6409   6.8156   7.0317
     7.2890   7.4209   7.4319   7.7123   7.8265   7.9003   7.9326   8.1108
     8.1437   8.2972   8.3370   8.9108   9.0642   9.0845

     occupation numbers 
     1.0000   1.0000   1.0000   1.0000   1.0000   1.0000   1.0000   1.0000
     1.0000   1.0000   1.0000   1.0000   1.0000   1.0000   1.0000   1.0000
     1.0000   1.0000   1.0000   1.0000   1.0000   1.0000   1.0000   1.0000
     1.0000   1.0000   1.0000   1.0000   1.0000   1.0000   1.0000   1.0000
     1.0000   1.0000   1.0000   1.0000   1.0000   1.0000   1.0000   1.0000
     1.0000   1.0000   1.0000   1.0000   1.0000   1.0000   1.0000   1.0000
     1.0000   1.0000   1.0000   1.0000   1.0000   1.0000   1.0000   1.0000
     1.0000   1.0000   1.0000   1.0000   1.0000   1.0000   1.0000   1.0000
     1.0000   1.0000   1.0000   1.0000   1.0000   1.0000   1.0000   1.0000
     1.0000   1.0000   1.0000   1.0000   1.0000   1.0000   1.0000   1.0000
     1.0000   1.0000   1.0000   1.0000   1.0000   1.0000   1.0000   1.0000
     1.0000   1.0000   1.0000   1.0000   1.0000   1.0000   1.0000   1.0000
     1.0000   1.0000   1.0000   1.0000   1.0000   1.0000   1.0000   1.0000
     1.0000   1.0000   1.0000   1.0000   1.0000   1.0000   1.0000   1.0000
     1.0000   1.0000   1.0000   1.0000   1.0000   1.0000   1.0000   1.0000
     0.0000   0.0000   0.0000   0.0000   0.0000   0.0000   0.0000   0.0000
     0.0000   0.0000   0.0000   0.0000   0.0000   0.0000   0.0000   0.0000
     0.0000   0.0000   0.0000   0.0000   0.0000   0.0000   0.0000   0.0000
     0.0000   0.0000   0.0000   0.0000   0.0000   0.0000

          k = 0.0000 0.2926 0.0000 ( 30002 PWs)   bands (ev):

   -44.1942 -44.1940 -44.1930 -44.1929 -44.1885 -44.1885 -44.1883 -44.1882
   -44.1875 -44.1874 -44.1873 -44.1872 -44.1640 -44.1637 -44.1604 -44.1600
   -44.1592 -44.1591 -44.1585 -44.1584 -44.1546 -44.1545 -44.1542 -44.1541
   -44.1512 -44.1510 -44.1458 -44.1457 -44.1456 -44.1455 -44.0951 -44.0950
   -44.0939 -44.0938 -44.0582 -44.0582 -44.0538 -44.0537 -44.0427 -44.0427
   -18.1597 -18.1546 -18.1505 -18.1489 -18.1471 -18.1423 -18.1417 -18.1408
   -18.1275 -18.1275 -18.1203 -18.1201 -18.1200 -18.1179 -18.1167 -18.1163
   -18.1163 -18.1106 -18.1101 -18.1099 -18.1098 -18.1067 -18.1065 -18.0932
   -18.0927 -18.0897 -18.0888 -18.0820 -18.0820 -18.0812 -18.0774 -18.0774
   -18.0639 -18.0639 -18.0589 -18.0589 -18.0584 -18.0584 -18.0541 -18.0540
   -10.0820 -10.0124  -9.9224  -9.8660  -9.5105  -9.4114  -9.3321  -9.2987
    -4.5581  -4.3550  -4.0833  -3.6553  -3.5779  -3.2757  -3.0536  -2.8996
    -0.7924  -0.3131   0.2424   0.5844   0.6758   0.7610   0.8046   0.8713
     0.9520   1.1133   1.2799   1.3556   1.3844   1.4714   1.5672   1.6158
     1.8028   1.9517   2.2396   2.5369   2.6388   2.7678   2.8978   3.0063
     4.2480   4.4843   4.7204   4.8009   4.9555   5.3517   5.3874   5.4540
     5.4632   5.6550   5.7416   5.8840   5.9125   6.3272   6.4445   6.5232
     6.8950   6.9196   7.0081   7.1889   7.3713   7.7672   7.8578   8.0017
     8.1098   8.4139   8.6273   9.2424   9.3977   9.4913

     occupation numbers 
     1.0000   1.0000   1.0000   1.0000   1.0000   1.0000   1.0000   1.0000
     1.0000   1.0000   1.0000   1.0000   1.0000   1.0000   1.0000   1.0000
     1.0000   1.0000   1.0000   1.0000   1.0000   1.0000   1.0000   1.0000
     1.0000   1.0000   1.0000   1.0000   1.0000   1.0000   1.0000   1.0000
     1.0000   1.0000   1.0000   1.0000   1.0000   1.0000   1.0000   1.0000
     1.0000   1.0000   1.0000   1.0000   1.0000   1.0000   1.0000   1.0000
     1.0000   1.0000   1.0000   1.0000   1.0000   1.0000   1.0000   1.0000
     1.0000   1.0000   1.0000   1.0000   1.0000   1.0000   1.0000   1.0000
     1.0000   1.0000   1.0000   1.0000   1.0000   1.0000   1.0000   1.0000
     1.0000   1.0000   1.0000   1.0000   1.0000   1.0000   1.0000   1.0000
     1.0000   1.0000   1.0000   1.0000   1.0000   1.0000   1.0000   1.0000
     1.0000   1.0000   1.0000   1.0000   1.0000   1.0000   1.0000   1.0000
     1.0000   1.0000   1.0000   1.0000   1.0000   1.0000   1.0000   1.0000
     1.0000   1.0000   1.0000   1.0000   1.0000   1.0000   1.0000   1.0000
     1.0000   1.0000   1.0000   1.0000   1.0000   1.0000   1.0000   1.0000
     0.0000   0.0000   0.0000   0.0000   0.0000   0.0000   0.0000   0.0000
     0.0000   0.0000   0.0000   0.0000   0.0000   0.0000   0.0000   0.0000
     0.0000   0.0000   0.0000   0.0000   0.0000   0.0000   0.0000   0.0000
     0.0000   0.0000   0.0000   0.0000   0.0000   0.0000

          k = 0.0000-0.4389 0.0000 ( 30008 PWs)   bands (ev):

   -44.1943 -44.1941 -44.1930 -44.1930 -44.1886 -44.1885 -44.1884 -44.1882
   -44.1875 -44.1874 -44.1873 -44.1873 -44.1641 -44.1637 -44.1604 -44.1600
   -44.1593 -44.1591 -44.1585 -44.1583 -44.1547 -44.1546 -44.1542 -44.1541
   -44.1512 -44.1510 -44.1458 -44.1458 -44.1456 -44.1455 -44.0952 -44.0951
   -44.0939 -44.0939 -44.0582 -44.0582 -44.0538 -44.0538 -44.0427 -44.0427
   -18.1577 -18.1521 -18.1517 -18.1512 -18.1477 -18.1425 -18.1421 -18.1418
   -18.1259 -18.1259 -18.1209 -18.1208 -18.1201 -18.1167 -18.1166 -18.1161
   -18.1144 -18.1108 -18.1107 -18.1104 -18.1104 -18.1066 -18.1066 -18.0921
   -18.0921 -18.0905 -18.0891 -18.0812 -18.0794 -18.0793 -18.0787 -18.0787
   -18.0636 -18.0635 -18.0588 -18.0588 -18.0584 -18.0584 -18.0549 -18.0549
    -9.7984  -9.7913  -9.7902  -9.5750  -9.5748  -9.5623  -9.5554  -9.5540
    -4.4798  -4.4758  -4.4405  -3.8223  -3.8106  -3.4399  -3.4206  -3.3674
    -0.1459  -0.1108   0.2342   0.4821   0.9239   1.0415   1.0861   1.0938
     1.0976   1.3059   1.3064   1.3465   1.3542   1.3586   1.5225   1.5679
     2.2928   2.3427   2.4747   2.6397   2.6682   2.9215   2.9423   2.9561
     4.4550   4.4652   4.4904   4.7360   4.7522   4.9743   4.9857   5.0066
     5.4047   5.4109   5.4329   5.8077   5.8749   6.1499   6.1887   6.1915
     6.3736   6.6069   6.6920   6.6948   6.7305   7.8910   8.1749   8.3336
     8.7055   8.7799   8.9344   9.0469   9.3360   9.6139

     occupation numbers 
     1.0000   1.0000   1.0000   1.0000   1.0000   1.0000   1.0000   1.0000
     1.0000   1.0000   1.0000   1.0000   1.0000   1.0000   1.0000   1.0000
     1.0000   1.0000   1.0000   1.0000   1.0000   1.0000   1.0000   1.0000
     1.0000   1.0000   1.0000   1.0000   1.0000   1.0000   1.0000   1.0000
     1.0000   1.0000   1.0000   1.0000   1.0000   1.0000   1.0000   1.0000
     1.0000   1.0000   1.0000   1.0000   1.0000   1.0000   1.0000   1.0000
     1.0000   1.0000   1.0000   1.0000   1.0000   1.0000   1.0000   1.0000
     1.0000   1.0000   1.0000   1.0000   1.0000   1.0000   1.0000   1.0000
     1.0000   1.0000   1.0000   1.0000   1.0000   1.0000   1.0000   1.0000
     1.0000   1.0000   1.0000   1.0000   1.0000   1.0000   1.0000   1.0000
     1.0000   1.0000   1.0000   1.0000   1.0000   1.0000   1.0000   1.0000
     1.0000   1.0000   1.0000   1.0000   1.0000   1.0000   1.0000   1.0000
     1.0000   1.0000   1.0000   1.0000   1.0000   1.0000   1.0000   1.0000
     1.0000   1.0000   1.0000   1.0000   1.0000   1.0000   1.0000   1.0000
     1.0000   1.0000   1.0000   1.0000   1.0000   1.0000   1.0000   1.0000
     0.0000   0.0000   0.0000   0.0000   0.0000   0.0000   0.0000   0.0000
     0.0000   0.0000   0.0000   0.0000   0.0000   0.0000   0.0000   0.0000
     0.0000   0.0000   0.0000   0.0000   0.0000   0.0000   0.0000   0.0000
     0.0000   0.0000   0.0000   0.0000   0.0000   0.0000

          k = 0.1667 0.0000 0.0000 ( 29881 PWs)   bands (ev):

   -44.1941 -44.1940 -44.1927 -44.1926 -44.1884 -44.1884 -44.1883 -44.1883
   -44.1872 -44.1871 -44.1870 -44.1869 -44.1636 -44.1634 -44.1603 -44.1601
   -44.1588 -44.1587 -44.1581 -44.1580 -44.1545 -44.1545 -44.1542 -44.1542
   -44.1511 -44.1509 -44.1457 -44.1456 -44.1455 -44.1454 -44.0951 -44.0950
   -44.0936 -44.0935 -44.0579 -44.0578 -44.0538 -44.0537 -44.0426 -44.0425
   -18.1588 -18.1551 -18.1475 -18.1457 -18.1440 -18.1430 -18.1413 -18.1408
   -18.1272 -18.1271 -18.1236 -18.1232 -18.1213 -18.1180 -18.1173 -18.1150
   -18.1147 -18.1110 -18.1107 -18.1095 -18.1094 -18.1070 -18.1066 -18.0948
   -18.0942 -18.0920 -18.0878 -18.0844 -18.0835 -18.0800 -18.0776 -18.0776
   -18.0664 -18.0664 -18.0613 -18.0613 -18.0565 -18.0565 -18.0509 -18.0509
   -10.2754 -10.1994 -10.1077 -10.0582  -9.3422  -9.2296  -9.1322  -9.0890
    -4.1036  -3.9255  -3.6826  -3.4791  -2.4740  -2.4047  -2.3302  -2.3295
    -1.2091  -0.8470  -0.4147  -0.0860  -0.0099   0.0451   0.1673   0.2254
     0.3301   0.4926   0.5502   0.6353   1.2615   1.2692   1.3501   1.3949
     1.4655   1.5410   1.7708   2.1899   2.5358   2.7299   2.7798   2.8001
     4.3550   4.8378   5.1476   5.3092   5.6921   5.7032   5.8899   6.0498
     6.1601   6.1854   6.3080   6.3779   6.4631   6.5779   6.6709   6.9445
     7.1106   7.3571   7.4821   7.5142   7.8782   7.8783   8.0975   8.1521
     8.1561   8.1787   8.4299   8.8930   8.8971   8.9952

     occupation numbers 
     1.0000   1.0000   1.0000   1.0000   1.0000   1.0000   1.0000   1.0000
     1.0000   1.0000   1.0000   1.0000   1.0000   1.0000   1.0000   1.0000
     1.0000   1.0000   1.0000   1.0000   1.0000   1.0000   1.0000   1.0000
     1.0000   1.0000   1.0000   1.0000   1.0000   1.0000   1.0000   1.0000
     1.0000   1.0000   1.0000   1.0000   1.0000   1.0000   1.0000   1.0000
     1.0000   1.0000   1.0000   1.0000   1.0000   1.0000   1.0000   1.0000
     1.0000   1.0000   1.0000   1.0000   1.0000   1.0000   1.0000   1.0000
     1.0000   1.0000   1.0000   1.0000   1.0000   1.0000   1.0000   1.0000
     1.0000   1.0000   1.0000   1.0000   1.0000   1.0000   1.0000   1.0000
     1.0000   1.0000   1.0000   1.0000   1.0000   1.0000   1.0000   1.0000
     1.0000   1.0000   1.0000   1.0000   1.0000   1.0000   1.0000   1.0000
     1.0000   1.0000   1.0000   1.0000   1.0000   1.0000   1.0000   1.0000
     1.0000   1.0000   1.0000   1.0000   1.0000   1.0000   1.0000   1.0000
     1.0000   1.0000   1.0000   1.0000   1.0000   1.0000   1.0000   1.0000
     1.0000   1.0000   1.0000   1.0000   1.0000   1.0000   1.0000   1.0000
     0.0000   0.0000   0.0000   0.0000   0.0000   0.0000   0.0000   0.0000
     0.0000   0.0000   0.0000   0.0000   0.0000   0.0000   0.0000   0.0000
     0.0000   0.0000   0.0000   0.0000   0.0000   0.0000   0.0000   0.0000
     0.0000   0.0000   0.0000   0.0000   0.0000   0.0000

          k = 0.1667 0.1463 0.0000 ( 29947 PWs)   bands (ev):

   -44.1942 -44.1940 -44.1928 -44.1927 -44.1885 -44.1884 -44.1883 -44.1882
   -44.1873 -44.1872 -44.1871 -44.1870 -44.1639 -44.1636 -44.1603 -44.1600
   -44.1591 -44.1590 -44.1583 -44.1583 -44.1546 -44.1545 -44.1542 -44.1541
   -44.1511 -44.1510 -44.1457 -44.1456 -44.1455 -44.1454 -44.0951 -44.0950
   -44.0936 -44.0936 -44.0581 -44.0580 -44.0538 -44.0537 -44.0426 -44.0426
   -18.1582 -18.1547 -18.1484 -18.1465 -18.1444 -18.1429 -18.1419 -18.1414
   -18.1264 -18.1264 -18.1236 -18.1218 -18.1209 -18.1183 -18.1174 -18.1152
   -18.1146 -18.1111 -18.1109 -18.1096 -18.1095 -18.1072 -18.1067 -18.0943
   -18.0934 -18.0915 -18.0876 -18.0838 -18.0833 -18.0800 -18.0775 -18.0773
   -18.0663 -18.0663 -18.0616 -18.0616 -18.0563 -18.0563 -18.0513 -18.0513
   -10.1871 -10.1135 -10.0238  -9.9752  -9.3552  -9.2498  -9.1602  -9.1222
    -4.2480  -4.0481  -3.7683  -3.5105  -2.8766  -2.6963  -2.5670  -2.5189
    -1.0797  -0.7354  -0.5679  -0.3419  -0.3254  -0.2092   0.0481   0.3279
     0.7372   0.7779   0.9356   1.0764   1.1253   1.1829   1.2708   1.3244
     1.9759   2.0402   2.1352   2.3387   2.4011   2.6361   2.7444   2.7897
     4.4788   4.8013   4.9188   5.1797   5.2008   5.4096   5.5947   5.8058
     5.8976   6.1171   6.1446   6.2740   6.4100   6.8104   6.9328   7.0454
     7.1653   7.2030   7.4953   7.5454   7.6372   7.6819   7.7783   7.8982
     8.0950   8.4169   8.5086   8.9930   9.2642   9.4068

     occupation numbers 
     1.0000   1.0000   1.0000   1.0000   1.0000   1.0000   1.0000   1.0000
     1.0000   1.0000   1.0000   1.0000   1.0000   1.0000   1.0000   1.0000
     1.0000   1.0000   1.0000   1.0000   1.0000   1.0000   1.0000   1.0000
     1.0000   1.0000   1.0000   1.0000   1.0000   1.0000   1.0000   1.0000
     1.0000   1.0000   1.0000   1.0000   1.0000   1.0000   1.0000   1.0000
     1.0000   1.0000   1.0000   1.0000   1.0000   1.0000   1.0000   1.0000
     1.0000   1.0000   1.0000   1.0000   1.0000   1.0000   1.0000   1.0000
     1.0000   1.0000   1.0000   1.0000   1.0000   1.0000   1.0000   1.0000
     1.0000   1.0000   1.0000   1.0000   1.0000   1.0000   1.0000   1.0000
     1.0000   1.0000   1.0000   1.0000   1.0000   1.0000   1.0000   1.0000
     1.0000   1.0000   1.0000   1.0000   1.0000   1.0000   1.0000   1.0000
     1.0000   1.0000   1.0000   1.0000   1.0000   1.0000   1.0000   1.0000
     1.0000   1.0000   1.0000   1.0000   1.0000   1.0000   1.0000   1.0000
     1.0000   1.0000   1.0000   1.0000   1.0000   1.0000   1.0000   1.0000
     1.0000   1.0000   1.0000   1.0000   1.0000   1.0000   1.0000   1.0000
     0.0000   0.0000   0.0000   0.0000   0.0000   0.0000   0.0000   0.0000
     0.0000   0.0000   0.0000   0.0000   0.0000   0.0000   0.0000   0.0000
     0.0000   0.0000   0.0000   0.0000   0.0000   0.0000   0.0000   0.0000
     0.0000   0.0000   0.0000   0.0000   0.0000   0.0000

          k = 0.1667 0.2926 0.0000 ( 29955 PWs)   bands (ev):

   -44.1941 -44.1939 -44.1927 -44.1927 -44.1885 -44.1884 -44.1882 -44.1882
   -44.1872 -44.1872 -44.1870 -44.1870 -44.1639 -44.1637 -44.1603 -44.1600
   -44.1591 -44.1591 -44.1584 -44.1583 -44.1545 -44.1544 -44.1542 -44.1541
   -44.1511 -44.1509 -44.1457 -44.1456 -44.1455 -44.1454 -44.0950 -44.0950
   -44.0936 -44.0936 -44.0582 -44.0581 -44.0537 -44.0537 -44.0426 -44.0425
   -18.1565 -18.1538 -18.1504 -18.1484 -18.1450 -18.1436 -18.1428 -18.1424
   -18.1251 -18.1250 -18.1230 -18.1208 -18.1207 -18.1180 -18.1169 -18.1160
   -18.1142 -18.1118 -18.1116 -18.1095 -18.1092 -18.1073 -18.1071 -18.0935
   -18.0922 -18.0910 -18.0879 -18.0817 -18.0813 -18.0799 -18.0774 -18.0772
   -18.0659 -18.0659 -18.0621 -18.0621 -18.0557 -18.0557 -18.0523 -18.0523
    -9.9546  -9.8892  -9.8048  -9.7541  -9.4327  -9.3426  -9.2714  -9.2452
    -4.4374  -4.2434  -3.9854  -3.5970  -3.5187  -3.2512  -3.0652  -2.9471
    -0.6991  -0.5625  -0.5201  -0.2963  -0.2626  -0.0217   0.3226   0.4368
     0.4751   0.5366   0.7549   1.0612   1.1764   1.3572   1.6144   1.7120
     2.1327   2.1490   2.2118   2.3616   2.3957   2.5448   2.6340   2.7192
     4.5997   4.9586   4.9938   5.1603   5.2614   5.3399   5.5095   5.5411
     5.7764   5.8786   6.0949   6.2320   6.2728   6.5164   6.6491   6.7976
     7.1070   7.2522   7.5381   7.5928   7.7284   7.9034   8.0261   8.1167
     8.2712   8.4175   8.7867   9.2593   9.5176   9.7142

     occupation numbers 
     1.0000   1.0000   1.0000   1.0000   1.0000   1.0000   1.0000   1.0000
     1.0000   1.0000   1.0000   1.0000   1.0000   1.0000   1.0000   1.0000
     1.0000   1.0000   1.0000   1.0000   1.0000   1.0000   1.0000   1.0000
     1.0000   1.0000   1.0000   1.0000   1.0000   1.0000   1.0000   1.0000
     1.0000   1.0000   1.0000   1.0000   1.0000   1.0000   1.0000   1.0000
     1.0000   1.0000   1.0000   1.0000   1.0000   1.0000   1.0000   1.0000
     1.0000   1.0000   1.0000   1.0000   1.0000   1.0000   1.0000   1.0000
     1.0000   1.0000   1.0000   1.0000   1.0000   1.0000   1.0000   1.0000
     1.0000   1.0000   1.0000   1.0000   1.0000   1.0000   1.0000   1.0000
     1.0000   1.0000   1.0000   1.0000   1.0000   1.0000   1.0000   1.0000
     1.0000   1.0000   1.0000   1.0000   1.0000   1.0000   1.0000   1.0000
     1.0000   1.0000   1.0000   1.0000   1.0000   1.0000   1.0000   1.0000
     1.0000   1.0000   1.0000   1.0000   1.0000   1.0000   1.0000   1.0000
     1.0000   1.0000   1.0000   1.0000   1.0000   1.0000   1.0000   1.0000
     1.0000   1.0000   1.0000   1.0000   1.0000   1.0000   1.0000   1.0000
     0.0000   0.0000   0.0000   0.0000   0.0000   0.0000   0.0000   0.0000
     0.0000   0.0000   0.0000   0.0000   0.0000   0.0000   0.0000   0.0000
     0.0000   0.0000   0.0000   0.0000   0.0000   0.0000   0.0000   0.0000
     0.0000   0.0000   0.0000   0.0000   0.0000   0.0000

          k = 0.1667-0.4389 0.0000 ( 29926 PWs)   bands (ev):

   -44.1941 -44.1939 -44.1928 -44.1926 -44.1884 -44.1883 -44.1882 -44.1882
   -44.1872 -44.1871 -44.1870 -44.1869 -44.1640 -44.1636 -44.1602 -44.1600
   -44.1591 -44.1591 -44.1584 -44.1583 -44.1545 -44.1544 -44.1541 -44.1541
   -44.1510 -44.1509 -44.1457 -44.1456 -44.1454 -44.1453 -44.0950 -44.0949
   -44.0936 -44.0936 -44.0581 -44.0581 -44.0537 -44.0537 -44.0426 -44.0425
   -18.1549 -18.1540 -18.1506 -18.1502 -18.1451 -18.1443 -18.1431 -18.1430
   -18.1244 -18.1244 -18.1226 -18.1209 -18.1209 -18.1172 -18.1170 -18.1166
   -18.1136 -18.1122 -18.1116 -18.1093 -18.1086 -18.1077 -18.1073 -18.0930
   -18.0916 -18.0911 -18.0884 -18.0806 -18.0788 -18.0787 -18.0784 -18.0779
   -18.0657 -18.0656 -18.0624 -18.0624 -18.0552 -18.0551 -18.0530 -18.0530
    -9.6932  -9.6861  -9.6851  -9.4815  -9.4802  -9.4791  -9.4731  -9.4719
    -4.3317  -4.3257  -4.2951  -3.7149  -3.7060  -3.3578  -3.3475  -3.2990
    -0.3056  -0.2874  -0.2075  -0.0157   0.0090   0.0250   0.1723   0.1765
     0.3995   0.4525   0.6118   0.8086   1.1132   1.2251   1.4795   1.4845
     2.2691   2.2780   2.2999   2.3843   2.4394   2.4947   2.5738   2.5884
     4.6763   4.6995   5.1440   5.1462   5.4453   5.4527   5.5045   5.5170
     5.9367   6.1900   6.2275   6.2755   6.4455   6.5934   6.7610   6.7647
     7.0808   7.0886   7.2950   7.2953   7.3654   7.9180   8.1154   8.1725
     8.8101   8.8785   9.0725   9.1833   9.4577   9.5806

     occupation numbers 
     1.0000   1.0000   1.0000   1.0000   1.0000   1.0000   1.0000   1.0000
     1.0000   1.0000   1.0000   1.0000   1.0000   1.0000   1.0000   1.0000
     1.0000   1.0000   1.0000   1.0000   1.0000   1.0000   1.0000   1.0000
     1.0000   1.0000   1.0000   1.0000   1.0000   1.0000   1.0000   1.0000
     1.0000   1.0000   1.0000   1.0000   1.0000   1.0000   1.0000   1.0000
     1.0000   1.0000   1.0000   1.0000   1.0000   1.0000   1.0000   1.0000
     1.0000   1.0000   1.0000   1.0000   1.0000   1.0000   1.0000   1.0000
     1.0000   1.0000   1.0000   1.0000   1.0000   1.0000   1.0000   1.0000
     1.0000   1.0000   1.0000   1.0000   1.0000   1.0000   1.0000   1.0000
     1.0000   1.0000   1.0000   1.0000   1.0000   1.0000   1.0000   1.0000
     1.0000   1.0000   1.0000   1.0000   1.0000   1.0000   1.0000   1.0000
     1.0000   1.0000   1.0000   1.0000   1.0000   1.0000   1.0000   1.0000
     1.0000   1.0000   1.0000   1.0000   1.0000   1.0000   1.0000   1.0000
     1.0000   1.0000   1.0000   1.0000   1.0000   1.0000   1.0000   1.0000
     1.0000   1.0000   1.0000   1.0000   1.0000   1.0000   1.0000   1.0000
     0.0000   0.0000   0.0000   0.0000   0.0000   0.0000   0.0000   0.0000
     0.0000   0.0000   0.0000   0.0000   0.0000   0.0000   0.0000   0.0000
     0.0000   0.0000   0.0000   0.0000   0.0000   0.0000   0.0000   0.0000
     0.0000   0.0000   0.0000   0.0000   0.0000   0.0000

          k = 0.3333 0.0000 0.0000 ( 29876 PWs)   bands (ev):

   -44.1942 -44.1939 -44.1925 -44.1924 -44.1885 -44.1885 -44.1882 -44.1882
   -44.1870 -44.1869 -44.1868 -44.1867 -44.1636 -44.1635 -44.1603 -44.1600
   -44.1588 -44.1587 -44.1581 -44.1581 -44.1546 -44.1545 -44.1542 -44.1541
   -44.1509 -44.1509 -44.1456 -44.1455 -44.1454 -44.1454 -44.0951 -44.0950
   -44.0933 -44.0933 -44.0579 -44.0578 -44.0538 -44.0537 -44.0425 -44.0425
   -18.1566 -18.1543 -18.1524 -18.1516 -18.1411 -18.1383 -18.1360 -18.1353
   -18.1278 -18.1278 -18.1252 -18.1230 -18.1207 -18.1200 -18.1172 -18.1148
   -18.1127 -18.1122 -18.1106 -18.1066 -18.1065 -18.1049 -18.1046 -18.1002
   -18.0920 -18.0918 -18.0841 -18.0837 -18.0824 -18.0797 -18.0797 -18.0784
   -18.0694 -18.0694 -18.0645 -18.0645 -18.0522 -18.0522 -18.0488 -18.0487
    -9.8872  -9.8260  -9.7519  -9.7200  -9.2605  -9.1919  -9.1314  -9.1211
    -4.3535  -4.1993  -4.0079  -3.8682  -3.4577  -3.3449  -3.2231  -3.1721
    -0.7362  -0.3608   0.0228   0.0710   0.1459   0.2436   0.2892   0.4555
     0.7184   0.7406   0.9401   0.9624   1.2229   1.2628   1.3262   1.4482
     1.6150   1.7249   1.9896   2.2038   2.3579   2.3891   2.5200   2.6399
     3.9370   4.2324   4.5490   4.7440   4.8309   5.1094   5.2289   5.2856
     5.5531   5.6125   5.6243   5.8267   5.9897   6.0251   6.2304   6.5373
     6.6066   6.6453   6.8925   7.0960   7.3461   7.3865   7.4792   7.8470
     8.0753   8.2758   8.7888   9.5007   9.6262   9.8384

     occupation numbers 
     1.0000   1.0000   1.0000   1.0000   1.0000   1.0000   1.0000   1.0000
     1.0000   1.0000   1.0000   1.0000   1.0000   1.0000   1.0000   1.0000
     1.0000   1.0000   1.0000   1.0000   1.0000   1.0000   1.0000   1.0000
     1.0000   1.0000   1.0000   1.0000   1.0000   1.0000   1.0000   1.0000
     1.0000   1.0000   1.0000   1.0000   1.0000   1.0000   1.0000   1.0000
     1.0000   1.0000   1.0000   1.0000   1.0000   1.0000   1.0000   1.0000
     1.0000   1.0000   1.0000   1.0000   1.0000   1.0000   1.0000   1.0000
     1.0000   1.0000   1.0000   1.0000   1.0000   1.0000   1.0000   1.0000
     1.0000   1.0000   1.0000   1.0000   1.0000   1.0000   1.0000   1.0000
     1.0000   1.0000   1.0000   1.0000   1.0000   1.0000   1.0000   1.0000
     1.0000   1.0000   1.0000   1.0000   1.0000   1.0000   1.0000   1.0000
     1.0000   1.0000   1.0000   1.0000   1.0000   1.0000   1.0000   1.0000
     1.0000   1.0000   1.0000   1.0000   1.0000   1.0000   1.0000   1.0000
     1.0000   1.0000   1.0000   1.0000   1.0000   1.0000   1.0000   1.0000
     1.0000   1.0000   1.0000   1.0000   1.0000   1.0000   1.0000   1.0000
     0.0000   0.0000   0.0000   0.0000   0.0000   0.0000   0.0000   0.0000
     0.0000   0.0000   0.0000   0.0000   0.0000   0.0000   0.0000   0.0000
     0.0000   0.0000   0.0000   0.0000   0.0000   0.0000   0.0000   0.0000
     0.0000   0.0000   0.0000   0.0000   0.0000   0.0000

          k = 0.3333 0.1463 0.0000 ( 29972 PWs)   bands (ev):

   -44.1942 -44.1940 -44.1926 -44.1925 -44.1885 -44.1884 -44.1883 -44.1883
   -44.1870 -44.1870 -44.1868 -44.1868 -44.1639 -44.1637 -44.1603 -44.1601
   -44.1591 -44.1591 -44.1584 -44.1584 -44.1546 -44.1545 -44.1542 -44.1542
   -44.1510 -44.1509 -44.1456 -44.1455 -44.1454 -44.1453 -44.0951 -44.0951
   -44.0934 -44.0934 -44.0582 -44.0581 -44.0538 -44.0538 -44.0426 -44.0425
   -18.1581 -18.1547 -18.1537 -18.1527 -18.1413 -18.1382 -18.1363 -18.1357
   -18.1288 -18.1287 -18.1248 -18.1220 -18.1211 -18.1207 -18.1167 -18.1145
   -18.1130 -18.1121 -18.1096 -18.1067 -18.1067 -18.1049 -18.1048 -18.0996
   -18.0917 -18.0914 -18.0835 -18.0827 -18.0824 -18.0794 -18.0792 -18.0781
   -18.0693 -18.0692 -18.0646 -18.0646 -18.0521 -18.0521 -18.0490 -18.0490
    -9.8154  -9.7569  -9.6851  -9.6543  -9.2592  -9.1938  -9.1358  -9.1268
    -4.2980  -4.1356  -3.9309  -3.7741  -3.4398  -3.3443  -3.2492  -3.2227
    -0.7882  -0.7262  -0.6747  -0.4437  -0.4090  -0.1220   0.1361   0.1740
     0.6619   0.6861   0.8137   1.0096   1.0759   1.2618   1.4036   1.4094
     1.5681   1.6270   1.7957   2.1000   2.2714   2.3683   2.3893   2.4663
     4.3656   4.6640   4.7592   4.8357   4.9719   5.0581   5.1734   5.2235
     5.7463   5.8246   6.0699   6.3523   6.4246   6.5638   6.6473   6.7630
     6.8948   7.0800   7.2160   7.4749   7.7081   7.9468   8.0609   8.1393
     8.2384   8.4094   8.8801   9.3067   9.3637   9.8434

     occupation numbers 
     1.0000   1.0000   1.0000   1.0000   1.0000   1.0000   1.0000   1.0000
     1.0000   1.0000   1.0000   1.0000   1.0000   1.0000   1.0000   1.0000
     1.0000   1.0000   1.0000   1.0000   1.0000   1.0000   1.0000   1.0000
     1.0000   1.0000   1.0000   1.0000   1.0000   1.0000   1.0000   1.0000
     1.0000   1.0000   1.0000   1.0000   1.0000   1.0000   1.0000   1.0000
     1.0000   1.0000   1.0000   1.0000   1.0000   1.0000   1.0000   1.0000
     1.0000   1.0000   1.0000   1.0000   1.0000   1.0000   1.0000   1.0000
     1.0000   1.0000   1.0000   1.0000   1.0000   1.0000   1.0000   1.0000
     1.0000   1.0000   1.0000   1.0000   1.0000   1.0000   1.0000   1.0000
     1.0000   1.0000   1.0000   1.0000   1.0000   1.0000   1.0000   1.0000
     1.0000   1.0000   1.0000   1.0000   1.0000   1.0000   1.0000   1.0000
     1.0000   1.0000   1.0000   1.0000   1.0000   1.0000   1.0000   1.0000
     1.0000   1.0000   1.0000   1.0000   1.0000   1.0000   1.0000   1.0000
     1.0000   1.0000   1.0000   1.0000   1.0000   1.0000   1.0000   1.0000
     1.0000   1.0000   1.0000   1.0000   1.0000   1.0000   1.0000   1.0000
     0.0000   0.0000   0.0000   0.0000   0.0000   0.0000   0.0000   0.0000
     0.0000   0.0000   0.0000   0.0000   0.0000   0.0000   0.0000   0.0000
     0.0000   0.0000   0.0000   0.0000   0.0000   0.0000   0.0000   0.0000
     0.0000   0.0000   0.0000   0.0000   0.0000   0.0000

          k = 0.3333 0.2926 0.0000 ( 29993 PWs)   bands (ev):

   -44.1941 -44.1940 -44.1926 -44.1925 -44.1884 -44.1884 -44.1883 -44.1883
   -44.1871 -44.1870 -44.1868 -44.1868 -44.1639 -44.1638 -44.1602 -44.1601
   -44.1591 -44.1591 -44.1584 -44.1584 -44.1545 -44.1545 -44.1542 -44.1542
   -44.1510 -44.1509 -44.1456 -44.1455 -44.1454 -44.1453 -44.0951 -44.0950
   -44.0934 -44.0934 -44.0582 -44.0581 -44.0538 -44.0537 -44.0425 -44.0425
   -18.1605 -18.1569 -18.1557 -18.1548 -18.1414 -18.1380 -18.1374 -18.1366
   -18.1304 -18.1302 -18.1242 -18.1226 -18.1226 -18.1200 -18.1149 -18.1139
   -18.1136 -18.1117 -18.1078 -18.1069 -18.1067 -18.1052 -18.1049 -18.0985
   -18.0913 -18.0909 -18.0835 -18.0809 -18.0804 -18.0786 -18.0782 -18.0775
   -18.0688 -18.0688 -18.0647 -18.0646 -18.0518 -18.0517 -18.0494 -18.0494
    -9.6345  -9.5846  -9.5195  -9.4880  -9.2868  -9.2283  -9.1768  -9.1707
    -4.1647  -4.0112  -3.8188  -3.5777  -3.5176  -3.3845  -3.3018  -3.2708
    -1.3007  -1.1576  -1.0019  -0.9066  -0.5696  -0.4022  -0.2939  -0.2053
     0.0252   0.1141   0.3815   0.4768   0.6954   0.8829   1.1328   1.1643
     1.3442   1.3635   1.6206   1.8350   1.9966   2.1127   2.3138   2.3724
     4.3654   4.9202   5.5245   5.7645   5.9199   6.0149   6.1171   6.1591
     6.1892   6.3021   6.4665   6.5801   6.6437   7.2940   7.4200   7.4876
     7.5589   7.6079   7.6559   7.8136   8.0201   8.6044   8.7476   8.8728
     8.9170   8.9742   9.1063   9.2363   9.4059   9.4525

     occupation numbers 
     1.0000   1.0000   1.0000   1.0000   1.0000   1.0000   1.0000   1.0000
     1.0000   1.0000   1.0000   1.0000   1.0000   1.0000   1.0000   1.0000
     1.0000   1.0000   1.0000   1.0000   1.0000   1.0000   1.0000   1.0000
     1.0000   1.0000   1.0000   1.0000   1.0000   1.0000   1.0000   1.0000
     1.0000   1.0000   1.0000   1.0000   1.0000   1.0000   1.0000   1.0000
     1.0000   1.0000   1.0000   1.0000   1.0000   1.0000   1.0000   1.0000
     1.0000   1.0000   1.0000   1.0000   1.0000   1.0000   1.0000   1.0000
     1.0000   1.0000   1.0000   1.0000   1.0000   1.0000   1.0000   1.0000
     1.0000   1.0000   1.0000   1.0000   1.0000   1.0000   1.0000   1.0000
     1.0000   1.0000   1.0000   1.0000   1.0000   1.0000   1.0000   1.0000
     1.0000   1.0000   1.0000   1.0000   1.0000   1.0000   1.0000   1.0000
     1.0000   1.0000   1.0000   1.0000   1.0000   1.0000   1.0000   1.0000
     1.0000   1.0000   1.0000   1.0000   1.0000   1.0000   1.0000   1.0000
     1.0000   1.0000   1.0000   1.0000   1.0000   1.0000   1.0000   1.0000
     1.0000   1.0000   1.0000   1.0000   1.0000   1.0000   1.0000   1.0000
     0.0000   0.0000   0.0000   0.0000   0.0000   0.0000   0.0000   0.0000
     0.0000   0.0000   0.0000   0.0000   0.0000   0.0000   0.0000   0.0000
     0.0000   0.0000   0.0000   0.0000   0.0000   0.0000   0.0000   0.0000
     0.0000   0.0000   0.0000   0.0000   0.0000   0.0000

          k = 0.3333-0.4389 0.0000 ( 29980 PWs)   bands (ev):

   -44.1940 -44.1939 -44.1925 -44.1925 -44.1884 -44.1882 -44.1882 -44.1881
   -44.1870 -44.1870 -44.1868 -44.1868 -44.1639 -44.1637 -44.1602 -44.1600
   -44.1591 -44.1591 -44.1584 -44.1583 -44.1545 -44.1543 -44.1541 -44.1541
   -44.1509 -44.1508 -44.1456 -44.1455 -44.1453 -44.1452 -44.0949 -44.0949
   -44.0934 -44.0934 -44.0582 -44.0581 -44.0537 -44.0537 -44.0425 -44.0424
   -18.1615 -18.1583 -18.1563 -18.1561 -18.1413 -18.1382 -18.1377 -18.1372
   -18.1311 -18.1309 -18.1240 -18.1234 -18.1233 -18.1192 -18.1140 -18.1139
   -18.1133 -18.1116 -18.1074 -18.1066 -18.1062 -18.1058 -18.1050 -18.0979
   -18.0909 -18.0909 -18.0837 -18.0800 -18.0793 -18.0780 -18.0778 -18.0774
   -18.0685 -18.0684 -18.0647 -18.0647 -18.0516 -18.0515 -18.0497 -18.0496
    -9.4503  -9.4434  -9.4427  -9.3152  -9.3084  -9.3076  -9.2731  -9.2731
    -3.9805  -3.9676  -3.9522  -3.5416  -3.5387  -3.3376  -3.3248  -3.3027
    -1.1722  -1.1698  -1.0301  -1.0056  -0.8251  -0.8148  -0.6658  -0.6646
     0.0690   0.0702   0.2741   0.3336   0.6098   0.6124   0.8003   0.8172
     1.2547   1.3155   1.4509   1.6870   1.8777   1.9974   2.1454   2.1516
     5.1309   5.1444   5.3995   5.6601   5.8985   6.4116   6.5539   6.6312
     6.9558   6.9799   7.0260   7.0882   7.2214   7.3081   7.3498   7.4055
     7.8226   7.9580   8.2966   8.3639   8.4830   8.7777   8.7910   8.8014
     9.0680   9.1060   9.2692   9.3351   9.6071   9.6225

     occupation numbers 
     1.0000   1.0000   1.0000   1.0000   1.0000   1.0000   1.0000   1.0000
     1.0000   1.0000   1.0000   1.0000   1.0000   1.0000   1.0000   1.0000
     1.0000   1.0000   1.0000   1.0000   1.0000   1.0000   1.0000   1.0000
     1.0000   1.0000   1.0000   1.0000   1.0000   1.0000   1.0000   1.0000
     1.0000   1.0000   1.0000   1.0000   1.0000   1.0000   1.0000   1.0000
     1.0000   1.0000   1.0000   1.0000   1.0000   1.0000   1.0000   1.0000
     1.0000   1.0000   1.0000   1.0000   1.0000   1.0000   1.0000   1.0000
     1.0000   1.0000   1.0000   1.0000   1.0000   1.0000   1.0000   1.0000
     1.0000   1.0000   1.0000   1.0000   1.0000   1.0000   1.0000   1.0000
     1.0000   1.0000   1.0000   1.0000   1.0000   1.0000   1.0000   1.0000
     1.0000   1.0000   1.0000   1.0000   1.0000   1.0000   1.0000   1.0000
     1.0000   1.0000   1.0000   1.0000   1.0000   1.0000   1.0000   1.0000
     1.0000   1.0000   1.0000   1.0000   1.0000   1.0000   1.0000   1.0000
     1.0000   1.0000   1.0000   1.0000   1.0000   1.0000   1.0000   1.0000
     1.0000   1.0000   1.0000   1.0000   1.0000   1.0000   1.0000   1.0000
     0.0000   0.0000   0.0000   0.0000   0.0000   0.0000   0.0000   0.0000
     0.0000   0.0000   0.0000   0.0000   0.0000   0.0000   0.0000   0.0000
     0.0000   0.0000   0.0000   0.0000   0.0000   0.0000   0.0000   0.0000
     0.0000   0.0000   0.0000   0.0000   0.0000   0.0000

          k =-0.5000 0.0000 0.0000 ( 29934 PWs)   bands (ev):

   -44.1942 -44.1942 -44.1925 -44.1925 -44.1885 -44.1885 -44.1884 -44.1884
   -44.1870 -44.1869 -44.1868 -44.1868 -44.1636 -44.1636 -44.1602 -44.1602
   -44.1588 -44.1588 -44.1582 -44.1581 -44.1545 -44.1545 -44.1543 -44.1543
   -44.1509 -44.1509 -44.1456 -44.1456 -44.1454 -44.1454 -44.0952 -44.0951
   -44.0934 -44.0933 -44.0579 -44.0579 -44.0538 -44.0538 -44.0425 -44.0425
   -18.1577 -18.1577 -18.1546 -18.1546 -18.1358 -18.1358 -18.1327 -18.1327
   -18.1307 -18.1307 -18.1241 -18.1241 -18.1219 -18.1218 -18.1152 -18.1152
   -18.1127 -18.1127 -18.1060 -18.1060 -18.1036 -18.1036 -18.1033 -18.1033
   -18.0909 -18.0909 -18.0828 -18.0828 -18.0817 -18.0817 -18.0792 -18.0792
   -18.0710 -18.0710 -18.0650 -18.0650 -18.0496 -18.0496 -18.0478 -18.0478
    -9.4295  -9.4295  -9.4111  -9.4111  -9.3983  -9.3983  -9.2981  -9.2980
    -4.2263  -4.2263  -4.0828  -4.0828  -3.9159  -3.9159  -3.8032  -3.8032
    -0.0611  -0.0611   0.2386   0.2386   0.5042   0.5042   0.6135   0.6135
     0.8862   0.8862   1.0193   1.0193   1.2162   1.2162   1.3977   1.3977
     1.9189   1.9189   1.9580   1.9580   2.0420   2.0420   2.1315   2.1315
     4.4076   4.4076   4.4364   4.4364   4.5613   4.5613   4.5698   4.5698
     5.2660   5.2660   5.4723   5.4723   5.6759   5.6760   5.8100   5.8100
     6.0852   6.0852   6.6295   6.6295   6.9810   6.9810   7.4895   7.4895
     8.9426   8.9426   9.3702   9.3702   9.8442   9.8443

     occupation numbers 
     1.0000   1.0000   1.0000   1.0000   1.0000   1.0000   1.0000   1.0000
     1.0000   1.0000   1.0000   1.0000   1.0000   1.0000   1.0000   1.0000
     1.0000   1.0000   1.0000   1.0000   1.0000   1.0000   1.0000   1.0000
     1.0000   1.0000   1.0000   1.0000   1.0000   1.0000   1.0000   1.0000
     1.0000   1.0000   1.0000   1.0000   1.0000   1.0000   1.0000   1.0000
     1.0000   1.0000   1.0000   1.0000   1.0000   1.0000   1.0000   1.0000
     1.0000   1.0000   1.0000   1.0000   1.0000   1.0000   1.0000   1.0000
     1.0000   1.0000   1.0000   1.0000   1.0000   1.0000   1.0000   1.0000
     1.0000   1.0000   1.0000   1.0000   1.0000   1.0000   1.0000   1.0000
     1.0000   1.0000   1.0000   1.0000   1.0000   1.0000   1.0000   1.0000
     1.0000   1.0000   1.0000   1.0000   1.0000   1.0000   1.0000   1.0000
     1.0000   1.0000   1.0000   1.0000   1.0000   1.0000   1.0000   1.0000
     1.0000   1.0000   1.0000   1.0000   1.0000   1.0000   1.0000   1.0000
     1.0000   1.0000   1.0000   1.0000   1.0000   1.0000   1.0000   1.0000
     1.0000   1.0000   1.0000   1.0000   1.0000   1.0000   1.0000   1.0000
     0.0000   0.0000   0.0000   0.0000   0.0000   0.0000   0.0000   0.0000
     0.0000   0.0000   0.0000   0.0000   0.0000   0.0000   0.0000   0.0000
     0.0000   0.0000   0.0000   0.0000   0.0000   0.0000   0.0000   0.0000
     0.0000   0.0000   0.0000   0.0000   0.0000   0.0000

          k =-0.5000 0.1463 0.0000 ( 29926 PWs)   bands (ev):

   -44.1940 -44.1940 -44.1925 -44.1924 -44.1884 -44.1883 -44.1883 -44.1882
   -44.1870 -44.1869 -44.1868 -44.1867 -44.1637 -44.1637 -44.1601 -44.1601
   -44.1590 -44.1589 -44.1583 -44.1583 -44.1544 -44.1544 -44.1542 -44.1541
   -44.1509 -44.1509 -44.1455 -44.1455 -44.1453 -44.1453 -44.0950 -44.0950
   -44.0934 -44.0933 -44.0580 -44.0580 -44.0537 -44.0537 -44.0425 -44.0424
   -18.1592 -18.1592 -18.1559 -18.1559 -18.1362 -18.1361 -18.1338 -18.1338
   -18.1309 -18.1309 -18.1236 -18.1236 -18.1230 -18.1230 -18.1145 -18.1145
   -18.1127 -18.1127 -18.1054 -18.1054 -18.1035 -18.1035 -18.1034 -18.1033
   -18.0908 -18.0908 -18.0822 -18.0821 -18.0806 -18.0806 -18.0791 -18.0791
   -18.0707 -18.0707 -18.0650 -18.0650 -18.0497 -18.0497 -18.0478 -18.0478
    -9.3923  -9.3923  -9.3756  -9.3756  -9.3646  -9.3646  -9.2644  -9.2644
    -4.1135  -4.1135  -3.9823  -3.9823  -3.8323  -3.8323  -3.7344  -3.7344
    -0.3513  -0.3513  -0.1918  -0.1917  -0.0501  -0.0501   0.0973   0.0973
     0.4768   0.4768   0.6936   0.6936   0.9971   0.9972   1.1691   1.1691
     1.5879   1.5879   1.7637   1.7637   2.0340   2.0340   2.2943   2.2943
     4.2447   4.2447   4.6720   4.6720   5.0427   5.0427   5.2054   5.2054
     6.0592   6.0592   6.2242   6.2242   6.4254   6.4254   6.5710   6.5710
     6.7635   6.7635   7.1250   7.1250   7.1693   7.1693   7.3792   7.3792
     8.9654   8.9655   9.3768   9.3768   9.5671   9.5672

     occupation numbers 
     1.0000   1.0000   1.0000   1.0000   1.0000   1.0000   1.0000   1.0000
     1.0000   1.0000   1.0000   1.0000   1.0000   1.0000   1.0000   1.0000
     1.0000   1.0000   1.0000   1.0000   1.0000   1.0000   1.0000   1.0000
     1.0000   1.0000   1.0000   1.0000   1.0000   1.0000   1.0000   1.0000
     1.0000   1.0000   1.0000   1.0000   1.0000   1.0000   1.0000   1.0000
     1.0000   1.0000   1.0000   1.0000   1.0000   1.0000   1.0000   1.0000
     1.0000   1.0000   1.0000   1.0000   1.0000   1.0000   1.0000   1.0000
     1.0000   1.0000   1.0000   1.0000   1.0000   1.0000   1.0000   1.0000
     1.0000   1.0000   1.0000   1.0000   1.0000   1.0000   1.0000   1.0000
     1.0000   1.0000   1.0000   1.0000   1.0000   1.0000   1.0000   1.0000
     1.0000   1.0000   1.0000   1.0000   1.0000   1.0000   1.0000   1.0000
     1.0000   1.0000   1.0000   1.0000   1.0000   1.0000   1.0000   1.0000
     1.0000   1.0000   1.0000   1.0000   1.0000   1.0000   1.0000   1.0000
     1.0000   1.0000   1.0000   1.0000   1.0000   1.0000   1.0000   1.0000
     1.0000   1.0000   1.0000   1.0000   1.0000   1.0000   1.0000   1.0000
     0.0000   0.0000   0.0000   0.0000   0.0000   0.0000   0.0000   0.0000
     0.0000   0.0000   0.0000   0.0000   0.0000   0.0000   0.0000   0.0000
     0.0000   0.0000   0.0000   0.0000   0.0000   0.0000   0.0000   0.0000
     0.0000   0.0000   0.0000   0.0000   0.0000   0.0000

          k =-0.5000 0.2926 0.0000 ( 30010 PWs)   bands (ev):

   -44.1941 -44.1940 -44.1925 -44.1925 -44.1884 -44.1884 -44.1883 -44.1883
   -44.1870 -44.1869 -44.1868 -44.1868 -44.1639 -44.1639 -44.1602 -44.1601
   -44.1591 -44.1591 -44.1584 -44.1584 -44.1545 -44.1544 -44.1542 -44.1542
   -44.1509 -44.1509 -44.1455 -44.1455 -44.1453 -44.1453 -44.0950 -44.0950
   -44.0934 -44.0934 -44.0582 -44.0581 -44.0538 -44.0537 -44.0425 -44.0425
   -18.1623 -18.1623 -18.1585 -18.1585 -18.1375 -18.1374 -18.1354 -18.1354
   -18.1313 -18.1313 -18.1256 -18.1256 -18.1225 -18.1225 -18.1137 -18.1137
   -18.1120 -18.1120 -18.1048 -18.1048 -18.1038 -18.1037 -18.1025 -18.1025
   -18.0904 -18.0904 -18.0809 -18.0809 -18.0792 -18.0792 -18.0783 -18.0783
   -18.0699 -18.0699 -18.0648 -18.0648 -18.0498 -18.0497 -18.0479 -18.0478
    -9.3140  -9.3140  -9.3024  -9.3024  -9.2957  -9.2957  -9.1950  -9.1950
    -3.8416  -3.8416  -3.7508  -3.7508  -3.6535  -3.6535  -3.5890  -3.5889
    -1.0483  -1.0483  -0.8569  -0.8569  -0.6224  -0.6224  -0.5074  -0.5074
    -0.1074  -0.1074   0.0492   0.0492   0.3272   0.3272   0.5420   0.5420
     1.2172   1.2172   1.5702   1.5702   1.9156   1.9156   2.0982   2.0982
     5.0784   5.0784   5.4392   5.4392   5.9087   5.9087   6.2925   6.2925
     6.6571   6.6571   6.8373   6.8373   6.9342   6.9342   7.2336   7.2336
     7.8050   7.8050   8.2305   8.2305   8.5571   8.5571   8.7422   8.7422
     9.0444   9.0444   9.3386   9.3386   9.7639   9.7639

     occupation numbers 
     1.0000   1.0000   1.0000   1.0000   1.0000   1.0000   1.0000   1.0000
     1.0000   1.0000   1.0000   1.0000   1.0000   1.0000   1.0000   1.0000
     1.0000   1.0000   1.0000   1.0000   1.0000   1.0000   1.0000   1.0000
     1.0000   1.0000   1.0000   1.0000   1.0000   1.0000   1.0000   1.0000
     1.0000   1.0000   1.0000   1.0000   1.0000   1.0000   1.0000   1.0000
     1.0000   1.0000   1.0000   1.0000   1.0000   1.0000   1.0000   1.0000
     1.0000   1.0000   1.0000   1.0000   1.0000   1.0000   1.0000   1.0000
     1.0000   1.0000   1.0000   1.0000   1.0000   1.0000   1.0000   1.0000
     1.0000   1.0000   1.0000   1.0000   1.0000   1.0000   1.0000   1.0000
     1.0000   1.0000   1.0000   1.0000   1.0000   1.0000   1.0000   1.0000
     1.0000   1.0000   1.0000   1.0000   1.0000   1.0000   1.0000   1.0000
     1.0000   1.0000   1.0000   1.0000   1.0000   1.0000   1.0000   1.0000
     1.0000   1.0000   1.0000   1.0000   1.0000   1.0000   1.0000   1.0000
     1.0000   1.0000   1.0000   1.0000   1.0000   1.0000   1.0000   1.0000
     1.0000   1.0000   1.0000   1.0000   1.0000   1.0000   1.0000   1.0000
     0.0000   0.0000   0.0000   0.0000   0.0000   0.0000   0.0000   0.0000
     0.0000   0.0000   0.0000   0.0000   0.0000   0.0000   0.0000   0.0000
     0.0000   0.0000   0.0000   0.0000   0.0000   0.0000   0.0000   0.0000
     0.0000   0.0000   0.0000   0.0000   0.0000   0.0000

          k =-0.5000-0.4389 0.0000 ( 30032 PWs)   bands (ev):

   -44.1941 -44.1941 -44.1924 -44.1924 -44.1884 -44.1884 -44.1883 -44.1883
   -44.1869 -44.1868 -44.1867 -44.1867 -44.1639 -44.1639 -44.1602 -44.1601
   -44.1592 -44.1591 -44.1585 -44.1585 -44.1545 -44.1545 -44.1542 -44.1542
   -44.1508 -44.1508 -44.1454 -44.1454 -44.1453 -44.1452 -44.0951 -44.0950
   -44.0933 -44.0933 -44.0582 -44.0582 -44.0537 -44.0537 -44.0424 -44.0424
   -18.1638 -18.1638 -18.1598 -18.1598 -18.1385 -18.1385 -18.1358 -18.1358
   -18.1315 -18.1315 -18.1268 -18.1268 -18.1220 -18.1220 -18.1136 -18.1136
   -18.1114 -18.1114 -18.1047 -18.1047 -18.1038 -18.1038 -18.1018 -18.1018
   -18.0902 -18.0902 -18.0804 -18.0804 -18.0791 -18.0790 -18.0773 -18.0773
   -18.0695 -18.0695 -18.0648 -18.0647 -18.0498 -18.0498 -18.0479 -18.0478
    -9.2715  -9.2714  -9.2656  -9.2656  -9.2609  -9.2608  -9.1591  -9.1591
    -3.6621  -3.6621  -3.6167  -3.6167  -3.5713  -3.5713  -3.5071  -3.5071
    -1.3120  -1.3120  -1.0819  -1.0819  -0.8341  -0.8341  -0.8008  -0.8008
    -0.3530  -0.3530  -0.2993  -0.2992  -0.1012  -0.1012   0.1050   0.1050
     1.2622   1.2622   1.6131   1.6131   1.8779   1.8779   1.9430   1.9430
     5.6577   5.6577   5.7149   5.7149   5.8431   5.8431   5.9921   5.9921
     7.3336   7.3336   7.3434   7.3434   7.5323   7.5323   7.5659   7.5659
     8.1693   8.1694   8.7996   8.7996   9.3278   9.3278   9.5072   9.5072
     9.5799   9.5799   9.6937   9.6937   9.9651   9.9655

     occupation numbers 
     1.0000   1.0000   1.0000   1.0000   1.0000   1.0000   1.0000   1.0000
     1.0000   1.0000   1.0000   1.0000   1.0000   1.0000   1.0000   1.0000
     1.0000   1.0000   1.0000   1.0000   1.0000   1.0000   1.0000   1.0000
     1.0000   1.0000   1.0000   1.0000   1.0000   1.0000   1.0000   1.0000
     1.0000   1.0000   1.0000   1.0000   1.0000   1.0000   1.0000   1.0000
     1.0000   1.0000   1.0000   1.0000   1.0000   1.0000   1.0000   1.0000
     1.0000   1.0000   1.0000   1.0000   1.0000   1.0000   1.0000   1.0000
     1.0000   1.0000   1.0000   1.0000   1.0000   1.0000   1.0000   1.0000
     1.0000   1.0000   1.0000   1.0000   1.0000   1.0000   1.0000   1.0000
     1.0000   1.0000   1.0000   1.0000   1.0000   1.0000   1.0000   1.0000
     1.0000   1.0000   1.0000   1.0000   1.0000   1.0000   1.0000   1.0000
     1.0000   1.0000   1.0000   1.0000   1.0000   1.0000   1.0000   1.0000
     1.0000   1.0000   1.0000   1.0000   1.0000   1.0000   1.0000   1.0000
     1.0000   1.0000   1.0000   1.0000   1.0000   1.0000   1.0000   1.0000
     1.0000   1.0000   1.0000   1.0000   1.0000   1.0000   1.0000   1.0000
     0.0000   0.0000   0.0000   0.0000   0.0000   0.0000   0.0000   0.0000
     0.0000   0.0000   0.0000   0.0000   0.0000   0.0000   0.0000   0.0000
     0.0000   0.0000   0.0000   0.0000   0.0000   0.0000   0.0000   0.0000
     0.0000   0.0000   0.0000   0.0000   0.0000   0.0000

     highest occupied, lowest unoccupied level (ev):     3.0063    3.9370

!    total energy              =   -6751.34563776 Ry

     total all-electron energy =   -137719.351706 Ry
     estimated scf accuracy    <          3.5E-09 Ry

     The total energy is the sum of the following terms:
     one-electron contribution =  -22132.01838044 Ry
     hartree contribution      =   11126.74652660 Ry
     xc contribution           =    -612.49062585 Ry
     ewald contribution        =    8241.35074857 Ry
     one-center paw contrib.   =   -3374.93390664 Ry
      -> PAW hartree energy AE =     218.85245481 Ry
      -> PAW hartree energy PS =    -217.33908861 Ry
      -> PAW xc energy AE      =    -658.04076558 Ry
      -> PAW xc energy PS      =      94.64574551 Ry
      -> total E_H with PAW    =   11128.25989279 Ry
      -> total E_XC with PAW   =   -1175.88564592 Ry

     convergence has been achieved in  14 iterations

     negative rho (up, down):  1.143E-03 0.000E+00

     Forces acting on atoms (cartesian axes, Ry/au):

     atom    1 type  1   force =     0.00000000    0.00621501   -0.00589706
     atom    2 type  1   force =     0.00000000    0.00616466    0.00574736
     atom    3 type  1   force =     0.00000000   -0.00766030    0.00381828
     atom    4 type  1   force =     0.00000000   -0.00825328    0.00241495
     atom    5 type  2   force =     0.00000000    0.00765381   -0.00576954
     atom    6 type  2   force =     0.00000000   -0.00673507   -0.00501927
     atom    7 type  2   force =     0.00000000    0.00880574   -0.00007720
     atom    8 type  2   force =     0.00000000   -0.00708302    0.00508971
     atom    9 type  1   force =     0.00000000    0.00765913   -0.00381682
     atom   10 type  1   force =     0.00000000    0.00825559   -0.00242318
     atom   11 type  1   force =     0.00000000   -0.00621388    0.00591064
     atom   12 type  1   force =     0.00000000   -0.00616122   -0.00573818
     atom   13 type  2   force =     0.00000000    0.00707736   -0.00510011
     atom   14 type  2   force =     0.00000000   -0.00880654    0.00006811
     atom   15 type  2   force =     0.00000000    0.00673751    0.00504786
     atom   16 type  2   force =     0.00000000   -0.00765550    0.00574445
     The non-local contrib.  to forces
     atom    1 type  1   force =     0.00000000   -0.29209515    0.33318494
     atom    2 type  1   force =     0.00000000   -0.29417242   -0.33146672
     atom    3 type  1   force =     0.00000000    0.29260848   -0.34009973
     atom    4 type  1   force =     0.00000000    0.28782506    0.42111789
     atom    5 type  2   force =     0.00000000   -0.27718769    0.26665589
     atom    6 type  2   force =     0.00000000    0.27133462    0.23347692
     atom    7 type  2   force =     0.00000000   -0.26693079   -0.25553772
     atom    8 type  2   force =     0.00000000    0.27205756   -0.23252237
     atom    9 type  1   force =     0.00000000   -0.29260778    0.34009274
     atom   10 type  1   force =     0.00000000   -0.28782355   -0.42113040
     atom   11 type  1   force =     0.00000000    0.29209700   -0.33318343
     atom   12 type  1   force =     0.00000000    0.29417711    0.33147070
     atom   13 type  2   force =     0.00000000   -0.27206293    0.23251309
     atom   14 type  2   force =     0.00000000    0.26693265    0.25552267
     atom   15 type  2   force =     0.00000000   -0.27133073   -0.23346286
     atom   16 type  2   force =     0.00000000    0.27718307   -0.26668345
     The ionic contribution  to forces
     atom    1 type  1   force =    -0.00000000    5.08386264  -99.14575826
     atom    2 type  1   force =    -0.00000000    5.08353108  -20.16074739
     atom    3 type  1   force =     0.00000000   -5.06867948 -139.48347960
     atom    4 type  1   force =     0.00000000   -5.46039508 -217.11528727
     atom    5 type  2   force =     0.00000000    5.47881226 -238.49562262
     atom    6 type  2   force =    -0.00000000   -4.53529507 -102.23517092
     atom    7 type  2   force =     0.00000000    4.50168603 -170.45572494
     atom    8 type  2   force =    -0.00000000   -4.53494550  -34.11560746
     atom    9 type  1   force =    -0.00000000    5.06867922  139.48347537
     atom   10 type  1   force =    -0.00000000    5.46039507  217.11528486
     atom   11 type  1   force =     0.00000000   -5.08386231   99.14576875
     atom   12 type  1   force =    -0.00000000   -5.08353001   20.16074449
     atom   13 type  2   force =     0.00000000    4.53494441   34.11560584
     atom   14 type  2   force =    -0.00000000   -4.50168718  170.45571387
     atom   15 type  2   force =     0.00000000    4.53529509  102.23518247
     atom   16 type  2   force =    -0.00000000   -5.47881118  238.49562281
     The local contribution  to forces
     atom    1 type  1   force =    -0.00000000   -4.78469623   98.80589933
     atom    2 type  1   force =    -0.00000000   -4.78237841   20.49858677
     atom    3 type  1   force =    -0.00000000    4.76753720  139.82770287
     atom    4 type  1   force =     0.00000000    5.16241053  216.69646122
     atom    5 type  2   force =     0.00000000   -5.19491990  238.22404204
     atom    6 type  2   force =    -0.00000000    4.25817417  101.99736794
     atom    7 type  2   force =     0.00000000   -4.22684139  170.71014552
     atom    8 type  2   force =    -0.00000000    4.25674743   34.35239201
     atom    9 type  1   force =    -0.00000000   -4.76752925 -139.82768369
     atom   10 type  1   force =    -0.00000000   -5.16241897 -216.69641707
     atom   11 type  1   force =     0.00000000    4.78469049  -98.80595110
     atom   12 type  1   force =     0.00000000    4.78237434  -20.49856980
     atom   13 type  2   force =     0.00000000   -4.25674020  -34.35239475
     atom   14 type  2   force =     0.00000000    4.22684310 -170.71011047
     atom   15 type  2   force =     0.00000000   -4.25817109 -101.99741892
     atom   16 type  2   force =     0.00000000    5.19492391 -238.22399067
     The core correction contribution to forces
     atom    1 type  1   force =    -0.00000000   -0.00089512    0.00066963
     atom    2 type  1   force =    -0.00000000   -0.00085092   -0.00064415
     atom    3 type  1   force =    -0.00000000    0.00090346   -0.00039974
     atom    4 type  1   force =    -0.00000000    0.00192801    0.00004862
     atom    5 type  2   force =    -0.00000000    0.00093268   -0.00093773
     atom    6 type  2   force =     0.00000000   -0.00092239   -0.00080811
     atom    7 type  2   force =     0.00000000    0.00088960    0.00093230
     atom    8 type  2   force =     0.00000000   -0.00092287    0.00080433
     atom    9 type  1   force =     0.00000000   -0.00090344    0.00040026
     atom   10 type  1   force =     0.00000000   -0.00192814   -0.00004738
     atom   11 type  1   force =    -0.00000000    0.00089516   -0.00066976
     atom   12 type  1   force =    -0.00000000    0.00085100    0.00064457
     atom   13 type  2   force =    -0.00000000    0.00092290   -0.00080430
     atom   14 type  2   force =    -0.00000000   -0.00088960   -0.00093228
     atom   15 type  2   force =    -0.00000000    0.00092239    0.00080817
     atom   16 type  2   force =     0.00000000   -0.00093266    0.00093782
     The Hubbard contrib.    to forces
     atom    1 type  1   force =     0.00000000    0.00000000    0.00000000
     atom    2 type  1   force =     0.00000000    0.00000000    0.00000000
     atom    3 type  1   force =     0.00000000    0.00000000    0.00000000
     atom    4 type  1   force =     0.00000000    0.00000000    0.00000000
     atom    5 type  2   force =     0.00000000    0.00000000    0.00000000
     atom    6 type  2   force =     0.00000000    0.00000000    0.00000000
     atom    7 type  2   force =     0.00000000    0.00000000    0.00000000
     atom    8 type  2   force =     0.00000000    0.00000000    0.00000000
     atom    9 type  1   force =     0.00000000    0.00000000    0.00000000
     atom   10 type  1   force =     0.00000000    0.00000000    0.00000000
     atom   11 type  1   force =     0.00000000    0.00000000    0.00000000
     atom   12 type  1   force =     0.00000000    0.00000000    0.00000000
     atom   13 type  2   force =     0.00000000    0.00000000    0.00000000
     atom   14 type  2   force =     0.00000000    0.00000000    0.00000000
     atom   15 type  2   force =     0.00000000    0.00000000    0.00000000
     atom   16 type  2   force =     0.00000000    0.00000000    0.00000000
     The SCF correction term to forces
     atom    1 type  1   force =     0.00000000    0.00003893    0.00010378
     atom    2 type  1   force =     0.00000000    0.00003537    0.00001533
     atom    3 type  1   force =     0.00000000   -0.00002992    0.00009097
     atom    4 type  1   force =     0.00000000   -0.00002175    0.00007096
     atom    5 type  2   force =    -0.00000000    0.00001651    0.00008935
     atom    6 type  2   force =     0.00000000   -0.00002636    0.00011139
     atom    7 type  2   force =     0.00000000    0.00000234    0.00010411
     atom    8 type  2   force =     0.00000000   -0.00001959    0.00001968
     atom    9 type  1   force =    -0.00000000    0.00002043   -0.00010503
     atom   10 type  1   force =     0.00000000    0.00003123   -0.00011672
     atom   11 type  1   force =    -0.00000000   -0.00003418   -0.00005734
     atom   12 type  1   force =     0.00000000   -0.00003360   -0.00003166
     atom   13 type  2   force =    -0.00000000    0.00001322   -0.00002352
     atom   14 type  2   force =    -0.00000000   -0.00000546   -0.00012921
     atom   15 type  2   force =    -0.00000000    0.00002190   -0.00006452
     atom   16 type  2   force =     0.00000000   -0.00001859   -0.00014558

     Total force =     0.034864     Total SCF correction =     0.000371


     Computing stress (Cartesian axis) and pressure


     negative rho (up, down):  1.143E-03 0.000E+00
          total   stress  (Ry/bohr**3)                   (kbar)     P=       -1.38
   0.00000584   0.00000000   0.00000000            0.86        0.00        0.00
   0.00000000  -0.00001147   0.00000092            0.00       -1.69        0.14
   0.00000000   0.00000092  -0.00002247            0.00        0.14       -3.31

     kinetic stress (kbar)  13037.41      0.00      0.00
                                0.00  13064.30      0.16
                                0.00      0.16  13069.16

     local   stress (kbar)-586375.79     -0.00      0.00
                               -0.00-583855.35   -207.78
                                0.00   -207.78 582746.76

     nonloc. stress (kbar)  -2375.26      0.00      0.00
                                0.00  -2373.92     -0.58
                                0.00     -0.58  -2361.36

     hartree stress (kbar) 303058.67     -0.00      0.00
                               -0.00 302024.71     92.71
                                0.00     92.71-278901.13

     exc-cor stress (kbar)   2974.22     -0.00     -0.00
                               -0.00   2973.76      0.05
                               -0.00      0.05   2973.63

     corecor stress (kbar)  -7093.41     -0.00     -0.00
                               -0.00  -7093.28      0.02
                               -0.00      0.02  -7093.69

     ewald   stress (kbar) 276775.02      0.00      0.00
                                0.00 275258.10    115.55
                                0.00    115.55-310436.68

     hubbard stress (kbar)      0.00      0.00      0.00
                                0.00      0.00      0.00
                                0.00      0.00      0.00

     DFT-D   stress (kbar)      0.00      0.00      0.00
                                0.00      0.00      0.00
                                0.00      0.00      0.00

     XDM     stress (kbar)      0.00      0.00      0.00
                                0.00      0.00      0.00
                                0.00      0.00      0.00

     dft-nl  stress (kbar)      0.00      0.00      0.00
                                0.00      0.00      0.00
                                0.00      0.00      0.00

     TS-vdW  stress (kbar)      0.00      0.00      0.00
                                0.00      0.00      0.00
                                0.00      0.00      0.00


                                0.00      0.00      0.00
                                0.00      0.00      0.00


                                0.00      0.00      0.00


     Writing all to output data dir ./bi/snse.save/

     init_run     :     41.08s CPU     50.39s WALL (       1 calls)
     electrons    :   3092.16s CPU   3642.64s WALL (       1 calls)
     forces       :     49.98s CPU     73.61s WALL (       1 calls)
     stress       :     60.55s CPU     69.03s WALL (       1 calls)

     Called by init_run:
     wfcinit      :     35.79s CPU     44.08s WALL (       1 calls)
     wfcinit:atom :      0.13s CPU      0.12s WALL (      16 calls)
     wfcinit:wfcr :     35.47s CPU     43.82s WALL (      16 calls)
     potinit      :      1.68s CPU      1.69s WALL (       1 calls)
     hinit0       :      1.87s CPU      1.84s WALL (       1 calls)

     Called by electrons:
     c_bands      :   2856.80s CPU   3328.71s WALL (      15 calls)
     sum_band     :    212.87s CPU    276.88s WALL (      15 calls)
     v_of_rho     :      2.17s CPU      2.22s WALL (      15 calls)
     v_h          :      0.15s CPU      0.17s WALL (      15 calls)
     v_xc         :      2.25s CPU      2.30s WALL (      17 calls)
     newd         :     17.00s CPU     32.60s WALL (      15 calls)
     PAW_pot      :      4.20s CPU      4.11s WALL (      15 calls)
     mix_rho      :      0.45s CPU      0.45s WALL (      15 calls)

     Called by c_bands:
     init_us_2    :      4.32s CPU      4.00s WALL (     528 calls)
     init_us_2:cp :      4.31s CPU      4.00s WALL (     528 calls)
     cegterg      :   2811.13s CPU   3285.99s WALL (     240 calls)

     Called by sum_band:
     sum_band:wei :      0.00s CPU      0.00s WALL (      15 calls)
     sum_band:loo :    194.20s CPU    248.12s WALL (      15 calls)
     sum_band:buf :      1.25s CPU      1.33s WALL (     240 calls)
     sum_band:ini :      1.88s CPU      1.82s WALL (     240 calls)
     sum_band:cal :    159.55s CPU    211.39s WALL (     240 calls)
     sum_band:bec :      0.04s CPU      0.08s WALL (     240 calls)
     addusdens    :     14.19s CPU     23.87s WALL (      15 calls)
     addusd:skk   :      0.12s CPU      0.63s WALL (      30 calls)
     addusd:dgemm :      6.50s CPU     11.31s WALL (      30 calls)
     addusd:qvan2 :      7.04s CPU      8.43s WALL (      30 calls)

     Called by *egterg:
     cdiaghg      :    485.09s CPU    391.09s WALL (    1462 calls)
     cegterg:over :    551.35s CPU    647.15s WALL (    1238 calls)
     cegterg:upda :    123.06s CPU    174.62s WALL (    1238 calls)
     cegterg:last :    106.32s CPU    115.23s WALL (     471 calls)
     h_psi        :   1055.45s CPU   1376.90s WALL (    1494 calls)
     s_psi        :     90.50s CPU    136.61s WALL (    1494 calls)
     g_psi        :      1.22s CPU      0.73s WALL (    1238 calls)

     Called by h_psi:
     h_psi:calbec :    812.82s CPU   1058.53s WALL (    1494 calls)
     vloc_psi     :    141.88s CPU    148.40s WALL (    1494 calls)
     add_vuspsi   :     98.76s CPU    164.50s WALL (    1494 calls)

     General routines
     calbec       :   1034.47s CPU   1354.51s WALL (    1814 calls)
     fft          :      2.05s CPU      2.13s WALL (     219 calls)
     ffts         :      0.35s CPU      0.35s WALL (      30 calls)
     fftw         :    159.92s CPU    167.06s WALL (  199040 calls)
     interpolate  :      0.45s CPU      0.44s WALL (      15 calls)

     Parallel routines

     PAW routines
     PAW_pot      :      4.20s CPU      4.11s WALL (      15 calls)
     PAW_symme    :      0.07s CPU      0.06s WALL (      30 calls)

     PWSCF        :  54m 4.38s CPU      1h 3m WALL


   This run was terminated on:   2:21:54  23Jun2025            

=------------------------------------------------------------------------------=
   JOB DONE.
=------------------------------------------------------------------------------=
