
     Program PWSCF v.7.0 starts on  3Jul2025 at  3:39:43 

     This program is part of the open-source Quantum ESPRESSO suite
     for quantum simulation of materials; please cite
         "P. Giannozzi et al., J. Phys.:Condens. Matter 21 395502 (2009);
         "P. Giannozzi et al., J. Phys.:Condens. Matter 29 465901 (2017);
         "P. Giannozzi et al., J. Chem. Phys. 152 154105 (2020);
          URL http://www.quantum-espresso.org", 
     in publications or presentations arising from this work. More details at
     http://www.quantum-espresso.org/quote

     Parallel version (MPI & OpenMP), running on      16 processor cores
     Number of MPI processes:                 8
     Threads/MPI process:                     2

     MPI processes distributed on     1 nodes
     R & G space division:  proc/nbgrp/npool/nimage =       8
     1955 MiB available memory on the printing compute node when the environment starts

     Waiting for input...
     Reading input from standard input

     Current dimensions of program PWSCF are:
     Max number of different atomic species (ntypx) = 10
     Max number of k-points (npk) =  40000
     Max angular momentum in pseudopotentials (lmaxx) =  4
     file Sn.pbe-dn-kjpaw_psl.1.0.0.UPF: wavefunction(s)  5S 5P 4D renormalized
     file S.pbe-n-kjpaw_psl.1.0.0.UPF: wavefunction(s)  3S 3P renormalized

     IMPORTANT: XC functional enforced from input :
     Exchange-correlation= PBE
                           (   1   4   3   4   0   0   0)
     Any further DFT definition will be discarded
     Please, verify this is what you really want

     Message from routine setup:
     using ibrav=0 with symmetry is DISCOURAGED, use correct ibrav instead

     Subspace diagonalization in iterative solution of the eigenvalue problem:
     one sub-group per band group will be used
     scalapack distributed-memory algorithm (size of sub-group:  2*  2 procs)


     Parallelization info
     --------------------
     sticks:   dense  smooth     PW     G-vecs:    dense   smooth      PW
     Min         255     126     36                77229    27276    4270
     Max         256     127     37                77252    27307    4285
     Sum        2045    1015    295               617895   218323   34251

     Using Slab Decomposition



     bravais-lattice index     =            0
     lattice parameter (alat)  =       7.4774  a.u.
     unit-cell volume          =    4573.2264 (a.u.)^3
     number of atoms/cell      =           16
     number of atomic types    =            2
     number of electrons       =       160.00
     number of Kohn-Sham states=          200
     kinetic-energy cutoff     =      50.0000  Ry
     charge density cutoff     =     400.0000  Ry
     scf convergence threshold =      1.0E-08
     mixing beta               =       0.3000
     number of iterations used =            8  plain     mixing
     Exchange-correlation= PBE
                           (   1   4   3   4   0   0   0)

     celldm(1)=   7.477373  celldm(2)=   0.000000  celldm(3)=   0.000000
     celldm(4)=   0.000000  celldm(5)=   0.000000  celldm(6)=   0.000000

     crystal axes: (cart. coord. in units of alat)
               a(1) = (   1.000000   0.000000   0.000000 )  
               a(2) = (   0.000000   1.145559   0.000000 )  
               a(3) = (   0.000000   0.000000   9.549007 )  

     reciprocal axes: (cart. coord. in units 2 pi/alat)
               b(1) = (  1.000000  0.000000  0.000000 )  
               b(2) = (  0.000000  0.872936  0.000000 )  
               b(3) = (  0.000000  0.000000  0.104723 )  


     PseudoPot. # 1 for Sn read from file:
     ./Sn.pbe-dn-kjpaw_psl.1.0.0.UPF
     MD5 check sum: 2f92149585f6306fdaeeb1c6304ac66c
     Pseudo is Projector augmented-wave + core cor, Zval = 14.0
     Generated using &quot;atomic&quot; code by A. Dal Corso  v.6.3
     Shape of augmentation charge: PSQ
     Using radial grid of 1243 points,  6 beta functions with: 
                l(1) =   0
                l(2) =   0
                l(3) =   1
                l(4) =   1
                l(5) =   2
                l(6) =   2
     Q(r) pseudized with 0 coefficients 


     PseudoPot. # 2 for S  read from file:
     ./S.pbe-n-kjpaw_psl.1.0.0.UPF
     MD5 check sum: 3ec093b2a8bef16a6eea98fa2dbb72c3
     Pseudo is Projector augmented-wave + core cor, Zval =  6.0
     Generated using &quot;atomic&quot; code by A. Dal Corso  v.6.3
     Shape of augmentation charge: PSQ
     Using radial grid of 1151 points,  6 beta functions with: 
                l(1) =   0
                l(2) =   0
                l(3) =   1
                l(4) =   1
                l(5) =   2
                l(6) =   2
     Q(r) pseudized with 0 coefficients 


     atomic species   valence    mass     pseudopotential
        Sn            14.00   118.71000     Sn( 1.00)
        S              6.00    32.06500     S ( 1.00)

      2 Sym. Ops. (no inversion) found ( 1 have fractional translation)


                                    s                        frac. trans.

      isym =  1     identity                                     

 cryst.   s( 1) = (     1          0          0      )
                  (     0          1          0      )
                  (     0          0          1      )

 cart.    s( 1) = (  1.0000000  0.0000000  0.0000000 )
                  (  0.0000000  1.0000000  0.0000000 )
                  (  0.0000000  0.0000000  1.0000000 )


      isym =  2     inv. 180 deg rotation - cart. axis [1,0,0]   

 cryst.   s( 2) = (    -1          0          0      )    f =(  0.5000000 )
                  (     0          1          0      )       (  0.0000000 )
                  (     0          0          1      )       (  0.0000000 )

 cart.    s( 2) = ( -1.0000000  0.0000000  0.0000000 )    f =(  0.5000000 )
                  (  0.0000000  1.0000000  0.0000000 )       (  0.0000000 )
                  (  0.0000000  0.0000000  1.0000000 )       (  0.0000000 )


   Cartesian axes

     site n.     atom                  positions (alat units)
         1           Sn  tau(   1) = (   0.2500000   0.4233297   1.7897171  )
         2           Sn  tau(   2) = (   0.7500000   0.7222292   1.0893415  )
         3           Sn  tau(   3) = (   0.7500000   0.9961091   2.5288709  )
         4           Sn  tau(   4) = (   0.2500000   0.1494498   0.3501879  )
         5           S   tau(   5) = (   0.2500000   0.0121393   1.0004656  )
         6           S   tau(   6) = (   0.7500000   1.1334196   1.8785931  )
         7           S   tau(   7) = (   0.7500000   0.5849187   0.4390638  )
         8           S   tau(   8) = (   0.2500000   0.5606402   2.4399950  )
         9           Sn  tau(   9) = (   0.2500000   0.4233297   4.6687759  )
        10           Sn  tau(  10) = (   0.7500000   0.7222292   3.9684003  )
        11           Sn  tau(  11) = (   0.7500000   0.9961091   5.4079297  )
        12           Sn  tau(  12) = (   0.2500000   0.1494498   3.2292465  )
        13           S   tau(  13) = (   0.2500000   0.0121393   3.8795243  )
        14           S   tau(  14) = (   0.7500000   1.1334196   4.7576518  )
        15           S   tau(  15) = (   0.7500000   0.5849187   3.3181225  )
        16           S   tau(  16) = (   0.2500000   0.5606402   5.3190537  )

   Crystallographic axes

     site n.     atom                  positions (cryst. coord.)
         1           Sn  tau(   1) = (  0.2500000  0.3695398  0.1874244  )
         2           Sn  tau(   2) = (  0.7500000  0.6304602  0.1140790  )
         3           Sn  tau(   3) = (  0.7500000  0.8695398  0.2648308  )
         4           Sn  tau(   4) = (  0.2500000  0.1304602  0.0366727  )
         5           S   tau(   5) = (  0.2500000  0.0105968  0.1047717  )
         6           S   tau(   6) = (  0.7500000  0.9894032  0.1967318  )
         7           S   tau(   7) = (  0.7500000  0.5105968  0.0459801  )
         8           S   tau(   8) = (  0.2500000  0.4894032  0.2555234  )
         9           Sn  tau(   9) = (  0.2500000  0.3695398  0.4889279  )
        10           Sn  tau(  10) = (  0.7500000  0.6304602  0.4155825  )
        11           Sn  tau(  11) = (  0.7500000  0.8695398  0.5663343  )
        12           Sn  tau(  12) = (  0.2500000  0.1304602  0.3381762  )
        13           S   tau(  13) = (  0.2500000  0.0105968  0.4062752  )
        14           S   tau(  14) = (  0.7500000  0.9894032  0.4982353  )
        15           S   tau(  15) = (  0.7500000  0.5105968  0.3474835  )
        16           S   tau(  16) = (  0.2500000  0.4894032  0.5570269  )

     number of k points=    16
                       cart. coord. in units 2pi/alat
        k(    1) = (   0.0000000   0.0000000   0.0000000), wk =   0.0555556
        k(    2) = (   0.0000000   0.1454894   0.0000000), wk =   0.1111111
        k(    3) = (   0.0000000   0.2909788   0.0000000), wk =   0.1111111
        k(    4) = (   0.0000000  -0.4364682   0.0000000), wk =   0.0555556
        k(    5) = (   0.1666667   0.0000000   0.0000000), wk =   0.1111111
        k(    6) = (   0.1666667   0.1454894   0.0000000), wk =   0.2222222
        k(    7) = (   0.1666667   0.2909788   0.0000000), wk =   0.2222222
        k(    8) = (   0.1666667  -0.4364682   0.0000000), wk =   0.1111111
        k(    9) = (   0.3333333   0.0000000   0.0000000), wk =   0.1111111
        k(   10) = (   0.3333333   0.1454894   0.0000000), wk =   0.2222222
        k(   11) = (   0.3333333   0.2909788   0.0000000), wk =   0.2222222
        k(   12) = (   0.3333333  -0.4364682   0.0000000), wk =   0.1111111
        k(   13) = (  -0.5000000   0.0000000   0.0000000), wk =   0.0555556
        k(   14) = (  -0.5000000   0.1454894   0.0000000), wk =   0.1111111
        k(   15) = (  -0.5000000   0.2909788   0.0000000), wk =   0.1111111
        k(   16) = (  -0.5000000  -0.4364682   0.0000000), wk =   0.0555556

                       cryst. coord.
        k(    1) = (   0.0000000   0.0000000   0.0000000), wk =   0.0555556
        k(    2) = (   0.0000000   0.1666667   0.0000000), wk =   0.1111111
        k(    3) = (   0.0000000   0.3333333   0.0000000), wk =   0.1111111
        k(    4) = (   0.0000000  -0.5000000   0.0000000), wk =   0.0555556
        k(    5) = (   0.1666667   0.0000000   0.0000000), wk =   0.1111111
        k(    6) = (   0.1666667   0.1666667   0.0000000), wk =   0.2222222
        k(    7) = (   0.1666667   0.3333333   0.0000000), wk =   0.2222222
        k(    8) = (   0.1666667  -0.5000000   0.0000000), wk =   0.1111111
        k(    9) = (   0.3333333   0.0000000   0.0000000), wk =   0.1111111
        k(   10) = (   0.3333333   0.1666667   0.0000000), wk =   0.2222222
        k(   11) = (   0.3333333   0.3333333   0.0000000), wk =   0.2222222
        k(   12) = (   0.3333333  -0.5000000   0.0000000), wk =   0.1111111
        k(   13) = (  -0.5000000   0.0000000   0.0000000), wk =   0.0555556
        k(   14) = (  -0.5000000   0.1666667   0.0000000), wk =   0.1111111
        k(   15) = (  -0.5000000   0.3333333   0.0000000), wk =   0.1111111
        k(   16) = (  -0.5000000  -0.5000000   0.0000000), wk =   0.0555556

     Dense  grid:   617895 G-vectors     FFT dimensions: (  48,  60, 480)

     Smooth grid:   218323 G-vectors     FFT dimensions: (  36,  40, 324)

     Dynamical RAM for                 wfc:      10.42 MB

     Dynamical RAM for     wfc (w. buffer):     177.07 MB

     Dynamical RAM for           str. fact:       2.36 MB

     Dynamical RAM for           local pot:       0.00 MB

     Dynamical RAM for          nlocal pot:      15.00 MB

     Dynamical RAM for                qrad:       3.21 MB

     Dynamical RAM for          rho,v,vnew:       7.49 MB

     Dynamical RAM for               rhoin:       2.50 MB

     Dynamical RAM for            rho*nmix:      18.86 MB

     Dynamical RAM for           G-vectors:       4.63 MB

     Dynamical RAM for          h,s,v(r/c):       1.83 MB

     Dynamical RAM for          <psi|beta>:       0.88 MB

     Dynamical RAM for                 psi:      20.83 MB

     Dynamical RAM for                hpsi:      20.83 MB

     Dynamical RAM for                spsi:      20.83 MB

     Dynamical RAM for      wfcinit/wfcrot:      21.75 MB

     Dynamical RAM for           addusdens:     228.62 MB

     Dynamical RAM for          addusforce:     245.74 MB

     Dynamical RAM for         addusstress:     236.87 MB

     Estimated static dynamical RAM per process >     222.37 MB

     Estimated max dynamical RAM per process >     486.97 MB

     Estimated total dynamical RAM >       3.80 GB

     Initial potential from superposition of free atoms

     starting charge     159.9887, renormalised to     160.0000

     negative rho (up, down):  1.071E-03 0.000E+00
     Starting wfcs are  104 randomized atomic wfcs +   96 random wfcs
     Checking if some PAW data can be deallocated... 
       PAW data deallocated on    4 nodes for type:  1
       PAW data deallocated on    4 nodes for type:  2

     total cpu time spent up to now is       15.0 secs

     per-process dynamical memory:   261.8 Mb

     Self-consistent Calculation

     iteration #  1     ecut=    50.00 Ry     beta= 0.30
     Davidson diagonalization with overlap

---- Real-time Memory Report at c_bands before calling an iterative solver
           323 MiB given to the printing process from OS
           255 MiB allocation reported by mallinfo(arena+hblkhd)
          1291 MiB available memory on the node where the printing process lives
------------------
     ethr =  1.00E-02,  avg # of iterations =  7.1

     Threshold (ethr) on eigenvalues was too large:
     Diagonalizing with lowered threshold

     Davidson diagonalization with overlap

---- Real-time Memory Report at c_bands before calling an iterative solver
           524 MiB given to the printing process from OS
           274 MiB allocation reported by mallinfo(arena+hblkhd)
          2036 MiB available memory on the node where the printing process lives
------------------
     ethr =  5.03E-04,  avg # of iterations =  2.4

     negative rho (up, down):  1.064E-03 0.000E+00

     total cpu time spent up to now is      127.7 secs

     total energy              =   -4067.17005661 Ry
     estimated scf accuracy    <       0.79822986 Ry

     iteration #  2     ecut=    50.00 Ry     beta= 0.30
     Davidson diagonalization with overlap

---- Real-time Memory Report at c_bands before calling an iterative solver
           529 MiB given to the printing process from OS
           276 MiB allocation reported by mallinfo(arena+hblkhd)
          2215 MiB available memory on the node where the printing process lives
------------------
     ethr =  4.99E-04,  avg # of iterations =  4.6

     negative rho (up, down):  1.065E-03 0.000E+00

     total cpu time spent up to now is      168.7 secs

     total energy              =   -4067.25457572 Ry
     estimated scf accuracy    <       0.08709717 Ry

     iteration #  3     ecut=    50.00 Ry     beta= 0.30
     Davidson diagonalization with overlap

---- Real-time Memory Report at c_bands before calling an iterative solver
           530 MiB given to the printing process from OS
           277 MiB allocation reported by mallinfo(arena+hblkhd)
          2153 MiB available memory on the node where the printing process lives
------------------
     ethr =  5.44E-05,  avg # of iterations = 12.0

     negative rho (up, down):  1.062E-03 0.000E+00

     total cpu time spent up to now is      269.6 secs

     total energy              =   -4067.25348473 Ry
     estimated scf accuracy    <       0.08058116 Ry

     iteration #  4     ecut=    50.00 Ry     beta= 0.30
     Davidson diagonalization with overlap

---- Real-time Memory Report at c_bands before calling an iterative solver
           531 MiB given to the printing process from OS
           278 MiB allocation reported by mallinfo(arena+hblkhd)
          2059 MiB available memory on the node where the printing process lives
------------------
     c_bands:  1 eigenvalues not converged
     ethr =  5.04E-05,  avg # of iterations = 11.6

     negative rho (up, down):  1.082E-03 0.000E+00

     total cpu time spent up to now is      333.8 secs

     total energy              =   -4067.26134236 Ry
     estimated scf accuracy    <       0.02826298 Ry

     iteration #  5     ecut=    50.00 Ry     beta= 0.30
     Davidson diagonalization with overlap

---- Real-time Memory Report at c_bands before calling an iterative solver
           532 MiB given to the printing process from OS
           279 MiB allocation reported by mallinfo(arena+hblkhd)
          2004 MiB available memory on the node where the printing process lives
------------------
     ethr =  1.77E-05,  avg # of iterations =  7.5

     negative rho (up, down):  1.097E-03 0.000E+00

     total cpu time spent up to now is      374.6 secs

     total energy              =   -4067.26298702 Ry
     estimated scf accuracy    <       0.00903792 Ry

     iteration #  6     ecut=    50.00 Ry     beta= 0.30
     Davidson diagonalization with overlap

---- Real-time Memory Report at c_bands before calling an iterative solver
           532 MiB given to the printing process from OS
           280 MiB allocation reported by mallinfo(arena+hblkhd)
          2566 MiB available memory on the node where the printing process lives
------------------
     ethr =  5.65E-06,  avg # of iterations =  5.1

     negative rho (up, down):  1.110E-03 0.000E+00

     total cpu time spent up to now is      417.3 secs

     total energy              =   -4067.26406305 Ry
     estimated scf accuracy    <       0.00112827 Ry

     iteration #  7     ecut=    50.00 Ry     beta= 0.30
     Davidson diagonalization with overlap

---- Real-time Memory Report at c_bands before calling an iterative solver
           537 MiB given to the printing process from OS
           281 MiB allocation reported by mallinfo(arena+hblkhd)
          2031 MiB available memory on the node where the printing process lives
------------------
     ethr =  7.05E-07,  avg # of iterations =  8.1

     negative rho (up, down):  1.110E-03 0.000E+00

     total cpu time spent up to now is      463.3 secs

     total energy              =   -4067.26414153 Ry
     estimated scf accuracy    <       0.00010330 Ry

     iteration #  8     ecut=    50.00 Ry     beta= 0.30
     Davidson diagonalization with overlap

---- Real-time Memory Report at c_bands before calling an iterative solver
           538 MiB given to the printing process from OS
           282 MiB allocation reported by mallinfo(arena+hblkhd)
          2467 MiB available memory on the node where the printing process lives
------------------
     ethr =  6.46E-08,  avg # of iterations =  1.0

     negative rho (up, down):  1.108E-03 0.000E+00

     total cpu time spent up to now is      496.7 secs

     total energy              =   -4067.26415492 Ry
     estimated scf accuracy    <       0.00001297 Ry

     iteration #  9     ecut=    50.00 Ry     beta= 0.30
     Davidson diagonalization with overlap

---- Real-time Memory Report at c_bands before calling an iterative solver
           539 MiB given to the printing process from OS
           282 MiB allocation reported by mallinfo(arena+hblkhd)
          2412 MiB available memory on the node where the printing process lives
------------------
     ethr =  8.11E-09,  avg # of iterations =  1.7

     negative rho (up, down):  1.106E-03 0.000E+00

     total cpu time spent up to now is      534.3 secs

     total energy              =   -4067.26415687 Ry
     estimated scf accuracy    <       0.00000404 Ry

     iteration # 10     ecut=    50.00 Ry     beta= 0.30
     Davidson diagonalization with overlap

---- Real-time Memory Report at c_bands before calling an iterative solver
           540 MiB given to the printing process from OS
           283 MiB allocation reported by mallinfo(arena+hblkhd)
          2247 MiB available memory on the node where the printing process lives
------------------
     ethr =  2.52E-09,  avg # of iterations =  1.0

     negative rho (up, down):  1.104E-03 0.000E+00

     total cpu time spent up to now is      559.7 secs

     total energy              =   -4067.26415783 Ry
     estimated scf accuracy    <       0.00000249 Ry

     iteration # 11     ecut=    50.00 Ry     beta= 0.30
     Davidson diagonalization with overlap

---- Real-time Memory Report at c_bands before calling an iterative solver
           540 MiB given to the printing process from OS
           283 MiB allocation reported by mallinfo(arena+hblkhd)
          2256 MiB available memory on the node where the printing process lives
------------------
     ethr =  1.55E-09,  avg # of iterations =  1.0

     negative rho (up, down):  1.103E-03 0.000E+00

     total cpu time spent up to now is      588.3 secs

     total energy              =   -4067.26415817 Ry
     estimated scf accuracy    <       0.00000026 Ry

     iteration # 12     ecut=    50.00 Ry     beta= 0.30
     Davidson diagonalization with overlap

---- Real-time Memory Report at c_bands before calling an iterative solver
           540 MiB given to the printing process from OS
           283 MiB allocation reported by mallinfo(arena+hblkhd)
          2268 MiB available memory on the node where the printing process lives
------------------
     ethr =  1.62E-10,  avg # of iterations =  1.1

     negative rho (up, down):  1.103E-03 0.000E+00

     total cpu time spent up to now is      625.1 secs

     total energy              =   -4067.26415823 Ry
     estimated scf accuracy    <       0.00000007 Ry

     iteration # 13     ecut=    50.00 Ry     beta= 0.30
     Davidson diagonalization with overlap

---- Real-time Memory Report at c_bands before calling an iterative solver
           540 MiB given to the printing process from OS
           283 MiB allocation reported by mallinfo(arena+hblkhd)
          2412 MiB available memory on the node where the printing process lives
------------------
     ethr =  4.41E-11,  avg # of iterations =  1.0

     negative rho (up, down):  1.102E-03 0.000E+00

     total cpu time spent up to now is      655.0 secs

     total energy              =   -4067.26415825 Ry
     estimated scf accuracy    <       0.00000001 Ry

     iteration # 14     ecut=    50.00 Ry     beta= 0.30
     Davidson diagonalization with overlap

---- Real-time Memory Report at c_bands before calling an iterative solver
           540 MiB given to the printing process from OS
           283 MiB allocation reported by mallinfo(arena+hblkhd)
          2304 MiB available memory on the node where the printing process lives
------------------
     ethr =  8.20E-12,  avg # of iterations =  2.0

     negative rho (up, down):  1.101E-03 0.000E+00

     total cpu time spent up to now is      686.4 secs

     End of self-consistent calculation

          k = 0.0000 0.0000 0.0000 ( 27299 PWs)   bands (ev):

   -18.4480 -18.4416 -18.4287 -18.4262 -18.4213 -18.4211 -18.4179 -18.4154
   -18.4111 -18.4100 -18.4060 -18.4059 -18.3981 -18.3974 -18.3965 -18.3965
   -18.3897 -18.3897 -18.3880 -18.3808 -18.3799 -18.3761 -18.3758 -18.3756
   -18.3741 -18.3612 -18.3600 -18.3565 -18.3543 -18.3469 -18.3456 -18.3452
   -18.3396 -18.3393 -18.3353 -18.3352 -18.3273 -18.3270 -18.3240 -18.3240
   -10.8311 -10.7573 -10.6700 -10.6193  -9.5726  -9.4507  -9.3374  -9.2755
    -4.3446  -4.1571  -3.8855  -3.6372  -2.3298  -2.0030  -1.8473  -1.7992
    -1.7735  -1.5656  -1.1872  -0.7768  -0.6310  -0.4083  -0.3455  -0.3252
    -0.2667  -0.2233  -0.1961  -0.1549   0.6953   0.7280   0.7712   0.8187
     0.9324   0.9826   0.9983   1.4324   2.0623   2.2660   2.4323   2.4975
     4.0371   4.5187   5.2048   5.4412   5.4818   5.5229   5.6045   5.8436
     5.8859   6.0903   6.3506   6.6336   6.6687   6.8357   6.8691   6.9728
     7.1414   7.4485   7.4805   7.6489   7.8808   8.0910   8.1274   8.1932
     8.4797   8.6603   8.8004   8.9547   8.9945   9.0505   9.4344   9.5787
     9.8883  10.0236  10.1099  10.2217  10.3993  10.5008  10.6899  10.7725
    10.7790  10.9653  11.1266  11.1897  11.4783  11.4848  11.5317  11.5937
    11.6282  11.6567  11.9083  11.9286  12.0339  12.0555  12.5583  12.8210
    12.8345  12.9651  13.1988  13.3541  13.4714  13.5067  13.5294  13.6299
    13.6518  13.8298  13.8311  13.8732  13.9594  14.0877  14.2359  14.3592
    14.6068  14.6583  14.6979  14.9126  15.0598  15.2524  15.2729  15.4105
    15.4825  15.5689  15.6237  15.8462  15.9319  15.9968  16.0257  16.0690
    16.1905  16.3705  16.5202  16.5313  16.6605  16.7140  16.7737  16.9147
    16.9267  17.0079  17.0104  17.2165  17.2170  17.3691  17.5172  17.7978
    18.0707  18.0738  18.1285  18.1363  18.2505  18.2578  18.5401  18.6039
    18.8018  18.8591  19.1461  19.2215  19.3905  19.4564  19.4788  19.5493

     occupation numbers 
     1.0000   1.0000   1.0000   1.0000   1.0000   1.0000   1.0000   1.0000
     1.0000   1.0000   1.0000   1.0000   1.0000   1.0000   1.0000   1.0000
     1.0000   1.0000   1.0000   1.0000   1.0000   1.0000   1.0000   1.0000
     1.0000   1.0000   1.0000   1.0000   1.0000   1.0000   1.0000   1.0000
     1.0000   1.0000   1.0000   1.0000   1.0000   1.0000   1.0000   1.0000
     1.0000   1.0000   1.0000   1.0000   1.0000   1.0000   1.0000   1.0000
     1.0000   1.0000   1.0000   1.0000   1.0000   1.0000   1.0000   1.0000
     1.0000   1.0000   1.0000   1.0000   1.0000   1.0000   1.0000   1.0000
     1.0000   1.0000   1.0000   1.0000   1.0000   1.0000   1.0000   1.0000
     1.0000   1.0000   1.0000   1.0000   1.0000   1.0000   1.0000   1.0000
     0.0000   0.0000   0.0000   0.0000   0.0000   0.0000   0.0000   0.0000
     0.0000   0.0000   0.0000   0.0000   0.0000   0.0000   0.0000   0.0000
     0.0000   0.0000   0.0000   0.0000   0.0000   0.0000   0.0000   0.0000
     0.0000   0.0000   0.0000   0.0000   0.0000   0.0000   0.0000   0.0000
     0.0000   0.0000   0.0000   0.0000   0.0000   0.0000   0.0000   0.0000
     0.0000   0.0000   0.0000   0.0000   0.0000   0.0000   0.0000   0.0000
     0.0000   0.0000   0.0000   0.0000   0.0000   0.0000   0.0000   0.0000
     0.0000   0.0000   0.0000   0.0000   0.0000   0.0000   0.0000   0.0000
     0.0000   0.0000   0.0000   0.0000   0.0000   0.0000   0.0000   0.0000
     0.0000   0.0000   0.0000   0.0000   0.0000   0.0000   0.0000   0.0000
     0.0000   0.0000   0.0000   0.0000   0.0000   0.0000   0.0000   0.0000
     0.0000   0.0000   0.0000   0.0000   0.0000   0.0000   0.0000   0.0000
     0.0000   0.0000   0.0000   0.0000   0.0000   0.0000   0.0000   0.0000
     0.0000   0.0000   0.0000   0.0000   0.0000   0.0000   0.0000   0.0000
     0.0000   0.0000   0.0000   0.0000   0.0000   0.0000   0.0000   0.0000

          k = 0.0000 0.1455 0.0000 ( 27359 PWs)   bands (ev):

   -18.4464 -18.4403 -18.4292 -18.4265 -18.4203 -18.4202 -18.4188 -18.4156
   -18.4124 -18.4110 -18.4065 -18.4065 -18.3970 -18.3970 -18.3955 -18.3949
   -18.3908 -18.3907 -18.3874 -18.3806 -18.3795 -18.3757 -18.3742 -18.3734
   -18.3732 -18.3607 -18.3595 -18.3564 -18.3542 -18.3475 -18.3465 -18.3452
   -18.3392 -18.3391 -18.3348 -18.3348 -18.3276 -18.3275 -18.3251 -18.3251
   -10.7216 -10.6498 -10.5644 -10.5150  -9.5957  -9.4842  -9.3829  -9.3295
    -4.6312  -4.4187  -4.1109  -3.8180  -2.9062  -2.6687  -2.4914  -2.4226
    -1.6904  -1.2980  -0.8032  -0.3199  -0.3040  -0.2761  -0.1967  -0.0994
    -0.0349   0.0437   0.1032   0.2026   0.7283   0.8406   0.9420   0.9990
     1.1702   1.2918   1.5127   1.7644   1.8515   2.0935   2.2781   2.4065
     4.2382   4.6557   4.9811   5.1740   5.3455   5.5891   5.6368   5.6646
     5.7025   5.8163   6.1044   6.1648   6.3778   6.6602   6.6983   7.0401
     7.0808   7.1846   7.5360   7.5550   7.7758   7.8627   7.9136   8.0555
     8.1967   8.2121   8.3902   8.7652   9.1267   9.2018   9.2424   9.6464
     9.7081   9.8940  10.0773  10.2289  10.2964  10.5265  10.5416  10.8715
    10.8830  10.9067  11.0268  11.3576  11.4819  11.6286  11.7558  11.9796
    12.0265  12.1011  12.1566  12.2153  12.4057  12.6200  12.6806  12.8625
    12.9369  12.9580  13.2362  13.5638  13.6589  13.7069  13.7782  13.9759
    14.0105  14.1560  14.2720  14.2784  14.2982  14.3880  14.4020  14.5846
    14.6255  14.7033  14.7507  14.8422  14.9073  15.3839  15.4519  15.4557
    15.5214  15.7551  15.7625  15.9884  16.1948  16.2123  16.3205  16.3901
    16.5553  16.6124  16.6571  16.6780  16.7632  16.9576  16.9772  17.0718
    17.1100  17.1473  17.2992  17.3153  17.5217  17.6070  17.7183  17.8341
    17.9964  18.0425  18.1581  18.1751  18.3443  18.3804  18.4354  18.5785
    18.6292  18.7661  18.9393  19.0712  19.0853  19.0907  19.2087  19.3488

     occupation numbers 
     1.0000   1.0000   1.0000   1.0000   1.0000   1.0000   1.0000   1.0000
     1.0000   1.0000   1.0000   1.0000   1.0000   1.0000   1.0000   1.0000
     1.0000   1.0000   1.0000   1.0000   1.0000   1.0000   1.0000   1.0000
     1.0000   1.0000   1.0000   1.0000   1.0000   1.0000   1.0000   1.0000
     1.0000   1.0000   1.0000   1.0000   1.0000   1.0000   1.0000   1.0000
     1.0000   1.0000   1.0000   1.0000   1.0000   1.0000   1.0000   1.0000
     1.0000   1.0000   1.0000   1.0000   1.0000   1.0000   1.0000   1.0000
     1.0000   1.0000   1.0000   1.0000   1.0000   1.0000   1.0000   1.0000
     1.0000   1.0000   1.0000   1.0000   1.0000   1.0000   1.0000   1.0000
     1.0000   1.0000   1.0000   1.0000   1.0000   1.0000   1.0000   1.0000
     0.0000   0.0000   0.0000   0.0000   0.0000   0.0000   0.0000   0.0000
     0.0000   0.0000   0.0000   0.0000   0.0000   0.0000   0.0000   0.0000
     0.0000   0.0000   0.0000   0.0000   0.0000   0.0000   0.0000   0.0000
     0.0000   0.0000   0.0000   0.0000   0.0000   0.0000   0.0000   0.0000
     0.0000   0.0000   0.0000   0.0000   0.0000   0.0000   0.0000   0.0000
     0.0000   0.0000   0.0000   0.0000   0.0000   0.0000   0.0000   0.0000
     0.0000   0.0000   0.0000   0.0000   0.0000   0.0000   0.0000   0.0000
     0.0000   0.0000   0.0000   0.0000   0.0000   0.0000   0.0000   0.0000
     0.0000   0.0000   0.0000   0.0000   0.0000   0.0000   0.0000   0.0000
     0.0000   0.0000   0.0000   0.0000   0.0000   0.0000   0.0000   0.0000
     0.0000   0.0000   0.0000   0.0000   0.0000   0.0000   0.0000   0.0000
     0.0000   0.0000   0.0000   0.0000   0.0000   0.0000   0.0000   0.0000
     0.0000   0.0000   0.0000   0.0000   0.0000   0.0000   0.0000   0.0000
     0.0000   0.0000   0.0000   0.0000   0.0000   0.0000   0.0000   0.0000
     0.0000   0.0000   0.0000   0.0000   0.0000   0.0000   0.0000   0.0000

          k = 0.0000 0.2910 0.0000 ( 27359 PWs)   bands (ev):

   -18.4425 -18.4370 -18.4311 -18.4284 -18.4204 -18.4172 -18.4172 -18.4161
   -18.4149 -18.4133 -18.4087 -18.4087 -18.3978 -18.3978 -18.3929 -18.3929
   -18.3894 -18.3893 -18.3863 -18.3809 -18.3797 -18.3750 -18.3745 -18.3682
   -18.3680 -18.3593 -18.3587 -18.3566 -18.3542 -18.3490 -18.3484 -18.3451
   -18.3384 -18.3384 -18.3335 -18.3334 -18.3284 -18.3284 -18.3277 -18.3277
   -10.4249 -10.3598 -10.2789 -10.2303  -9.7217  -9.6317  -9.5559  -9.5201
    -4.9580  -4.7439  -4.4434  -4.0630  -3.8941  -3.6058  -3.3700  -3.2096
    -1.2920  -0.8186  -0.2563   0.0420   0.0746   0.1420   0.2261   0.2506
     0.2812   0.5043   0.6498   0.7304   0.7501   0.8153   0.8866   0.9219
     1.3309   1.5633   1.8907   2.2081   2.2376   2.3620   2.4726   2.5790
     4.1958   4.4043   4.6381   4.7449   4.9281   5.2296   5.2554   5.3372
     5.5504   5.5650   5.6529   5.7425   6.0086   6.1807   6.4982   6.5951
     6.7967   6.9661   7.0414   7.2192   7.3882   7.6335   7.6881   7.8551
     7.9531   8.3133   8.4023   9.0165   9.4176   9.4878   9.5166   9.8466
     9.9664  10.0360  10.2606  10.5214  10.6347  10.6650  10.7591  10.8725
    10.9150  11.0699  11.1261  11.2947  11.3016  11.4616  11.6515  11.8903
    11.9694  12.2378  12.5578  12.6105  12.6559  12.6869  12.7174  12.8107
    13.2958  13.3665  13.5211  13.6345  13.6835  13.7030  13.8908  14.1064
    14.2763  14.5241  14.5658  14.6018  14.6410  14.7052  14.7369  14.9201
    14.9745  15.0731  15.2263  15.4569  15.4622  15.6236  15.7163  15.8764
    16.0275  16.0838  16.2284  16.2405  16.2723  16.3940  16.3948  16.5421
    16.5693  16.5710  16.6865  16.9024  16.9174  16.9742  17.2195  17.2451
    17.3394  17.3548  17.4469  17.5074  17.7247  17.7634  17.8183  17.8858
    17.9965  18.0215  18.1468  18.2292  18.2858  18.4072  18.4632  18.6391
    18.7173  18.7774  18.9679  19.0338  19.2312  19.3288  19.3875  19.4950

     occupation numbers 
     1.0000   1.0000   1.0000   1.0000   1.0000   1.0000   1.0000   1.0000
     1.0000   1.0000   1.0000   1.0000   1.0000   1.0000   1.0000   1.0000
     1.0000   1.0000   1.0000   1.0000   1.0000   1.0000   1.0000   1.0000
     1.0000   1.0000   1.0000   1.0000   1.0000   1.0000   1.0000   1.0000
     1.0000   1.0000   1.0000   1.0000   1.0000   1.0000   1.0000   1.0000
     1.0000   1.0000   1.0000   1.0000   1.0000   1.0000   1.0000   1.0000
     1.0000   1.0000   1.0000   1.0000   1.0000   1.0000   1.0000   1.0000
     1.0000   1.0000   1.0000   1.0000   1.0000   1.0000   1.0000   1.0000
     1.0000   1.0000   1.0000   1.0000   1.0000   1.0000   1.0000   1.0000
     1.0000   1.0000   1.0000   1.0000   1.0000   1.0000   1.0000   1.0000
     0.0000   0.0000   0.0000   0.0000   0.0000   0.0000   0.0000   0.0000
     0.0000   0.0000   0.0000   0.0000   0.0000   0.0000   0.0000   0.0000
     0.0000   0.0000   0.0000   0.0000   0.0000   0.0000   0.0000   0.0000
     0.0000   0.0000   0.0000   0.0000   0.0000   0.0000   0.0000   0.0000
     0.0000   0.0000   0.0000   0.0000   0.0000   0.0000   0.0000   0.0000
     0.0000   0.0000   0.0000   0.0000   0.0000   0.0000   0.0000   0.0000
     0.0000   0.0000   0.0000   0.0000   0.0000   0.0000   0.0000   0.0000
     0.0000   0.0000   0.0000   0.0000   0.0000   0.0000   0.0000   0.0000
     0.0000   0.0000   0.0000   0.0000   0.0000   0.0000   0.0000   0.0000
     0.0000   0.0000   0.0000   0.0000   0.0000   0.0000   0.0000   0.0000
     0.0000   0.0000   0.0000   0.0000   0.0000   0.0000   0.0000   0.0000
     0.0000   0.0000   0.0000   0.0000   0.0000   0.0000   0.0000   0.0000
     0.0000   0.0000   0.0000   0.0000   0.0000   0.0000   0.0000   0.0000
     0.0000   0.0000   0.0000   0.0000   0.0000   0.0000   0.0000   0.0000
     0.0000   0.0000   0.0000   0.0000   0.0000   0.0000   0.0000   0.0000

          k = 0.0000-0.4365 0.0000 ( 27332 PWs)   bands (ev):

   -18.4393 -18.4334 -18.4332 -18.4315 -18.4211 -18.4163 -18.4157 -18.4149
   -18.4135 -18.4135 -18.4119 -18.4119 -18.3982 -18.3981 -18.3940 -18.3940
   -18.3857 -18.3854 -18.3852 -18.3815 -18.3814 -18.3746 -18.3746 -18.3652
   -18.3652 -18.3585 -18.3585 -18.3567 -18.3543 -18.3497 -18.3497 -18.3451
   -18.3379 -18.3379 -18.3318 -18.3318 -18.3298 -18.3298 -18.3289 -18.3289
   -10.0651 -10.0632 -10.0615  -9.8689  -9.8686  -9.8526  -9.8512  -9.8491
    -4.8253  -4.8235  -4.7831  -4.2033  -4.1866  -3.8490  -3.8181  -3.7672
    -0.6236  -0.5982  -0.2330  -0.0772   0.3679   0.4512   0.4673   0.4702
     0.4729   0.6395   0.6401   0.6593   0.6616   0.6648   0.8600   0.8973
     1.8069   1.8546   1.9067   2.2045   2.2074   2.6859   2.7041   2.7047
     4.4138   4.4196   4.4367   4.6336   4.6444   4.8542   4.8703   4.8707
     5.5192   5.5222   5.5416   5.8257   5.8747   6.1456   6.2489   6.2514
     6.3220   6.5269   6.7146   6.7202   6.7497   7.7842   8.0087   8.1720
     8.4898   8.5667   8.7419   8.8672   9.1441   9.4434   9.8768  10.2919
    10.5272  10.5575  10.5929  10.7099  10.7302  10.9463  10.9647  11.2961
    11.5515  11.5675  11.5680  11.6155  11.6208  11.7168  11.7637  11.8143
    11.8338  12.1615  12.2073  12.2514  12.3577  12.3929  12.4398  12.5254
    12.5867  12.7129  13.0600  13.1789  13.2041  13.3833  13.4039  13.6178
    13.6593  13.8051  13.8158  14.4910  14.5332  14.6918  14.7377  15.0111
    15.0529  15.1564  15.1833  15.4473  15.7683  15.7951  15.9001  15.9342
    16.0816  16.0908  16.3319  16.6266  16.7473  16.8230  16.9545  17.1019
    17.3886  17.4161  17.4723  17.5699  17.6694  17.8718  17.8987  17.9234
    17.9452  17.9460  18.0088  18.0683  18.0976  18.3380  18.3509  18.4429
    18.4941  18.5226  18.5763  18.5804  18.6579  18.6980  18.7551  18.7659
    18.8235  18.8814  18.9161  18.9578  18.9913  19.0688  19.1008  19.2308

     occupation numbers 
     1.0000   1.0000   1.0000   1.0000   1.0000   1.0000   1.0000   1.0000
     1.0000   1.0000   1.0000   1.0000   1.0000   1.0000   1.0000   1.0000
     1.0000   1.0000   1.0000   1.0000   1.0000   1.0000   1.0000   1.0000
     1.0000   1.0000   1.0000   1.0000   1.0000   1.0000   1.0000   1.0000
     1.0000   1.0000   1.0000   1.0000   1.0000   1.0000   1.0000   1.0000
     1.0000   1.0000   1.0000   1.0000   1.0000   1.0000   1.0000   1.0000
     1.0000   1.0000   1.0000   1.0000   1.0000   1.0000   1.0000   1.0000
     1.0000   1.0000   1.0000   1.0000   1.0000   1.0000   1.0000   1.0000
     1.0000   1.0000   1.0000   1.0000   1.0000   1.0000   1.0000   1.0000
     1.0000   1.0000   1.0000   1.0000   1.0000   1.0000   1.0000   1.0000
     0.0000   0.0000   0.0000   0.0000   0.0000   0.0000   0.0000   0.0000
     0.0000   0.0000   0.0000   0.0000   0.0000   0.0000   0.0000   0.0000
     0.0000   0.0000   0.0000   0.0000   0.0000   0.0000   0.0000   0.0000
     0.0000   0.0000   0.0000   0.0000   0.0000   0.0000   0.0000   0.0000
     0.0000   0.0000   0.0000   0.0000   0.0000   0.0000   0.0000   0.0000
     0.0000   0.0000   0.0000   0.0000   0.0000   0.0000   0.0000   0.0000
     0.0000   0.0000   0.0000   0.0000   0.0000   0.0000   0.0000   0.0000
     0.0000   0.0000   0.0000   0.0000   0.0000   0.0000   0.0000   0.0000
     0.0000   0.0000   0.0000   0.0000   0.0000   0.0000   0.0000   0.0000
     0.0000   0.0000   0.0000   0.0000   0.0000   0.0000   0.0000   0.0000
     0.0000   0.0000   0.0000   0.0000   0.0000   0.0000   0.0000   0.0000
     0.0000   0.0000   0.0000   0.0000   0.0000   0.0000   0.0000   0.0000
     0.0000   0.0000   0.0000   0.0000   0.0000   0.0000   0.0000   0.0000
     0.0000   0.0000   0.0000   0.0000   0.0000   0.0000   0.0000   0.0000
     0.0000   0.0000   0.0000   0.0000   0.0000   0.0000   0.0000   0.0000

          k = 0.1667 0.0000 0.0000 ( 27353 PWs)   bands (ev):

   -18.4410 -18.4363 -18.4224 -18.4218 -18.4199 -18.4192 -18.4164 -18.4163
   -18.4136 -18.4128 -18.4017 -18.4016 -18.3999 -18.3998 -18.3950 -18.3946
   -18.3928 -18.3926 -18.3899 -18.3818 -18.3813 -18.3766 -18.3757 -18.3733
   -18.3732 -18.3622 -18.3594 -18.3578 -18.3532 -18.3497 -18.3465 -18.3444
   -18.3418 -18.3416 -18.3333 -18.3332 -18.3295 -18.3293 -18.3221 -18.3221
   -10.6612 -10.5906 -10.5075 -10.4610  -9.5001  -9.3914  -9.2931  -9.2436
    -4.4962  -4.3228  -4.0833  -3.8801  -2.5679  -2.5017  -2.4274  -2.4249
    -1.7555  -1.4254  -1.0089  -0.6721  -0.6122  -0.5684  -0.4726  -0.4241
    -0.3031  -0.0839  -0.0476   0.0327   0.6849   0.6920   0.7537   0.7795
     0.9231   1.0362   1.3123   1.7712   2.0843   2.3269   2.3972   2.3976
     4.2443   4.6880   4.9967   5.1749   5.4913   5.5414   5.7885   5.9321
     5.9843   6.0069   6.1655   6.2292   6.2843   6.4808   6.6207   6.8370
     7.1142   7.1503   7.3028   7.6139   7.7137   7.8872   8.1211   8.1642
     8.2891   8.3045   8.4401   8.8231   8.8950   9.0080   9.0111   9.1440
     9.3876   9.4040   9.5569   9.5578   9.7793   9.8864  10.0941  10.4831
    10.7401  11.0411  11.1746  11.4810  11.5122  11.7955  12.0584  12.1422
    12.4463  12.5340  12.6353  12.6578  12.8815  12.9083  13.1509  13.3251
    13.3990  13.4329  13.5192  13.6129  13.6750  13.7889  13.8130  13.9634
    14.0025  14.0169  14.1132  14.1480  14.5642  14.5941  14.6128  14.6993
    14.8215  14.9545  15.0064  15.1258  15.1553  15.1691  15.2007  15.2635
    15.3400  15.3691  15.4076  15.6090  15.6161  15.7263  15.9212  15.9347
    16.1216  16.1527  16.4975  16.5309  16.5387  16.8023  16.8547  17.0869
    17.1464  17.1907  17.4154  17.4290  17.4702  17.7288  18.0491  18.0609
    18.1643  18.2334  18.3999  18.5195  18.6482  18.7145  18.8642  18.9192
    19.1677  19.3138  19.3788  19.3978  19.4833  19.8246  19.8846  19.9313

     occupation numbers 
     1.0000   1.0000   1.0000   1.0000   1.0000   1.0000   1.0000   1.0000
     1.0000   1.0000   1.0000   1.0000   1.0000   1.0000   1.0000   1.0000
     1.0000   1.0000   1.0000   1.0000   1.0000   1.0000   1.0000   1.0000
     1.0000   1.0000   1.0000   1.0000   1.0000   1.0000   1.0000   1.0000
     1.0000   1.0000   1.0000   1.0000   1.0000   1.0000   1.0000   1.0000
     1.0000   1.0000   1.0000   1.0000   1.0000   1.0000   1.0000   1.0000
     1.0000   1.0000   1.0000   1.0000   1.0000   1.0000   1.0000   1.0000
     1.0000   1.0000   1.0000   1.0000   1.0000   1.0000   1.0000   1.0000
     1.0000   1.0000   1.0000   1.0000   1.0000   1.0000   1.0000   1.0000
     1.0000   1.0000   1.0000   1.0000   1.0000   1.0000   1.0000   1.0000
     0.0000   0.0000   0.0000   0.0000   0.0000   0.0000   0.0000   0.0000
     0.0000   0.0000   0.0000   0.0000   0.0000   0.0000   0.0000   0.0000
     0.0000   0.0000   0.0000   0.0000   0.0000   0.0000   0.0000   0.0000
     0.0000   0.0000   0.0000   0.0000   0.0000   0.0000   0.0000   0.0000
     0.0000   0.0000   0.0000   0.0000   0.0000   0.0000   0.0000   0.0000
     0.0000   0.0000   0.0000   0.0000   0.0000   0.0000   0.0000   0.0000
     0.0000   0.0000   0.0000   0.0000   0.0000   0.0000   0.0000   0.0000
     0.0000   0.0000   0.0000   0.0000   0.0000   0.0000   0.0000   0.0000
     0.0000   0.0000   0.0000   0.0000   0.0000   0.0000   0.0000   0.0000
     0.0000   0.0000   0.0000   0.0000   0.0000   0.0000   0.0000   0.0000
     0.0000   0.0000   0.0000   0.0000   0.0000   0.0000   0.0000   0.0000
     0.0000   0.0000   0.0000   0.0000   0.0000   0.0000   0.0000   0.0000
     0.0000   0.0000   0.0000   0.0000   0.0000   0.0000   0.0000   0.0000
     0.0000   0.0000   0.0000   0.0000   0.0000   0.0000   0.0000   0.0000
     0.0000   0.0000   0.0000   0.0000   0.0000   0.0000   0.0000   0.0000

          k = 0.1667 0.1455 0.0000 ( 27358 PWs)   bands (ev):

   -18.4400 -18.4356 -18.4242 -18.4229 -18.4202 -18.4187 -18.4167 -18.4159
   -18.4137 -18.4134 -18.4031 -18.4031 -18.3993 -18.3992 -18.3941 -18.3939
   -18.3934 -18.3920 -18.3892 -18.3815 -18.3807 -18.3768 -18.3756 -18.3711
   -18.3710 -18.3616 -18.3590 -18.3578 -18.3530 -18.3499 -18.3476 -18.3440
   -18.3416 -18.3413 -18.3333 -18.3333 -18.3294 -18.3293 -18.3227 -18.3227
   -10.5562 -10.4877 -10.4067 -10.3615  -9.5194  -9.4194  -9.3307  -9.2879
    -4.6443  -4.4457  -4.1679  -3.9202  -3.0247  -2.8629  -2.7454  -2.7048
    -1.6107  -1.2905  -1.1593  -0.9385  -0.9258  -0.8118  -0.5386  -0.2465
     0.2013   0.2342   0.3481   0.4589   0.5008   0.5518   0.6207   0.6643
     1.4370   1.5196   1.6387   1.9097   1.9407   2.2903   2.3697   2.4257
     4.4145   4.7449   4.9007   5.1222   5.1683   5.3518   5.5601   5.6857
     5.7846   5.9455   5.9678   6.1035   6.2297   6.6505   6.8125   6.9282
     7.0357   7.1664   7.2991   7.3712   7.4665   7.5958   7.6372   7.7563
     7.9292   8.2731   8.4164   8.8693   9.1953   9.3709   9.6548   9.8392
     9.9754  10.0682  10.1540  10.2210  10.3543  10.4351  10.5034  10.7903
    10.9251  11.1591  11.4073  11.4277  11.5795  11.6036  11.8420  12.0266
    12.0927  12.1563  12.3334  12.3487  12.5630  12.5875  12.7135  12.7768
    13.0069  13.1828  13.2836  13.3498  13.3599  13.4283  13.6712  13.8427
    14.0656  14.0928  14.2618  14.3185  14.4271  14.6016  14.6871  14.6997
    14.7999  14.8784  15.0415  15.1588  15.2101  15.4335  15.5153  15.6533
    15.6793  15.8717  15.9456  16.0423  16.2353  16.3382  16.4656  16.5222
    16.6192  16.7751  16.7865  16.9423  17.0827  17.2137  17.2924  17.3164
    17.4025  17.4450  17.6252  17.6765  17.7335  17.7774  17.8146  17.9923
    18.1230  18.2667  18.3542  18.3674  18.5831  18.6999  18.7237  18.8091
    18.8683  18.9051  19.0407  19.0862  19.2070  19.2571  19.3697  19.4469

     occupation numbers 
     1.0000   1.0000   1.0000   1.0000   1.0000   1.0000   1.0000   1.0000
     1.0000   1.0000   1.0000   1.0000   1.0000   1.0000   1.0000   1.0000
     1.0000   1.0000   1.0000   1.0000   1.0000   1.0000   1.0000   1.0000
     1.0000   1.0000   1.0000   1.0000   1.0000   1.0000   1.0000   1.0000
     1.0000   1.0000   1.0000   1.0000   1.0000   1.0000   1.0000   1.0000
     1.0000   1.0000   1.0000   1.0000   1.0000   1.0000   1.0000   1.0000
     1.0000   1.0000   1.0000   1.0000   1.0000   1.0000   1.0000   1.0000
     1.0000   1.0000   1.0000   1.0000   1.0000   1.0000   1.0000   1.0000
     1.0000   1.0000   1.0000   1.0000   1.0000   1.0000   1.0000   1.0000
     1.0000   1.0000   1.0000   1.0000   1.0000   1.0000   1.0000   1.0000
     0.0000   0.0000   0.0000   0.0000   0.0000   0.0000   0.0000   0.0000
     0.0000   0.0000   0.0000   0.0000   0.0000   0.0000   0.0000   0.0000
     0.0000   0.0000   0.0000   0.0000   0.0000   0.0000   0.0000   0.0000
     0.0000   0.0000   0.0000   0.0000   0.0000   0.0000   0.0000   0.0000
     0.0000   0.0000   0.0000   0.0000   0.0000   0.0000   0.0000   0.0000
     0.0000   0.0000   0.0000   0.0000   0.0000   0.0000   0.0000   0.0000
     0.0000   0.0000   0.0000   0.0000   0.0000   0.0000   0.0000   0.0000
     0.0000   0.0000   0.0000   0.0000   0.0000   0.0000   0.0000   0.0000
     0.0000   0.0000   0.0000   0.0000   0.0000   0.0000   0.0000   0.0000
     0.0000   0.0000   0.0000   0.0000   0.0000   0.0000   0.0000   0.0000
     0.0000   0.0000   0.0000   0.0000   0.0000   0.0000   0.0000   0.0000
     0.0000   0.0000   0.0000   0.0000   0.0000   0.0000   0.0000   0.0000
     0.0000   0.0000   0.0000   0.0000   0.0000   0.0000   0.0000   0.0000
     0.0000   0.0000   0.0000   0.0000   0.0000   0.0000   0.0000   0.0000
     0.0000   0.0000   0.0000   0.0000   0.0000   0.0000   0.0000   0.0000

          k = 0.1667 0.2910 0.0000 ( 27304 PWs)   bands (ev):

   -18.4372 -18.4336 -18.4281 -18.4260 -18.4204 -18.4184 -18.4179 -18.4171
   -18.4127 -18.4126 -18.4060 -18.4060 -18.3994 -18.3993 -18.3957 -18.3956
   -18.3913 -18.3876 -18.3865 -18.3808 -18.3796 -18.3765 -18.3760 -18.3668
   -18.3666 -18.3602 -18.3579 -18.3577 -18.3526 -18.3505 -18.3494 -18.3435
   -18.3411 -18.3409 -18.3337 -18.3337 -18.3288 -18.3288 -18.3242 -18.3242
   -10.2746 -10.2131 -10.1369 -10.0930  -9.6291  -9.5469  -9.4790  -9.4501
    -4.8245  -4.6204  -4.3363  -3.9923  -3.8191  -3.5645  -3.3660  -3.2413
    -1.2129  -1.1247  -1.0849  -0.8879  -0.8479  -0.5725  -0.2207  -0.1159
    -0.0766  -0.0281   0.1564   0.4823   0.5315   0.7521   0.9526   1.0234
     1.6682   1.6942   1.7129   1.9465   1.9594   2.2232   2.2913   2.4160
     4.6003   4.9385   4.9810   5.0966   5.2000   5.2805   5.3984   5.4716
     5.6994   5.8166   5.9396   6.0620   6.1274   6.4188   6.4930   6.6503
     6.9609   7.0462   7.3877   7.4101   7.5165   7.6964   7.8647   7.9132
     8.0924   8.2660   8.5711   9.0631   9.3852   9.6131   9.9345  10.0542
    10.2240  10.3821  10.4305  10.5555  10.7110  10.7948  10.9574  11.0090
    11.1000  11.2094  11.2635  11.4360  11.5354  11.6253  11.7627  11.9447
    12.0330  12.1196  12.1759  12.3553  12.5877  12.7806  12.9441  13.0874
    13.2276  13.3959  13.4335  13.5157  13.7259  13.7907  13.8718  13.9349
    14.0069  14.2419  14.3384  14.4179  14.5996  14.6548  14.7929  14.8671
    15.0414  15.1041  15.1650  15.3574  15.4129  15.5181  15.5974  15.6519
    15.6824  15.7694  15.8566  15.9777  16.0011  16.2423  16.3209  16.3912
    16.4779  16.5214  16.6275  16.7422  16.7852  16.9558  17.0395  17.1522
    17.2035  17.3693  17.3973  17.4924  17.5692  17.6317  17.8706  17.8924
    18.0799  18.1209  18.1970  18.3355  18.5302  18.6312  18.7480  18.9132
    18.9597  19.0747  19.1294  19.1674  19.2500  19.4052  19.4426  19.6122

     occupation numbers 
     1.0000   1.0000   1.0000   1.0000   1.0000   1.0000   1.0000   1.0000
     1.0000   1.0000   1.0000   1.0000   1.0000   1.0000   1.0000   1.0000
     1.0000   1.0000   1.0000   1.0000   1.0000   1.0000   1.0000   1.0000
     1.0000   1.0000   1.0000   1.0000   1.0000   1.0000   1.0000   1.0000
     1.0000   1.0000   1.0000   1.0000   1.0000   1.0000   1.0000   1.0000
     1.0000   1.0000   1.0000   1.0000   1.0000   1.0000   1.0000   1.0000
     1.0000   1.0000   1.0000   1.0000   1.0000   1.0000   1.0000   1.0000
     1.0000   1.0000   1.0000   1.0000   1.0000   1.0000   1.0000   1.0000
     1.0000   1.0000   1.0000   1.0000   1.0000   1.0000   1.0000   1.0000
     1.0000   1.0000   1.0000   1.0000   1.0000   1.0000   1.0000   1.0000
     0.0000   0.0000   0.0000   0.0000   0.0000   0.0000   0.0000   0.0000
     0.0000   0.0000   0.0000   0.0000   0.0000   0.0000   0.0000   0.0000
     0.0000   0.0000   0.0000   0.0000   0.0000   0.0000   0.0000   0.0000
     0.0000   0.0000   0.0000   0.0000   0.0000   0.0000   0.0000   0.0000
     0.0000   0.0000   0.0000   0.0000   0.0000   0.0000   0.0000   0.0000
     0.0000   0.0000   0.0000   0.0000   0.0000   0.0000   0.0000   0.0000
     0.0000   0.0000   0.0000   0.0000   0.0000   0.0000   0.0000   0.0000
     0.0000   0.0000   0.0000   0.0000   0.0000   0.0000   0.0000   0.0000
     0.0000   0.0000   0.0000   0.0000   0.0000   0.0000   0.0000   0.0000
     0.0000   0.0000   0.0000   0.0000   0.0000   0.0000   0.0000   0.0000
     0.0000   0.0000   0.0000   0.0000   0.0000   0.0000   0.0000   0.0000
     0.0000   0.0000   0.0000   0.0000   0.0000   0.0000   0.0000   0.0000
     0.0000   0.0000   0.0000   0.0000   0.0000   0.0000   0.0000   0.0000
     0.0000   0.0000   0.0000   0.0000   0.0000   0.0000   0.0000   0.0000
     0.0000   0.0000   0.0000   0.0000   0.0000   0.0000   0.0000   0.0000

          k = 0.1667-0.4365 0.0000 ( 27324 PWs)   bands (ev):

   -18.4336 -18.4333 -18.4300 -18.4292 -18.4200 -18.4194 -18.4183 -18.4179
   -18.4109 -18.4108 -18.4084 -18.4083 -18.3998 -18.3998 -18.3965 -18.3965
   -18.3905 -18.3857 -18.3842 -18.3806 -18.3783 -18.3771 -18.3763 -18.3648
   -18.3644 -18.3598 -18.3573 -18.3571 -18.3518 -18.3515 -18.3503 -18.3432
   -18.3407 -18.3406 -18.3341 -18.3340 -18.3280 -18.3279 -18.3253 -18.3253
    -9.9404  -9.9385  -9.9371  -9.7533  -9.7527  -9.7471  -9.7459  -9.7441
    -4.6626  -4.6620  -4.6256  -4.0820  -4.0695  -3.7507  -3.7311  -3.6848
    -0.8229  -0.8083  -0.7488  -0.5687  -0.5458  -0.5377  -0.4333  -0.4324
    -0.1619  -0.1100   0.0372   0.2814   0.5029   0.6488   0.8258   0.8402
     1.8747   1.8824   1.8872   2.0147   2.0512   2.0736   2.1798   2.2157
     4.6199   4.6576   5.0329   5.0539   5.3380   5.3395   5.3841   5.4019
     5.8491   6.1049   6.1251   6.1900   6.3507   6.4157   6.5746   6.5953
     6.9372   6.9684   7.1933   7.1963   7.2613   7.8177   7.9763   8.0237
     8.5983   8.6445   8.9328   9.0374   9.3123   9.4602   9.6962   9.7820
     9.9664  10.0429  10.4418  10.6234  10.7370  10.7495  10.9064  10.9888
    11.1508  11.4239  11.8042  11.8581  11.8815  12.0952  12.1107  12.1582
    12.2035  12.2473  12.2950  12.3488  12.3756  12.5261  12.8476  13.0952
    13.2823  13.4210  13.4852  13.5736  13.6704  13.7654  13.9392  13.9728
    14.1250  14.2224  14.4252  14.5000  14.5830  14.6047  14.8770  14.9579
    15.0430  15.1074  15.1625  15.2207  15.2658  15.4442  15.5460  15.6690
    15.7803  15.8189  15.8723  15.9813  16.0852  16.0924  16.1896  16.2738
    16.3683  16.4478  16.4571  16.4973  16.7563  16.9237  17.1394  17.2059
    17.2947  17.4136  17.4250  17.6496  17.6697  17.7774  17.9799  18.0183
    18.0758  18.1409  18.2317  18.2924  18.3221  18.4314  18.5033  18.5670
    18.7818  19.0222  19.0445  19.2049  19.2656  19.2715  19.3278  19.3464

     occupation numbers 
     1.0000   1.0000   1.0000   1.0000   1.0000   1.0000   1.0000   1.0000
     1.0000   1.0000   1.0000   1.0000   1.0000   1.0000   1.0000   1.0000
     1.0000   1.0000   1.0000   1.0000   1.0000   1.0000   1.0000   1.0000
     1.0000   1.0000   1.0000   1.0000   1.0000   1.0000   1.0000   1.0000
     1.0000   1.0000   1.0000   1.0000   1.0000   1.0000   1.0000   1.0000
     1.0000   1.0000   1.0000   1.0000   1.0000   1.0000   1.0000   1.0000
     1.0000   1.0000   1.0000   1.0000   1.0000   1.0000   1.0000   1.0000
     1.0000   1.0000   1.0000   1.0000   1.0000   1.0000   1.0000   1.0000
     1.0000   1.0000   1.0000   1.0000   1.0000   1.0000   1.0000   1.0000
     1.0000   1.0000   1.0000   1.0000   1.0000   1.0000   1.0000   1.0000
     0.0000   0.0000   0.0000   0.0000   0.0000   0.0000   0.0000   0.0000
     0.0000   0.0000   0.0000   0.0000   0.0000   0.0000   0.0000   0.0000
     0.0000   0.0000   0.0000   0.0000   0.0000   0.0000   0.0000   0.0000
     0.0000   0.0000   0.0000   0.0000   0.0000   0.0000   0.0000   0.0000
     0.0000   0.0000   0.0000   0.0000   0.0000   0.0000   0.0000   0.0000
     0.0000   0.0000   0.0000   0.0000   0.0000   0.0000   0.0000   0.0000
     0.0000   0.0000   0.0000   0.0000   0.0000   0.0000   0.0000   0.0000
     0.0000   0.0000   0.0000   0.0000   0.0000   0.0000   0.0000   0.0000
     0.0000   0.0000   0.0000   0.0000   0.0000   0.0000   0.0000   0.0000
     0.0000   0.0000   0.0000   0.0000   0.0000   0.0000   0.0000   0.0000
     0.0000   0.0000   0.0000   0.0000   0.0000   0.0000   0.0000   0.0000
     0.0000   0.0000   0.0000   0.0000   0.0000   0.0000   0.0000   0.0000
     0.0000   0.0000   0.0000   0.0000   0.0000   0.0000   0.0000   0.0000
     0.0000   0.0000   0.0000   0.0000   0.0000   0.0000   0.0000   0.0000
     0.0000   0.0000   0.0000   0.0000   0.0000   0.0000   0.0000   0.0000

          k = 0.3333 0.0000 0.0000 ( 27299 PWs)   bands (ev):

   -18.4356 -18.4340 -18.4307 -18.4300 -18.4152 -18.4151 -18.4131 -18.4105
   -18.4088 -18.4088 -18.4071 -18.4068 -18.3950 -18.3946 -18.3921 -18.3904
   -18.3887 -18.3872 -18.3855 -18.3846 -18.3829 -18.3781 -18.3765 -18.3696
   -18.3682 -18.3678 -18.3594 -18.3593 -18.3557 -18.3555 -18.3465 -18.3464
   -18.3451 -18.3416 -18.3333 -18.3332 -18.3243 -18.3243 -18.3195 -18.3194
   -10.2032 -10.1452 -10.0774 -10.0459  -9.4128  -9.3480  -9.2919  -9.2787
    -4.7827  -4.6321  -4.4425  -4.2992  -3.7124  -3.5981  -3.4728  -3.4101
    -1.2881  -0.9370  -0.5915  -0.5306  -0.4918  -0.4066  -0.3667  -0.1741
     0.1130   0.1880   0.3132   0.3455   0.6313   0.6740   0.7345   0.8142
     1.1985   1.3248   1.5860   1.8433   1.9326   2.0456   2.1995   2.3604
     3.7825   4.0657   4.3832   4.6354   4.7766   5.0140   5.1369   5.2063
     5.4701   5.5062   5.5458   5.7183   5.8931   5.9799   6.1657   6.4875
     6.5805   6.6691   6.8656   6.9132   7.3706   7.4127   7.4764   7.7089
     7.9096   8.1174   8.5979   9.2772   9.4410   9.6655  10.0282  10.0629
    10.1835  10.2234  10.2586  10.3532  10.6341  10.7548  10.7819  10.8799
    11.1325  11.1489  11.2579  11.3959  11.4892  11.6553  11.8200  11.8544
    11.9939  12.0674  12.0683  12.3415  12.4876  12.7452  12.8383  13.1212
    13.1636  13.2483  13.6316  13.7717  13.8748  14.1023  14.1390  14.1618
    14.2741  14.5152  14.5992  14.6995  14.8498  14.9962  15.0084  15.1823
    15.2926  15.3478  15.5620  15.6268  15.7437  15.8323  15.8733  15.9956
    16.0508  16.1249  16.4441  16.4445  16.6241  16.7107  16.8640  16.9134
    17.0588  17.1826  17.2806  17.3155  17.3705  17.4085  17.5029  17.6504
    17.7859  17.8525  17.8964  17.9211  18.0043  18.1414  18.1738  18.1907
    18.3666  18.3842  18.4259  18.4503  18.5548  18.7089  18.7133  18.8663
    18.9730  19.1151  19.1241  19.2007  19.2389  19.3430  19.3655  19.4344

     occupation numbers 
     1.0000   1.0000   1.0000   1.0000   1.0000   1.0000   1.0000   1.0000
     1.0000   1.0000   1.0000   1.0000   1.0000   1.0000   1.0000   1.0000
     1.0000   1.0000   1.0000   1.0000   1.0000   1.0000   1.0000   1.0000
     1.0000   1.0000   1.0000   1.0000   1.0000   1.0000   1.0000   1.0000
     1.0000   1.0000   1.0000   1.0000   1.0000   1.0000   1.0000   1.0000
     1.0000   1.0000   1.0000   1.0000   1.0000   1.0000   1.0000   1.0000
     1.0000   1.0000   1.0000   1.0000   1.0000   1.0000   1.0000   1.0000
     1.0000   1.0000   1.0000   1.0000   1.0000   1.0000   1.0000   1.0000
     1.0000   1.0000   1.0000   1.0000   1.0000   1.0000   1.0000   1.0000
     1.0000   1.0000   1.0000   1.0000   1.0000   1.0000   1.0000   1.0000
     0.0000   0.0000   0.0000   0.0000   0.0000   0.0000   0.0000   0.0000
     0.0000   0.0000   0.0000   0.0000   0.0000   0.0000   0.0000   0.0000
     0.0000   0.0000   0.0000   0.0000   0.0000   0.0000   0.0000   0.0000
     0.0000   0.0000   0.0000   0.0000   0.0000   0.0000   0.0000   0.0000
     0.0000   0.0000   0.0000   0.0000   0.0000   0.0000   0.0000   0.0000
     0.0000   0.0000   0.0000   0.0000   0.0000   0.0000   0.0000   0.0000
     0.0000   0.0000   0.0000   0.0000   0.0000   0.0000   0.0000   0.0000
     0.0000   0.0000   0.0000   0.0000   0.0000   0.0000   0.0000   0.0000
     0.0000   0.0000   0.0000   0.0000   0.0000   0.0000   0.0000   0.0000
     0.0000   0.0000   0.0000   0.0000   0.0000   0.0000   0.0000   0.0000
     0.0000   0.0000   0.0000   0.0000   0.0000   0.0000   0.0000   0.0000
     0.0000   0.0000   0.0000   0.0000   0.0000   0.0000   0.0000   0.0000
     0.0000   0.0000   0.0000   0.0000   0.0000   0.0000   0.0000   0.0000
     0.0000   0.0000   0.0000   0.0000   0.0000   0.0000   0.0000   0.0000
     0.0000   0.0000   0.0000   0.0000   0.0000   0.0000   0.0000   0.0000

          k = 0.3333 0.1455 0.0000 ( 27299 PWs)   bands (ev):

   -18.4377 -18.4346 -18.4327 -18.4314 -18.4165 -18.4165 -18.4139 -18.4109
   -18.4102 -18.4097 -18.4073 -18.4069 -18.3944 -18.3929 -18.3917 -18.3906
   -18.3885 -18.3873 -18.3853 -18.3838 -18.3821 -18.3777 -18.3764 -18.3690
   -18.3668 -18.3660 -18.3588 -18.3587 -18.3555 -18.3550 -18.3461 -18.3459
   -18.3451 -18.3413 -18.3336 -18.3333 -18.3240 -18.3240 -18.3197 -18.3197
   -10.1158 -10.0604  -9.9949  -9.9650  -9.4132  -9.3522  -9.2991  -9.2875
    -4.7119  -4.5529  -4.3519  -4.1981  -3.6962  -3.6059  -3.5129  -3.4806
    -1.3867  -1.3120  -1.2685  -1.0502  -0.9995  -0.7179  -0.4582  -0.3874
     0.1239   0.1527   0.2534   0.3816   0.4892   0.6453   0.7458   0.7502
     1.0992   1.2023   1.4264   1.7680   1.9345   1.9822   2.0575   2.1282
     4.3341   4.5043   4.6008   4.7280   4.8610   4.9036   5.0289   5.0675
     5.6490   5.7283   5.9318   6.2140   6.2823   6.4994   6.5381   6.6767
     6.8107   6.9349   7.0849   7.3723   7.5380   7.8548   7.9254   8.0229
     8.0707   8.2581   8.6817   9.1218   9.1839   9.7189   9.9077  10.0373
    10.3512  10.4545  10.5461  10.6447  10.7119  10.7978  10.8680  11.0083
    11.0466  11.1452  11.2935  11.4545  11.5387  11.5529  11.9567  12.0000
    12.1359  12.1937  12.2899  12.3065  12.6092  12.7483  12.9966  13.0552
    13.1710  13.3257  13.4905  13.6348  13.6597  13.6807  13.8301  13.9354
    14.0492  14.1593  14.3307  14.4845  14.5755  14.6851  15.0309  15.1115
    15.2597  15.3274  15.4554  15.5431  15.6920  15.7159  15.8282  15.8847
    16.0536  16.0687  16.1671  16.2520  16.3664  16.4471  16.6278  16.7255
    16.8539  16.8597  17.0307  17.1387  17.2595  17.5976  17.6149  17.6668
    17.7246  17.8219  18.0426  18.1427  18.1781  18.3015  18.3173  18.3447
    18.4575  18.5234  18.5960  18.6206  18.7365  18.7512  18.8410  18.8806
    18.9496  18.9947  19.0832  19.1502  19.2302  19.2773  19.4339  19.5718

     occupation numbers 
     1.0000   1.0000   1.0000   1.0000   1.0000   1.0000   1.0000   1.0000
     1.0000   1.0000   1.0000   1.0000   1.0000   1.0000   1.0000   1.0000
     1.0000   1.0000   1.0000   1.0000   1.0000   1.0000   1.0000   1.0000
     1.0000   1.0000   1.0000   1.0000   1.0000   1.0000   1.0000   1.0000
     1.0000   1.0000   1.0000   1.0000   1.0000   1.0000   1.0000   1.0000
     1.0000   1.0000   1.0000   1.0000   1.0000   1.0000   1.0000   1.0000
     1.0000   1.0000   1.0000   1.0000   1.0000   1.0000   1.0000   1.0000
     1.0000   1.0000   1.0000   1.0000   1.0000   1.0000   1.0000   1.0000
     1.0000   1.0000   1.0000   1.0000   1.0000   1.0000   1.0000   1.0000
     1.0000   1.0000   1.0000   1.0000   1.0000   1.0000   1.0000   1.0000
     0.0000   0.0000   0.0000   0.0000   0.0000   0.0000   0.0000   0.0000
     0.0000   0.0000   0.0000   0.0000   0.0000   0.0000   0.0000   0.0000
     0.0000   0.0000   0.0000   0.0000   0.0000   0.0000   0.0000   0.0000
     0.0000   0.0000   0.0000   0.0000   0.0000   0.0000   0.0000   0.0000
     0.0000   0.0000   0.0000   0.0000   0.0000   0.0000   0.0000   0.0000
     0.0000   0.0000   0.0000   0.0000   0.0000   0.0000   0.0000   0.0000
     0.0000   0.0000   0.0000   0.0000   0.0000   0.0000   0.0000   0.0000
     0.0000   0.0000   0.0000   0.0000   0.0000   0.0000   0.0000   0.0000
     0.0000   0.0000   0.0000   0.0000   0.0000   0.0000   0.0000   0.0000
     0.0000   0.0000   0.0000   0.0000   0.0000   0.0000   0.0000   0.0000
     0.0000   0.0000   0.0000   0.0000   0.0000   0.0000   0.0000   0.0000
     0.0000   0.0000   0.0000   0.0000   0.0000   0.0000   0.0000   0.0000
     0.0000   0.0000   0.0000   0.0000   0.0000   0.0000   0.0000   0.0000
     0.0000   0.0000   0.0000   0.0000   0.0000   0.0000   0.0000   0.0000
     0.0000   0.0000   0.0000   0.0000   0.0000   0.0000   0.0000   0.0000

          k = 0.3333 0.2910 0.0000 ( 27271 PWs)   bands (ev):

   -18.4409 -18.4372 -18.4362 -18.4346 -18.4196 -18.4194 -18.4142 -18.4132
   -18.4128 -18.4102 -18.4086 -18.4075 -18.3931 -18.3914 -18.3912 -18.3897
   -18.3888 -18.3879 -18.3842 -18.3817 -18.3804 -18.3773 -18.3752 -18.3675
   -18.3642 -18.3632 -18.3572 -18.3570 -18.3547 -18.3541 -18.3460 -18.3448
   -18.3444 -18.3406 -18.3339 -18.3336 -18.3232 -18.3232 -18.3204 -18.3203
    -9.8918  -9.8441  -9.7847  -9.7570  -9.4573  -9.4031  -9.3570  -9.3488
    -4.5389  -4.3820  -4.1773  -3.9733  -3.8248  -3.7035  -3.6216  -3.5909
    -1.8983  -1.7611  -1.6045  -1.4947  -1.0892  -0.9359  -0.8413  -0.7648
    -0.4999  -0.4264  -0.2013  -0.1006   0.2127   0.3954   0.6063   0.7224
     0.7292   0.8968   1.2317   1.4902   1.6059   1.7327   1.9195   1.9619
     4.2550   4.7625   5.3303   5.5419   5.7177   5.8349   5.9309   6.0090
     6.0571   6.1540   6.2945   6.3991   6.5035   6.9865   7.1530   7.2641
     7.3782   7.4514   7.4584   7.6254   7.7692   8.4832   8.5838   8.5908
     8.6245   8.6825   8.8597   9.1064   9.2449   9.3342   9.6428   9.8894
    10.0891  10.3356  10.5103  10.6325  11.0327  11.0732  11.1792  11.4319
    11.5164  11.6811  11.7531  11.8544  11.9547  12.0184  12.0955  12.1850
    12.2323  12.2827  12.3757  12.5332  12.7150  12.7822  12.8297  12.9598
    12.9928  13.1908  13.3236  13.3777  13.4714  13.6052  13.7102  13.9451
    14.1163  14.2137  14.2510  14.3828  14.4564  14.5193  14.5290  14.6362
    14.7128  14.7428  14.9090  15.0120  15.1214  15.2989  15.4481  15.6279
    15.8516  15.9226  16.0478  16.1416  16.2390  16.3905  16.4608  16.6411
    16.6677  16.7158  16.7928  16.8707  16.9638  17.0790  17.1283  17.1779
    17.2503  17.3793  17.4195  17.4653  17.6107  17.7470  17.9000  17.9123
    18.0336  18.1087  18.2188  18.3897  18.4750  18.6016  18.6596  18.7807
    18.8815  19.0100  19.0669  19.2201  19.2463  19.4102  19.5207  19.5489

     occupation numbers 
     1.0000   1.0000   1.0000   1.0000   1.0000   1.0000   1.0000   1.0000
     1.0000   1.0000   1.0000   1.0000   1.0000   1.0000   1.0000   1.0000
     1.0000   1.0000   1.0000   1.0000   1.0000   1.0000   1.0000   1.0000
     1.0000   1.0000   1.0000   1.0000   1.0000   1.0000   1.0000   1.0000
     1.0000   1.0000   1.0000   1.0000   1.0000   1.0000   1.0000   1.0000
     1.0000   1.0000   1.0000   1.0000   1.0000   1.0000   1.0000   1.0000
     1.0000   1.0000   1.0000   1.0000   1.0000   1.0000   1.0000   1.0000
     1.0000   1.0000   1.0000   1.0000   1.0000   1.0000   1.0000   1.0000
     1.0000   1.0000   1.0000   1.0000   1.0000   1.0000   1.0000   1.0000
     1.0000   1.0000   1.0000   1.0000   1.0000   1.0000   1.0000   1.0000
     0.0000   0.0000   0.0000   0.0000   0.0000   0.0000   0.0000   0.0000
     0.0000   0.0000   0.0000   0.0000   0.0000   0.0000   0.0000   0.0000
     0.0000   0.0000   0.0000   0.0000   0.0000   0.0000   0.0000   0.0000
     0.0000   0.0000   0.0000   0.0000   0.0000   0.0000   0.0000   0.0000
     0.0000   0.0000   0.0000   0.0000   0.0000   0.0000   0.0000   0.0000
     0.0000   0.0000   0.0000   0.0000   0.0000   0.0000   0.0000   0.0000
     0.0000   0.0000   0.0000   0.0000   0.0000   0.0000   0.0000   0.0000
     0.0000   0.0000   0.0000   0.0000   0.0000   0.0000   0.0000   0.0000
     0.0000   0.0000   0.0000   0.0000   0.0000   0.0000   0.0000   0.0000
     0.0000   0.0000   0.0000   0.0000   0.0000   0.0000   0.0000   0.0000
     0.0000   0.0000   0.0000   0.0000   0.0000   0.0000   0.0000   0.0000
     0.0000   0.0000   0.0000   0.0000   0.0000   0.0000   0.0000   0.0000
     0.0000   0.0000   0.0000   0.0000   0.0000   0.0000   0.0000   0.0000
     0.0000   0.0000   0.0000   0.0000   0.0000   0.0000   0.0000   0.0000
     0.0000   0.0000   0.0000   0.0000   0.0000   0.0000   0.0000   0.0000

          k = 0.3333-0.4365 0.0000 ( 27254 PWs)   bands (ev):

   -18.4422 -18.4394 -18.4370 -18.4365 -18.4211 -18.4208 -18.4146 -18.4146
   -18.4133 -18.4104 -18.4095 -18.4080 -18.3925 -18.3907 -18.3905 -18.3899
   -18.3899 -18.3876 -18.3837 -18.3805 -18.3794 -18.3772 -18.3744 -18.3668
   -18.3630 -18.3623 -18.3563 -18.3561 -18.3540 -18.3535 -18.3461 -18.3442
   -18.3437 -18.3403 -18.3340 -18.3339 -18.3226 -18.3226 -18.3209 -18.3209
    -9.6514  -9.6497  -9.6487  -9.5268  -9.5253  -9.5242  -9.4945  -9.4945
    -4.3027  -4.2933  -4.2776  -3.9047  -3.9019  -3.7133  -3.7034  -3.6831
    -1.7295  -1.7277  -1.5938  -1.5752  -1.3939  -1.3858  -1.2313  -1.2311
    -0.4224  -0.4191  -0.2122  -0.1676   0.0528   0.0991   0.2200   0.2342
     0.9106   0.9400   1.0914   1.2639   1.4687   1.5554   1.7210   1.7300
     4.9749   4.9878   5.2494   5.5177   5.7377   6.2244   6.3480   6.3510
     6.6141   6.6690   6.7078   6.8181   6.9411   7.0594   7.1356   7.1573
     7.6273   7.7771   8.1442   8.1895   8.2847   8.5050   8.5142   8.5241
     8.8698   8.9101   9.0508   9.2441   9.4896   9.5258   9.7137   9.9152
    10.0063  10.0700  10.0988  10.3097  10.5745  10.6894  11.0854  11.2250
    11.5211  11.5500  11.8267  12.0890  12.3156  12.3963  12.4165  12.6479
    12.6837  12.7275  12.7331  12.8333  12.8789  12.9069  12.9332  12.9957
    13.1434  13.1851  13.3083  13.3235  13.5206  13.5502  13.5670  13.7747
    13.9939  14.0278  14.0445  14.3398  14.3579  14.3634  14.5079  14.5612
    14.5724  14.6344  14.8630  14.9099  15.3624  15.4097  15.5453  15.7075
    15.7131  15.7301  15.8356  15.9697  16.1242  16.2280  16.2573  16.3277
    16.3671  16.3697  16.4489  16.4794  16.5020  16.6270  16.6611  16.7980
    16.9565  17.0506  17.1204  17.2561  17.4638  17.6778  17.7313  17.9169
    17.9676  17.9680  18.0625  18.0819  18.1340  18.1521  18.4134  18.5270
    18.7174  18.8048  18.8646  19.0105  19.1237  19.2335  19.2901  19.2948

     occupation numbers 
     1.0000   1.0000   1.0000   1.0000   1.0000   1.0000   1.0000   1.0000
     1.0000   1.0000   1.0000   1.0000   1.0000   1.0000   1.0000   1.0000
     1.0000   1.0000   1.0000   1.0000   1.0000   1.0000   1.0000   1.0000
     1.0000   1.0000   1.0000   1.0000   1.0000   1.0000   1.0000   1.0000
     1.0000   1.0000   1.0000   1.0000   1.0000   1.0000   1.0000   1.0000
     1.0000   1.0000   1.0000   1.0000   1.0000   1.0000   1.0000   1.0000
     1.0000   1.0000   1.0000   1.0000   1.0000   1.0000   1.0000   1.0000
     1.0000   1.0000   1.0000   1.0000   1.0000   1.0000   1.0000   1.0000
     1.0000   1.0000   1.0000   1.0000   1.0000   1.0000   1.0000   1.0000
     1.0000   1.0000   1.0000   1.0000   1.0000   1.0000   1.0000   1.0000
     0.0000   0.0000   0.0000   0.0000   0.0000   0.0000   0.0000   0.0000
     0.0000   0.0000   0.0000   0.0000   0.0000   0.0000   0.0000   0.0000
     0.0000   0.0000   0.0000   0.0000   0.0000   0.0000   0.0000   0.0000
     0.0000   0.0000   0.0000   0.0000   0.0000   0.0000   0.0000   0.0000
     0.0000   0.0000   0.0000   0.0000   0.0000   0.0000   0.0000   0.0000
     0.0000   0.0000   0.0000   0.0000   0.0000   0.0000   0.0000   0.0000
     0.0000   0.0000   0.0000   0.0000   0.0000   0.0000   0.0000   0.0000
     0.0000   0.0000   0.0000   0.0000   0.0000   0.0000   0.0000   0.0000
     0.0000   0.0000   0.0000   0.0000   0.0000   0.0000   0.0000   0.0000
     0.0000   0.0000   0.0000   0.0000   0.0000   0.0000   0.0000   0.0000
     0.0000   0.0000   0.0000   0.0000   0.0000   0.0000   0.0000   0.0000
     0.0000   0.0000   0.0000   0.0000   0.0000   0.0000   0.0000   0.0000
     0.0000   0.0000   0.0000   0.0000   0.0000   0.0000   0.0000   0.0000
     0.0000   0.0000   0.0000   0.0000   0.0000   0.0000   0.0000   0.0000
     0.0000   0.0000   0.0000   0.0000   0.0000   0.0000   0.0000   0.0000

          k =-0.5000 0.0000 0.0000 ( 27368 PWs)   bands (ev):

   -18.4376 -18.4376 -18.4347 -18.4347 -18.4186 -18.4186 -18.4123 -18.4123
   -18.4059 -18.4059 -18.4031 -18.4031 -18.3941 -18.3941 -18.3868 -18.3868
   -18.3853 -18.3853 -18.3832 -18.3832 -18.3798 -18.3798 -18.3754 -18.3754
   -18.3642 -18.3642 -18.3602 -18.3602 -18.3596 -18.3596 -18.3486 -18.3486
   -18.3410 -18.3410 -18.3324 -18.3324 -18.3195 -18.3195 -18.3190 -18.3190
    -9.6478  -9.6478  -9.6303  -9.6303  -9.6139  -9.6139  -9.5263  -9.5263
    -4.6127  -4.6127  -4.4698  -4.4698  -4.3007  -4.3007  -4.1822  -4.1822
    -0.6379  -0.6379  -0.3847  -0.3847  -0.1603  -0.1603  -0.0568  -0.0568
     0.3200   0.3200   0.4370   0.4370   0.6030   0.6030   0.7524   0.7524
     1.6167   1.6167   1.6314   1.6314   1.7084   1.7084   1.8047   1.8047
     4.2478   4.2478   4.3193   4.3193   4.3931   4.3931   4.4100   4.4100
     5.2779   5.2779   5.4756   5.4756   5.6669   5.6669   5.7917   5.7917
     6.0697   6.0697   6.5501   6.5501   6.8676   6.8676   7.3154   7.3154
     8.7149   8.7151   9.2688   9.2689   9.7215   9.7217  10.3178  10.3178
    10.4324  10.4325  10.6178  10.6178  10.8001  10.8001  11.2316  11.2316
    11.5742  11.5742  11.7729  11.7730  12.0399  12.0399  12.1662  12.1662
    12.3202  12.3202  12.7352  12.7352  12.9390  12.9391  13.0919  13.0919
    13.1958  13.1958  13.8514  13.8514  14.1273  14.1273  14.5079  14.5079
    14.5407  14.5407  14.6543  14.6543  14.7136  14.7136  14.8448  14.8448
    15.1734  15.1734  15.5285  15.5286  15.5978  15.5979  15.8427  15.8427
    16.0616  16.0617  16.3703  16.3705  16.6472  16.6475  16.7203  16.7204
    16.7629  16.7632  16.9871  16.9871  17.0882  17.0884  17.4628  17.4634
    17.5000  17.5003  17.6740  17.6740  17.7998  17.7998  18.3625  18.3626
    18.6066  18.6066  18.7811  18.7812  18.7867  18.7867  19.0064  19.0065
    19.0209  19.0209  19.5764  19.5765  19.6337  19.6338  19.8298  19.8298

     occupation numbers 
     1.0000   1.0000   1.0000   1.0000   1.0000   1.0000   1.0000   1.0000
     1.0000   1.0000   1.0000   1.0000   1.0000   1.0000   1.0000   1.0000
     1.0000   1.0000   1.0000   1.0000   1.0000   1.0000   1.0000   1.0000
     1.0000   1.0000   1.0000   1.0000   1.0000   1.0000   1.0000   1.0000
     1.0000   1.0000   1.0000   1.0000   1.0000   1.0000   1.0000   1.0000
     1.0000   1.0000   1.0000   1.0000   1.0000   1.0000   1.0000   1.0000
     1.0000   1.0000   1.0000   1.0000   1.0000   1.0000   1.0000   1.0000
     1.0000   1.0000   1.0000   1.0000   1.0000   1.0000   1.0000   1.0000
     1.0000   1.0000   1.0000   1.0000   1.0000   1.0000   1.0000   1.0000
     1.0000   1.0000   1.0000   1.0000   1.0000   1.0000   1.0000   1.0000
     0.0000   0.0000   0.0000   0.0000   0.0000   0.0000   0.0000   0.0000
     0.0000   0.0000   0.0000   0.0000   0.0000   0.0000   0.0000   0.0000
     0.0000   0.0000   0.0000   0.0000   0.0000   0.0000   0.0000   0.0000
     0.0000   0.0000   0.0000   0.0000   0.0000   0.0000   0.0000   0.0000
     0.0000   0.0000   0.0000   0.0000   0.0000   0.0000   0.0000   0.0000
     0.0000   0.0000   0.0000   0.0000   0.0000   0.0000   0.0000   0.0000
     0.0000   0.0000   0.0000   0.0000   0.0000   0.0000   0.0000   0.0000
     0.0000   0.0000   0.0000   0.0000   0.0000   0.0000   0.0000   0.0000
     0.0000   0.0000   0.0000   0.0000   0.0000   0.0000   0.0000   0.0000
     0.0000   0.0000   0.0000   0.0000   0.0000   0.0000   0.0000   0.0000
     0.0000   0.0000   0.0000   0.0000   0.0000   0.0000   0.0000   0.0000
     0.0000   0.0000   0.0000   0.0000   0.0000   0.0000   0.0000   0.0000
     0.0000   0.0000   0.0000   0.0000   0.0000   0.0000   0.0000   0.0000
     0.0000   0.0000   0.0000   0.0000   0.0000   0.0000   0.0000   0.0000
     0.0000   0.0000   0.0000   0.0000   0.0000   0.0000   0.0000   0.0000

          k =-0.5000 0.1455 0.0000 ( 27268 PWs)   bands (ev):

   -18.4398 -18.4398 -18.4365 -18.4365 -18.4206 -18.4206 -18.4141 -18.4141
   -18.4065 -18.4065 -18.4033 -18.4033 -18.3931 -18.3931 -18.3863 -18.3863
   -18.3852 -18.3852 -18.3829 -18.3829 -18.3798 -18.3798 -18.3741 -18.3741
   -18.3635 -18.3635 -18.3595 -18.3595 -18.3581 -18.3581 -18.3478 -18.3478
   -18.3410 -18.3410 -18.3324 -18.3324 -18.3194 -18.3194 -18.3189 -18.3189
    -9.6011  -9.6011  -9.5856  -9.5856  -9.5714  -9.5714  -9.4837  -9.4837
    -4.4946  -4.4946  -4.3654  -4.3654  -4.2153  -4.2153  -4.1140  -4.1140
    -0.9372  -0.9372  -0.7870  -0.7870  -0.6374  -0.6374  -0.5101  -0.5101
    -0.0445  -0.0445   0.1661   0.1661   0.4282   0.4282   0.5965   0.5965
     1.1878   1.1878   1.4042   1.4042   1.6841   1.6841   1.9285   1.9285
     4.1087   4.1087   4.4766   4.4766   4.8188   4.8188   4.9700   4.9700
     5.9308   5.9308   6.0968   6.0968   6.3138   6.3138   6.5410   6.5410
     6.8311   6.8311   7.0195   7.0195   7.0791   7.0791   7.2397   7.2397
     8.7456   8.7457   9.2579   9.2580   9.4493   9.4493   9.9126   9.9127
     9.9742   9.9742  10.6576  10.6576  10.9154  10.9155  11.0159  11.0159
    11.6486  11.6486  11.9795  11.9795  12.1133  12.1134  12.3978  12.3979
    12.5886  12.5886  12.9368  12.9368  13.1583  13.1583  13.4840  13.4841
    13.7782  13.7782  13.9524  13.9524  14.0723  14.0724  14.3386  14.3387
    14.4473  14.4473  14.5878  14.5879  14.6384  14.6384  14.7827  14.7827
    14.8554  14.8554  14.9884  14.9884  15.1005  15.1006  15.4749  15.4749
    15.6492  15.6493  15.7633  15.7634  16.1597  16.1598  16.3297  16.3298
    16.6321  16.6321  16.8549  16.8549  17.0410  17.0411  17.1648  17.1648
    17.5803  17.5804  17.8055  17.8055  18.1659  18.1659  18.3777  18.3777
    18.5605  18.5606  18.7561  18.7561  18.9475  18.9475  19.2060  19.2061
    19.3287  19.3288  19.4459  19.4459  19.5190  19.5192  19.5859  19.5860

     occupation numbers 
     1.0000   1.0000   1.0000   1.0000   1.0000   1.0000   1.0000   1.0000
     1.0000   1.0000   1.0000   1.0000   1.0000   1.0000   1.0000   1.0000
     1.0000   1.0000   1.0000   1.0000   1.0000   1.0000   1.0000   1.0000
     1.0000   1.0000   1.0000   1.0000   1.0000   1.0000   1.0000   1.0000
     1.0000   1.0000   1.0000   1.0000   1.0000   1.0000   1.0000   1.0000
     1.0000   1.0000   1.0000   1.0000   1.0000   1.0000   1.0000   1.0000
     1.0000   1.0000   1.0000   1.0000   1.0000   1.0000   1.0000   1.0000
     1.0000   1.0000   1.0000   1.0000   1.0000   1.0000   1.0000   1.0000
     1.0000   1.0000   1.0000   1.0000   1.0000   1.0000   1.0000   1.0000
     1.0000   1.0000   1.0000   1.0000   1.0000   1.0000   1.0000   1.0000
     0.0000   0.0000   0.0000   0.0000   0.0000   0.0000   0.0000   0.0000
     0.0000   0.0000   0.0000   0.0000   0.0000   0.0000   0.0000   0.0000
     0.0000   0.0000   0.0000   0.0000   0.0000   0.0000   0.0000   0.0000
     0.0000   0.0000   0.0000   0.0000   0.0000   0.0000   0.0000   0.0000
     0.0000   0.0000   0.0000   0.0000   0.0000   0.0000   0.0000   0.0000
     0.0000   0.0000   0.0000   0.0000   0.0000   0.0000   0.0000   0.0000
     0.0000   0.0000   0.0000   0.0000   0.0000   0.0000   0.0000   0.0000
     0.0000   0.0000   0.0000   0.0000   0.0000   0.0000   0.0000   0.0000
     0.0000   0.0000   0.0000   0.0000   0.0000   0.0000   0.0000   0.0000
     0.0000   0.0000   0.0000   0.0000   0.0000   0.0000   0.0000   0.0000
     0.0000   0.0000   0.0000   0.0000   0.0000   0.0000   0.0000   0.0000
     0.0000   0.0000   0.0000   0.0000   0.0000   0.0000   0.0000   0.0000
     0.0000   0.0000   0.0000   0.0000   0.0000   0.0000   0.0000   0.0000
     0.0000   0.0000   0.0000   0.0000   0.0000   0.0000   0.0000   0.0000
     0.0000   0.0000   0.0000   0.0000   0.0000   0.0000   0.0000   0.0000

          k =-0.5000 0.2910 0.0000 ( 27198 PWs)   bands (ev):

   -18.4442 -18.4442 -18.4401 -18.4401 -18.4246 -18.4246 -18.4177 -18.4177
   -18.4078 -18.4078 -18.4039 -18.4039 -18.3914 -18.3914 -18.3863 -18.3863
   -18.3854 -18.3854 -18.3812 -18.3812 -18.3794 -18.3794 -18.3716 -18.3716
   -18.3621 -18.3621 -18.3580 -18.3580 -18.3550 -18.3550 -18.3460 -18.3460
   -18.3410 -18.3410 -18.3324 -18.3324 -18.3193 -18.3193 -18.3189 -18.3189
    -9.5023  -9.5023  -9.4925  -9.4925  -9.4843  -9.4843  -9.3951  -9.3951
    -4.2127  -4.2127  -4.1286  -4.1286  -4.0368  -4.0368  -3.9793  -3.9793
    -1.5807  -1.5807  -1.3936  -1.3936  -1.1620  -1.1620  -1.0195  -1.0195
    -0.6269  -0.6269  -0.4613  -0.4613  -0.2132  -0.2132  -0.0227  -0.0227
     0.8106   0.8106   1.1574   1.1574   1.4979   1.4979   1.6924   1.6924
     4.8703   4.8703   5.2457   5.2457   5.7265   5.7265   6.0844   6.0844
     6.2974   6.2974   6.5663   6.5663   6.7058   6.7058   6.9838   6.9838
     7.7265   7.7265   8.1083   8.1083   8.3662   8.3662   8.5049   8.5049
     8.8494   8.8494   9.1773   9.1773   9.6808   9.6808  10.0096  10.0096
    10.2165  10.2166  10.2907  10.2908  10.7493  10.7493  11.2114  11.2115
    11.4763  11.4764  11.9017  11.9017  12.0445  12.0446  12.3951  12.3953
    12.5274  12.5275  12.8900  12.8901  13.0016  13.0018  13.1989  13.1989
    13.7755  13.7756  13.9645  13.9645  14.0908  14.0908  14.2257  14.2257
    14.2798  14.2798  14.4382  14.4382  14.6470  14.6471  14.7523  14.7523
    14.8169  14.8169  14.8836  14.8837  15.1879  15.1880  15.2931  15.2931
    15.3827  15.3827  15.5387  15.5387  15.6558  15.6559  15.7784  15.7784
    15.8669  15.8669  16.0603  16.0603  16.3792  16.3793  16.7296  16.7296
    17.0628  17.0629  17.6042  17.6043  17.8307  17.8307  18.1801  18.1802
    18.2611  18.2612  18.5108  18.5109  18.8293  18.8293  18.9321  18.9321
    19.2236  19.2237  19.4286  19.4286  19.4865  19.4866  19.7487  19.7489

     occupation numbers 
     1.0000   1.0000   1.0000   1.0000   1.0000   1.0000   1.0000   1.0000
     1.0000   1.0000   1.0000   1.0000   1.0000   1.0000   1.0000   1.0000
     1.0000   1.0000   1.0000   1.0000   1.0000   1.0000   1.0000   1.0000
     1.0000   1.0000   1.0000   1.0000   1.0000   1.0000   1.0000   1.0000
     1.0000   1.0000   1.0000   1.0000   1.0000   1.0000   1.0000   1.0000
     1.0000   1.0000   1.0000   1.0000   1.0000   1.0000   1.0000   1.0000
     1.0000   1.0000   1.0000   1.0000   1.0000   1.0000   1.0000   1.0000
     1.0000   1.0000   1.0000   1.0000   1.0000   1.0000   1.0000   1.0000
     1.0000   1.0000   1.0000   1.0000   1.0000   1.0000   1.0000   1.0000
     1.0000   1.0000   1.0000   1.0000   1.0000   1.0000   1.0000   1.0000
     0.0000   0.0000   0.0000   0.0000   0.0000   0.0000   0.0000   0.0000
     0.0000   0.0000   0.0000   0.0000   0.0000   0.0000   0.0000   0.0000
     0.0000   0.0000   0.0000   0.0000   0.0000   0.0000   0.0000   0.0000
     0.0000   0.0000   0.0000   0.0000   0.0000   0.0000   0.0000   0.0000
     0.0000   0.0000   0.0000   0.0000   0.0000   0.0000   0.0000   0.0000
     0.0000   0.0000   0.0000   0.0000   0.0000   0.0000   0.0000   0.0000
     0.0000   0.0000   0.0000   0.0000   0.0000   0.0000   0.0000   0.0000
     0.0000   0.0000   0.0000   0.0000   0.0000   0.0000   0.0000   0.0000
     0.0000   0.0000   0.0000   0.0000   0.0000   0.0000   0.0000   0.0000
     0.0000   0.0000   0.0000   0.0000   0.0000   0.0000   0.0000   0.0000
     0.0000   0.0000   0.0000   0.0000   0.0000   0.0000   0.0000   0.0000
     0.0000   0.0000   0.0000   0.0000   0.0000   0.0000   0.0000   0.0000
     0.0000   0.0000   0.0000   0.0000   0.0000   0.0000   0.0000   0.0000
     0.0000   0.0000   0.0000   0.0000   0.0000   0.0000   0.0000   0.0000
     0.0000   0.0000   0.0000   0.0000   0.0000   0.0000   0.0000   0.0000

          k =-0.5000-0.4365 0.0000 ( 27152 PWs)   bands (ev):

   -18.4464 -18.4464 -18.4419 -18.4419 -18.4265 -18.4265 -18.4194 -18.4194
   -18.4084 -18.4084 -18.4042 -18.4042 -18.3906 -18.3906 -18.3864 -18.3864
   -18.3857 -18.3857 -18.3805 -18.3805 -18.3788 -18.3788 -18.3703 -18.3703
   -18.3613 -18.3613 -18.3573 -18.3573 -18.3535 -18.3535 -18.3451 -18.3451
   -18.3409 -18.3409 -18.3323 -18.3323 -18.3192 -18.3192 -18.3188 -18.3188
    -9.4469  -9.4469  -9.4442  -9.4442  -9.4420  -9.4420  -9.3489  -9.3489
    -4.0291  -4.0291  -3.9959  -3.9959  -3.9603  -3.9603  -3.9123  -3.9123
    -1.7916  -1.7916  -1.5570  -1.5570  -1.2986  -1.2986  -1.2756  -1.2756
    -0.8968  -0.8968  -0.8331  -0.8331  -0.6857  -0.6857  -0.5112  -0.5112
     0.8442   0.8442   1.1773   1.1773   1.4389   1.4389   1.5208   1.5208
     5.5404   5.5404   5.5730   5.5730   5.7188   5.7188   5.7473   5.7473
     6.9107   6.9107   6.9525   6.9525   7.1373   7.1373   7.1753   7.1753
     7.9560   7.9560   8.6911   8.6911   9.0956   9.0956   9.2009   9.2009
     9.2743   9.2743   9.3967   9.3967   9.8124   9.8124  10.1895  10.1895
    10.5484  10.5486  10.9345  10.9346  10.9989  10.9990  11.1210  11.1215
    11.4944  11.4946  11.6025  11.6028  11.8686  11.8687  11.9775  11.9776
    12.3503  12.3504  12.3919  12.3919  12.6003  12.6003  12.7415  12.7419
    13.1379  13.1379  13.3423  13.3423  13.4309  13.4309  13.7675  13.7677
    14.2447  14.2447  14.4128  14.4129  14.7420  14.7420  14.8233  14.8234
    14.8589  14.8589  14.8612  14.8612  15.3232  15.3232  15.4297  15.4298
    15.4636  15.4636  15.4877  15.4877  15.8262  15.8262  15.9820  15.9821
    16.4539  16.4540  16.5183  16.5183  16.8812  16.8812  16.9673  16.9673
    17.0284  17.0284  17.2152  17.2152  17.3430  17.3430  17.4357  17.4357
    17.7994  17.7995  17.9724  17.9725  18.3268  18.3268  18.5556  18.5557
    18.7852  18.7852  18.9281  18.9281  19.4903  19.4903  19.6617  19.6617

     occupation numbers 
     1.0000   1.0000   1.0000   1.0000   1.0000   1.0000   1.0000   1.0000
     1.0000   1.0000   1.0000   1.0000   1.0000   1.0000   1.0000   1.0000
     1.0000   1.0000   1.0000   1.0000   1.0000   1.0000   1.0000   1.0000
     1.0000   1.0000   1.0000   1.0000   1.0000   1.0000   1.0000   1.0000
     1.0000   1.0000   1.0000   1.0000   1.0000   1.0000   1.0000   1.0000
     1.0000   1.0000   1.0000   1.0000   1.0000   1.0000   1.0000   1.0000
     1.0000   1.0000   1.0000   1.0000   1.0000   1.0000   1.0000   1.0000
     1.0000   1.0000   1.0000   1.0000   1.0000   1.0000   1.0000   1.0000
     1.0000   1.0000   1.0000   1.0000   1.0000   1.0000   1.0000   1.0000
     1.0000   1.0000   1.0000   1.0000   1.0000   1.0000   1.0000   1.0000
     0.0000   0.0000   0.0000   0.0000   0.0000   0.0000   0.0000   0.0000
     0.0000   0.0000   0.0000   0.0000   0.0000   0.0000   0.0000   0.0000
     0.0000   0.0000   0.0000   0.0000   0.0000   0.0000   0.0000   0.0000
     0.0000   0.0000   0.0000   0.0000   0.0000   0.0000   0.0000   0.0000
     0.0000   0.0000   0.0000   0.0000   0.0000   0.0000   0.0000   0.0000
     0.0000   0.0000   0.0000   0.0000   0.0000   0.0000   0.0000   0.0000
     0.0000   0.0000   0.0000   0.0000   0.0000   0.0000   0.0000   0.0000
     0.0000   0.0000   0.0000   0.0000   0.0000   0.0000   0.0000   0.0000
     0.0000   0.0000   0.0000   0.0000   0.0000   0.0000   0.0000   0.0000
     0.0000   0.0000   0.0000   0.0000   0.0000   0.0000   0.0000   0.0000
     0.0000   0.0000   0.0000   0.0000   0.0000   0.0000   0.0000   0.0000
     0.0000   0.0000   0.0000   0.0000   0.0000   0.0000   0.0000   0.0000
     0.0000   0.0000   0.0000   0.0000   0.0000   0.0000   0.0000   0.0000
     0.0000   0.0000   0.0000   0.0000   0.0000   0.0000   0.0000   0.0000
     0.0000   0.0000   0.0000   0.0000   0.0000   0.0000   0.0000   0.0000

     highest occupied, lowest unoccupied level (ev):     2.7047    3.7825

!    total energy              =   -4067.26415824 Ry

     total all-electron energy =   -105225.095414 Ry
     estimated scf accuracy    <          9.0E-09 Ry

     The total energy is the sum of the following terms:
     one-electron contribution =  -10142.15379748 Ry
     hartree contribution      =    5150.62493055 Ry
     xc contribution           =    -425.56276669 Ry
     ewald contribution        =    3966.43667394 Ry
     one-center paw contrib.   =   -2616.60919857 Ry
      -> PAW hartree energy AE =     218.67680564 Ry
      -> PAW hartree energy PS =    -217.16572761 Ry
      -> PAW xc energy AE      =    -658.03563553 Ry
      -> PAW xc energy PS      =      94.64057578 Ry
      -> total E_H with PAW    =    5152.13600857 Ry
      -> total E_XC with PAW   =    -988.95782644 Ry

     convergence has been achieved in  14 iterations

     negative rho (up, down):  1.101E-03 0.000E+00

     Forces acting on atoms (cartesian axes, Ry/au):

     atom    1 type  1   force =     0.00000000    0.00509065   -0.00713596
     atom    2 type  1   force =     0.00000000   -0.00658589    0.00493157
     atom    3 type  1   force =     0.00000000    0.00499288    0.00693390
     atom    4 type  1   force =     0.00000000   -0.00714234   -0.00141003
     atom    5 type  2   force =     0.00000000    0.00799963    0.00009009
     atom    6 type  2   force =     0.00000000   -0.00576458   -0.00549221
     atom    7 type  2   force =     0.00000000    0.00642058   -0.00366211
     atom    8 type  2   force =     0.00000000   -0.00595734    0.00551475
     atom    9 type  1   force =     0.00000000    0.00658424   -0.00492746
     atom   10 type  1   force =     0.00000000   -0.00509222    0.00713756
     atom   11 type  1   force =     0.00000000    0.00714174    0.00140924
     atom   12 type  1   force =     0.00000000   -0.00499110   -0.00694018
     atom   13 type  2   force =     0.00000000    0.00576511    0.00549332
     atom   14 type  2   force =     0.00000000   -0.00799909   -0.00009091
     atom   15 type  2   force =     0.00000000    0.00595765   -0.00551375
     atom   16 type  2   force =     0.00000000   -0.00641992    0.00366218
     The non-local contrib.  to forces
     atom    1 type  1   force =     0.00000000   -0.31443969    0.37537249
     atom    2 type  1   force =     0.00000000    0.31494341   -0.38109621
     atom    3 type  1   force =     0.00000000   -0.31635433   -0.37409751
     atom    4 type  1   force =     0.00000000    0.31050764    0.46348381
     atom    5 type  2   force =     0.00000000   -0.08758437   -0.09638252
     atom    6 type  2   force =     0.00000000    0.09042383    0.08585392
     atom    7 type  2   force =     0.00000000   -0.09049781    0.09947932
     atom    8 type  2   force =     0.00000000    0.09071068   -0.08562711
     atom    9 type  1   force =     0.00000000   -0.31494565    0.38109414
     atom   10 type  1   force =     0.00000000    0.31443839   -0.37537518
     atom   11 type  1   force =     0.00000000   -0.31050929   -0.46348220
     atom   12 type  1   force =     0.00000000    0.31635545    0.37409566
     atom   13 type  2   force =     0.00000000   -0.09042431   -0.08585417
     atom   14 type  2   force =     0.00000000    0.08758455    0.09638100
     atom   15 type  2   force =     0.00000000   -0.09071083    0.08562750
     atom   16 type  2   force =     0.00000000    0.09049788   -0.09948045
     The ionic contribution  to forces
     atom    1 type  1   force =     0.00000000    1.33264173  -69.11719953
     atom    2 type  1   force =     0.00000000   -1.30931131 -105.36729517
     atom    3 type  1   force =    -0.00000000    1.33253407  -18.11814746
     atom    4 type  1   force =     0.00000000   -2.29845630 -155.23756775
     atom    5 type  2   force =     0.00000000    1.91858652  -46.60718947
     atom    6 type  2   force =    -0.00000000   -1.93281329  -28.16816270
     atom    7 type  2   force =     0.00000000    2.28934961  -65.49082118
     atom    8 type  2   force =    -0.00000000   -1.93269930   -9.21874811
     atom    9 type  1   force =     0.00000000    1.30931180  105.36729738
     atom   10 type  1   force =    -0.00000000   -1.33264172   69.11720174
     atom   11 type  1   force =    -0.00000000    2.29845678  155.23756115
     atom   12 type  1   force =     0.00000000   -1.33253407   18.11814965
     atom   13 type  2   force =     0.00000000    1.93281329   28.16816365
     atom   14 type  2   force =    -0.00000000   -1.91858701   46.60719091
     atom   15 type  2   force =     0.00000000    1.93269930    9.21874905
     atom   16 type  2   force =    -0.00000000   -2.28935009   65.49081786
     The local contribution  to forces
     atom    1 type  1   force =    -0.00000000   -1.01272714   68.73396060
     atom    2 type  1   force =     0.00000000    0.98738029  105.75342827
     atom    3 type  1   force =     0.00000000   -1.01083689   18.49966584
     atom    4 type  1   force =     0.00000000    1.97925800  154.77248535
     atom    5 type  2   force =    -0.00000000   -1.82410427   46.70196523
     atom    6 type  2   force =    -0.00000000    1.83780067   28.07807784
     atom    7 type  2   force =     0.00000000   -2.19354467   65.38920080
     atom    8 type  2   force =    -0.00000000    1.83721373    9.30853811
     atom    9 type  1   force =     0.00000000   -0.98738433 -105.75344233
     atom   10 type  1   force =     0.00000000    1.01272852  -68.73396270
     atom   11 type  1   force =     0.00000000   -1.97925784 -154.77248626
     atom   12 type  1   force =    -0.00000000    1.01083933  -18.49966577
     atom   13 type  2   force =    -0.00000000   -1.83780000  -28.07807662
     atom   14 type  2   force =     0.00000000    1.82410471  -46.70197343
     atom   15 type  2   force =    -0.00000000   -1.83721370   -9.30853877
     atom   16 type  2   force =     0.00000000    2.19354531  -65.38920112
     The core correction contribution to forces
     atom    1 type  1   force =    -0.00000000   -0.00038519    0.00054530
     atom    2 type  1   force =    -0.00000000    0.00038443   -0.00033318
     atom    3 type  1   force =     0.00000000   -0.00034094   -0.00052732
     atom    4 type  1   force =    -0.00000000    0.00155338   -0.00003669
     atom    5 type  2   force =     0.00000000    0.00110857    0.00159236
     atom    6 type  2   force =     0.00000000   -0.00117834   -0.00132743
     atom    7 type  2   force =     0.00000000    0.00111206   -0.00160288
     atom    8 type  2   force =     0.00000000   -0.00118717    0.00132120
     atom    9 type  1   force =     0.00000000   -0.00038470    0.00033355
     atom   10 type  1   force =    -0.00000000    0.00038535   -0.00054591
     atom   11 type  1   force =     0.00000000   -0.00155351    0.00003576
     atom   12 type  1   force =     0.00000000    0.00034110    0.00052732
     atom   13 type  2   force =     0.00000000    0.00117836    0.00132745
     atom   14 type  2   force =     0.00000000   -0.00110858   -0.00159237
     atom   15 type  2   force =    -0.00000000    0.00118717   -0.00132121
     atom   16 type  2   force =    -0.00000000   -0.00111206    0.00160290
     The Hubbard contrib.    to forces
     atom    1 type  1   force =     0.00000000    0.00000000    0.00000000
     atom    2 type  1   force =     0.00000000    0.00000000    0.00000000
     atom    3 type  1   force =     0.00000000    0.00000000    0.00000000
     atom    4 type  1   force =     0.00000000    0.00000000    0.00000000
     atom    5 type  2   force =     0.00000000    0.00000000    0.00000000
     atom    6 type  2   force =     0.00000000    0.00000000    0.00000000
     atom    7 type  2   force =     0.00000000    0.00000000    0.00000000
     atom    8 type  2   force =     0.00000000    0.00000000    0.00000000
     atom    9 type  1   force =     0.00000000    0.00000000    0.00000000
     atom   10 type  1   force =     0.00000000    0.00000000    0.00000000
     atom   11 type  1   force =     0.00000000    0.00000000    0.00000000
     atom   12 type  1   force =     0.00000000    0.00000000    0.00000000
     atom   13 type  2   force =     0.00000000    0.00000000    0.00000000
     atom   14 type  2   force =     0.00000000    0.00000000    0.00000000
     atom   15 type  2   force =     0.00000000    0.00000000    0.00000000
     atom   16 type  2   force =     0.00000000    0.00000000    0.00000000
     The SCF correction term to forces
     atom    1 type  1   force =     0.00000000    0.00000073    0.00018472
     atom    2 type  1   force =    -0.00000000    0.00001708    0.00022741
     atom    3 type  1   force =     0.00000000   -0.00000923    0.00003989
     atom    4 type  1   force =    -0.00000000   -0.00000525    0.00022479
     atom    5 type  2   force =     0.00000000   -0.00000702    0.00010404
     atom    6 type  2   force =     0.00000000    0.00000236    0.00006571
     atom    7 type  2   force =     0.00000000    0.00000120    0.00008137
     atom    8 type  2   force =     0.00000000    0.00000453    0.00003021
     atom    9 type  1   force =    -0.00000000   -0.00001307   -0.00021065
     atom   10 type  1   force =    -0.00000000   -0.00000296   -0.00018085
     atom   11 type  1   force =    -0.00000000    0.00000541   -0.00021966
     atom   12 type  1   force =     0.00000000    0.00000689   -0.00004751
     atom   13 type  2   force =     0.00000000   -0.00000243   -0.00006743
     atom   14 type  2   force =     0.00000000    0.00000705   -0.00009748
     atom   15 type  2   force =     0.00000000   -0.00000448   -0.00003079
     atom   16 type  2   force =     0.00000000   -0.00000114   -0.00007747

     Total force =     0.032202     Total SCF correction =     0.000557


     Computing stress (Cartesian axis) and pressure


     negative rho (up, down):  1.101E-03 0.000E+00
          total   stress  (Ry/bohr**3)                   (kbar)     P=        6.06
   0.00005645   0.00000000   0.00000000            8.30        0.00        0.00
   0.00000000   0.00003526   0.00000081            0.00        5.19        0.12
   0.00000000   0.00000081   0.00003191            0.00        0.12        4.69

     kinetic stress (kbar)  10932.83      0.00      0.00
                                0.00  10973.40      0.80
                                0.00      0.80  10977.32

     local   stress (kbar)-311996.51     -0.00     -0.00
                               -0.00-309547.93    142.30
                               -0.00    142.30 308860.22

     nonloc. stress (kbar)  -1845.54      0.00      0.00
                                0.00  -1852.33     -0.41
                                0.00     -0.41  -1835.02

     hartree stress (kbar) 158403.20      0.00      0.00
                                0.00 157431.98    -60.61
                                0.00    -60.61-150157.16

     exc-cor stress (kbar)   5175.33     -0.00      0.00
                               -0.00   5174.48      0.02
                                0.00      0.02   5174.48

     corecor stress (kbar)  -7812.29      0.00     -0.00
                                0.00  -7812.17      0.03
                               -0.00      0.03  -7812.84

     ewald   stress (kbar) 147151.28      0.00      0.00
                                0.00 145637.76    -82.02
                                0.00    -82.02-165202.31

     hubbard stress (kbar)      0.00      0.00      0.00
                                0.00      0.00      0.00
                                0.00      0.00      0.00

     DFT-D   stress (kbar)      0.00      0.00      0.00
                                0.00      0.00      0.00
                                0.00      0.00      0.00

     XDM     stress (kbar)      0.00      0.00      0.00
                                0.00      0.00      0.00
                                0.00      0.00      0.00

     dft-nl  stress (kbar)      0.00      0.00      0.00
                                0.00      0.00      0.00
                                0.00      0.00      0.00

     TS-vdW  stress (kbar)      0.00      0.00      0.00
                                0.00      0.00      0.00
                                0.00      0.00      0.00


                                0.00      0.00      0.00
                                0.00      0.00      0.00


                                0.00      0.00      0.00


     Writing all to output data dir ./bi/sns.save/

     init_run     :     25.06s CPU     14.84s WALL (       1 calls)
     electrons    :   1175.48s CPU    671.47s WALL (       1 calls)
     forces       :     15.03s CPU      9.43s WALL (       1 calls)
     stress       :     74.12s CPU     43.73s WALL (       1 calls)

     Called by init_run:
     wfcinit      :     19.96s CPU     11.38s WALL (       1 calls)
     wfcinit:atom :      0.16s CPU      0.09s WALL (      16 calls)
     wfcinit:wfcr :     18.93s CPU     10.82s WALL (      16 calls)
     potinit      :      1.54s CPU      0.95s WALL (       1 calls)
     hinit0       :      2.15s CPU      1.59s WALL (       1 calls)

     Called by electrons:
     c_bands      :   1005.21s CPU    565.90s WALL (      15 calls)
     sum_band     :    147.06s CPU     90.77s WALL (      15 calls)
     v_of_rho     :      3.02s CPU      1.83s WALL (      15 calls)
     v_h          :      0.28s CPU      0.16s WALL (      15 calls)
     v_xc         :      3.13s CPU      1.90s WALL (      17 calls)
     newd         :     16.69s CPU     10.81s WALL (      15 calls)
     PAW_pot      :      4.05s CPU      2.38s WALL (      15 calls)
     mix_rho      :      0.53s CPU      0.39s WALL (      15 calls)

     Called by c_bands:
     init_us_2    :      7.12s CPU      4.00s WALL (     528 calls)
     init_us_2:cp :      7.11s CPU      4.00s WALL (     528 calls)
     cegterg      :    980.99s CPU    552.67s WALL (     240 calls)

     Called by sum_band:
     sum_band:wei :      0.00s CPU      0.00s WALL (      15 calls)
     sum_band:loo :    123.19s CPU     72.85s WALL (      15 calls)
     sum_band:buf :      1.89s CPU      1.05s WALL (     240 calls)
     sum_band:ini :      2.60s CPU      1.44s WALL (     240 calls)
     sum_band:cal :     23.93s CPU     12.92s WALL (     240 calls)
     sum_band:bec :      6.85s CPU      3.62s WALL (     240 calls)
     addusdens    :     20.26s CPU     14.93s WALL (      15 calls)
     addusd:skk   :      0.23s CPU      0.18s WALL (      30 calls)
     addusd:dgemm :      5.96s CPU      6.47s WALL (      30 calls)
     addusd:qvan2 :     13.48s CPU      7.64s WALL (      30 calls)

     Called by *egterg:
     cdiaghg      :     71.65s CPU     38.16s WALL (    1298 calls)
     cegterg:over :    113.90s CPU     63.39s WALL (    1074 calls)
     cegterg:upda :     70.02s CPU     39.09s WALL (    1074 calls)
     cegterg:last :    104.95s CPU     57.10s WALL (     443 calls)
     cdiaghg:chol :      4.55s CPU      2.54s WALL (    1298 calls)
     cdiaghg:inve :      0.94s CPU      0.56s WALL (    1298 calls)
     cdiaghg:para :     15.20s CPU      8.29s WALL (    2596 calls)
     h_psi        :    512.69s CPU    294.98s WALL (    1330 calls)
     s_psi        :     43.73s CPU     24.29s WALL (    1330 calls)
     g_psi        :      7.08s CPU      3.81s WALL (    1074 calls)

     Called by h_psi:
     h_psi:calbec :     74.11s CPU     40.59s WALL (    1330 calls)
     vloc_psi     :    381.28s CPU    221.64s WALL (    1330 calls)
     add_vuspsi   :     46.71s CPU     26.37s WALL (    1330 calls)

     General routines
     calbec       :    115.21s CPU     65.71s WALL (    1650 calls)
     fft          :      3.00s CPU      2.04s WALL (     219 calls)
     ffts         :      1.46s CPU      0.85s WALL (      30 calls)
     fftw         :    420.52s CPU    247.78s WALL (  271000 calls)
     interpolate  :      0.45s CPU      0.34s WALL (      15 calls)

     Parallel routines

     PAW routines
     PAW_pot      :      4.05s CPU      2.38s WALL (      15 calls)
     PAW_symme    :      0.07s CPU      0.04s WALL (      30 calls)

     PWSCF        :  21m30.19s CPU  12m20.70s WALL


   This run was terminated on:   3:52: 3   3Jul2025            

=------------------------------------------------------------------------------=
   JOB DONE.
=------------------------------------------------------------------------------=
