
     Program PWSCF v.7.0 starts on  3Jul2025 at  4:40:43 

     This program is part of the open-source Quantum ESPRESSO suite
     for quantum simulation of materials; please cite
         "P. Giannozzi et al., J. Phys.:Condens. Matter 21 395502 (2009);
         "P. Giannozzi et al., J. Phys.:Condens. Matter 29 465901 (2017);
         "P. Giannozzi et al., J. Chem. Phys. 152 154105 (2020);
          URL http://www.quantum-espresso.org", 
     in publications or presentations arising from this work. More details at
     http://www.quantum-espresso.org/quote

     Parallel version (MPI & OpenMP), running on      16 processor cores
     Number of MPI processes:                 8
     Threads/MPI process:                     2

     MPI processes distributed on     1 nodes
     R & G space division:  proc/nbgrp/npool/nimage =       8
     3060 MiB available memory on the printing compute node when the environment starts

     Waiting for input...
     Reading input from standard input

     Current dimensions of program PWSCF are:
     Max number of different atomic species (ntypx) = 10
     Max number of k-points (npk) =  40000
     Max angular momentum in pseudopotentials (lmaxx) =  4

     Atomic positions and unit cell read from directory:
     ./bi/sns.save/
     Atomic positions from file used, from input discarded

     file Sn.pbe-dn-kjpaw_psl.1.0.0.UPF: wavefunction(s)  5S 5P 4D renormalized
     file S.pbe-n-kjpaw_psl.1.0.0.UPF: wavefunction(s)  3S 3P renormalized

     IMPORTANT: XC functional enforced from input :
     Exchange-correlation= PBE
                           (   1   4   3   4   0   0   0)
     Any further DFT definition will be discarded
     Please, verify this is what you really want

     Message from routine setup:
     using ibrav=0 with symmetry is DISCOURAGED, use correct ibrav instead

     Subspace diagonalization in iterative solution of the eigenvalue problem:
     one sub-group per band group will be used
     scalapack distributed-memory algorithm (size of sub-group:  2*  2 procs)


     Parallelization info
     --------------------
     sticks:   dense  smooth     PW     G-vecs:    dense   smooth      PW
     Min         255     126     36                77229    27276    4270
     Max         256     127     37                77252    27307    4285
     Sum        2045    1015    295               617895   218323   34251

     Using Slab Decomposition



     bravais-lattice index     =            0
     lattice parameter (alat)  =       7.4774  a.u.
     unit-cell volume          =    4573.2264 (a.u.)^3
     number of atoms/cell      =           16
     number of atomic types    =            2
     number of electrons       =       160.00
     number of Kohn-Sham states=          200
     kinetic-energy cutoff     =      50.0000  Ry
     charge density cutoff     =     400.0000  Ry
     Exchange-correlation= PBE
                           (   1   4   3   4   0   0   0)

     celldm(1)=   7.477373  celldm(2)=   0.000000  celldm(3)=   0.000000
     celldm(4)=   0.000000  celldm(5)=   0.000000  celldm(6)=   0.000000

     crystal axes: (cart. coord. in units of alat)
               a(1) = (   1.000000   0.000000   0.000000 )  
               a(2) = (   0.000000   1.145559   0.000000 )  
               a(3) = (   0.000000   0.000000   9.549007 )  

     reciprocal axes: (cart. coord. in units 2 pi/alat)
               b(1) = (  1.000000  0.000000  0.000000 )  
               b(2) = (  0.000000  0.872936  0.000000 )  
               b(3) = (  0.000000  0.000000  0.104723 )  


     PseudoPot. # 1 for Sn read from file:
     ./Sn.pbe-dn-kjpaw_psl.1.0.0.UPF
     MD5 check sum: 2f92149585f6306fdaeeb1c6304ac66c
     Pseudo is Projector augmented-wave + core cor, Zval = 14.0
     Generated using &quot;atomic&quot; code by A. Dal Corso  v.6.3
     Shape of augmentation charge: PSQ
     Using radial grid of 1243 points,  6 beta functions with: 
                l(1) =   0
                l(2) =   0
                l(3) =   1
                l(4) =   1
                l(5) =   2
                l(6) =   2
     Q(r) pseudized with 0 coefficients 


     PseudoPot. # 2 for S  read from file:
     ./S.pbe-n-kjpaw_psl.1.0.0.UPF
     MD5 check sum: 3ec093b2a8bef16a6eea98fa2dbb72c3
     Pseudo is Projector augmented-wave + core cor, Zval =  6.0
     Generated using &quot;atomic&quot; code by A. Dal Corso  v.6.3
     Shape of augmentation charge: PSQ
     Using radial grid of 1151 points,  6 beta functions with: 
                l(1) =   0
                l(2) =   0
                l(3) =   1
                l(4) =   1
                l(5) =   2
                l(6) =   2
     Q(r) pseudized with 0 coefficients 


     atomic species   valence    mass     pseudopotential
        Sn            14.00   118.71000     Sn( 1.00)
        S              6.00    32.06500     S ( 1.00)

      2 Sym. Ops. (no inversion) found ( 1 have fractional translation)


                                    s                        frac. trans.

      isym =  1     identity                                     

 cryst.   s( 1) = (     1          0          0      )
                  (     0          1          0      )
                  (     0          0          1      )

 cart.    s( 1) = (  1.0000000  0.0000000  0.0000000 )
                  (  0.0000000  1.0000000  0.0000000 )
                  (  0.0000000  0.0000000  1.0000000 )


      isym =  2     inv. 180 deg rotation - cart. axis [1,0,0]   

 cryst.   s( 2) = (    -1          0          0      )    f =(  0.5000000 )
                  (     0          1          0      )       (  0.0000000 )
                  (     0          0          1      )       (  0.0000000 )

 cart.    s( 2) = ( -1.0000000  0.0000000  0.0000000 )    f =(  0.5000000 )
                  (  0.0000000  1.0000000  0.0000000 )       (  0.0000000 )
                  (  0.0000000  0.0000000  1.0000000 )       (  0.0000000 )


   Cartesian axes

     site n.     atom                  positions (alat units)
         1           Sn  tau(   1) = (   0.2500000   0.4233297   1.7897171  )
         2           Sn  tau(   2) = (   0.7500000   0.7222292   1.0893415  )
         3           Sn  tau(   3) = (   0.7500000   0.9961091   2.5288709  )
         4           Sn  tau(   4) = (   0.2500000   0.1494498   0.3501879  )
         5           S   tau(   5) = (   0.2500000   0.0121393   1.0004656  )
         6           S   tau(   6) = (   0.7500000   1.1334196   1.8785931  )
         7           S   tau(   7) = (   0.7500000   0.5849187   0.4390638  )
         8           S   tau(   8) = (   0.2500000   0.5606402   2.4399950  )
         9           Sn  tau(   9) = (   0.2500000   0.4233297   4.6687759  )
        10           Sn  tau(  10) = (   0.7500000   0.7222292   3.9684003  )
        11           Sn  tau(  11) = (   0.7500000   0.9961091   5.4079297  )
        12           Sn  tau(  12) = (   0.2500000   0.1494498   3.2292465  )
        13           S   tau(  13) = (   0.2500000   0.0121393   3.8795243  )
        14           S   tau(  14) = (   0.7500000   1.1334196   4.7576518  )
        15           S   tau(  15) = (   0.7500000   0.5849187   3.3181225  )
        16           S   tau(  16) = (   0.2500000   0.5606402   5.3190537  )

   Crystallographic axes

     site n.     atom                  positions (cryst. coord.)
         1           Sn  tau(   1) = (  0.2500000  0.3695398  0.1874244  )
         2           Sn  tau(   2) = (  0.7500000  0.6304602  0.1140790  )
         3           Sn  tau(   3) = (  0.7500000  0.8695398  0.2648308  )
         4           Sn  tau(   4) = (  0.2500000  0.1304602  0.0366727  )
         5           S   tau(   5) = (  0.2500000  0.0105968  0.1047717  )
         6           S   tau(   6) = (  0.7500000  0.9894032  0.1967318  )
         7           S   tau(   7) = (  0.7500000  0.5105968  0.0459801  )
         8           S   tau(   8) = (  0.2500000  0.4894032  0.2555234  )
         9           Sn  tau(   9) = (  0.2500000  0.3695398  0.4889279  )
        10           Sn  tau(  10) = (  0.7500000  0.6304602  0.4155825  )
        11           Sn  tau(  11) = (  0.7500000  0.8695398  0.5663343  )
        12           Sn  tau(  12) = (  0.2500000  0.1304602  0.3381762  )
        13           S   tau(  13) = (  0.2500000  0.0105968  0.4062752  )
        14           S   tau(  14) = (  0.7500000  0.9894032  0.4982353  )
        15           S   tau(  15) = (  0.7500000  0.5105968  0.3474835  )
        16           S   tau(  16) = (  0.2500000  0.4894032  0.5570269  )

     number of k points=    61
                       cart. coord. in units 2pi/alat
        k(    1) = (   0.0000000   0.0000000   0.0000000), wk =   0.0327869
        k(    2) = (   0.0250000   0.0000000   0.0000000), wk =   0.0327869
        k(    3) = (   0.0500000   0.0000000   0.0000000), wk =   0.0327869
        k(    4) = (   0.0750000   0.0000000   0.0000000), wk =   0.0327869
        k(    5) = (   0.1000000   0.0000000   0.0000000), wk =   0.0327869
        k(    6) = (   0.1250000   0.0000000   0.0000000), wk =   0.0327869
        k(    7) = (   0.1500000   0.0000000   0.0000000), wk =   0.0327869
        k(    8) = (   0.1750000   0.0000000   0.0000000), wk =   0.0327869
        k(    9) = (   0.2000000   0.0000000   0.0000000), wk =   0.0327869
        k(   10) = (   0.2250000   0.0000000   0.0000000), wk =   0.0327869
        k(   11) = (   0.2500000   0.0000000   0.0000000), wk =   0.0327869
        k(   12) = (   0.2750000   0.0000000   0.0000000), wk =   0.0327869
        k(   13) = (   0.3000000   0.0000000   0.0000000), wk =   0.0327869
        k(   14) = (   0.3250000   0.0000000   0.0000000), wk =   0.0327869
        k(   15) = (   0.3500000   0.0000000   0.0000000), wk =   0.0327869
        k(   16) = (   0.3750000   0.0000000   0.0000000), wk =   0.0327869
        k(   17) = (   0.4000000   0.0000000   0.0000000), wk =   0.0327869
        k(   18) = (   0.4250000   0.0000000   0.0000000), wk =   0.0327869
        k(   19) = (   0.4500000   0.0000000   0.0000000), wk =   0.0327869
        k(   20) = (   0.4750000   0.0000000   0.0000000), wk =   0.0327869
        k(   21) = (   0.5000000   0.0000000   0.0000000), wk =   0.0327869
        k(   22) = (   0.5000000   0.0218234   0.0000000), wk =   0.0327869
        k(   23) = (   0.5000000   0.0436468   0.0000000), wk =   0.0327869
        k(   24) = (   0.5000000   0.0654702   0.0000000), wk =   0.0327869
        k(   25) = (   0.5000000   0.0872936   0.0000000), wk =   0.0327869
        k(   26) = (   0.5000000   0.1091170   0.0000000), wk =   0.0327869
        k(   27) = (   0.5000000   0.1309405   0.0000000), wk =   0.0327869
        k(   28) = (   0.5000000   0.1527639   0.0000000), wk =   0.0327869
        k(   29) = (   0.5000000   0.1745873   0.0000000), wk =   0.0327869
        k(   30) = (   0.5000000   0.1964107   0.0000000), wk =   0.0327869
        k(   31) = (   0.5000000   0.2182341   0.0000000), wk =   0.0327869
        k(   32) = (   0.5000000   0.2400575   0.0000000), wk =   0.0327869
        k(   33) = (   0.5000000   0.2618809   0.0000000), wk =   0.0327869
        k(   34) = (   0.5000000   0.2837043   0.0000000), wk =   0.0327869
        k(   35) = (   0.5000000   0.3055277   0.0000000), wk =   0.0327869
        k(   36) = (   0.5000000   0.3273511   0.0000000), wk =   0.0327869
        k(   37) = (   0.5000000   0.3491745   0.0000000), wk =   0.0327869
        k(   38) = (   0.5000000   0.3709979   0.0000000), wk =   0.0327869
        k(   39) = (   0.5000000   0.3928214   0.0000000), wk =   0.0327869
        k(   40) = (   0.5000000   0.4146448   0.0000000), wk =   0.0327869
        k(   41) = (   0.5000000   0.4364682   0.0000000), wk =   0.0327869
        k(   42) = (   0.4750000   0.4146448   0.0000000), wk =   0.0327869
        k(   43) = (   0.4500000   0.3928214   0.0000000), wk =   0.0327869
        k(   44) = (   0.4250000   0.3709979   0.0000000), wk =   0.0327869
        k(   45) = (   0.4000000   0.3491745   0.0000000), wk =   0.0327869
        k(   46) = (   0.3750000   0.3273511   0.0000000), wk =   0.0327869
        k(   47) = (   0.3500000   0.3055277   0.0000000), wk =   0.0327869
        k(   48) = (   0.3250000   0.2837043   0.0000000), wk =   0.0327869
        k(   49) = (   0.3000000   0.2618809   0.0000000), wk =   0.0327869
        k(   50) = (   0.2750000   0.2400575   0.0000000), wk =   0.0327869
        k(   51) = (   0.2500000   0.2182341   0.0000000), wk =   0.0327869
        k(   52) = (   0.2250000   0.1964107   0.0000000), wk =   0.0327869
        k(   53) = (   0.2000000   0.1745873   0.0000000), wk =   0.0327869
        k(   54) = (   0.1750000   0.1527639   0.0000000), wk =   0.0327869
        k(   55) = (   0.1500000   0.1309405   0.0000000), wk =   0.0327869
        k(   56) = (   0.1250000   0.1091170   0.0000000), wk =   0.0327869
        k(   57) = (   0.1000000   0.0872936   0.0000000), wk =   0.0327869
        k(   58) = (   0.0750000   0.0654702   0.0000000), wk =   0.0327869
        k(   59) = (   0.0500000   0.0436468   0.0000000), wk =   0.0327869
        k(   60) = (   0.0250000   0.0218234   0.0000000), wk =   0.0327869
        k(   61) = (   0.0000000   0.0000000   0.0000000), wk =   0.0327869

                       cryst. coord.
        k(    1) = (   0.0000000   0.0000000   0.0000000), wk =   0.0327869
        k(    2) = (   0.0250000   0.0000000   0.0000000), wk =   0.0327869
        k(    3) = (   0.0500000   0.0000000   0.0000000), wk =   0.0327869
        k(    4) = (   0.0750000   0.0000000   0.0000000), wk =   0.0327869
        k(    5) = (   0.1000000   0.0000000   0.0000000), wk =   0.0327869
        k(    6) = (   0.1250000   0.0000000   0.0000000), wk =   0.0327869
        k(    7) = (   0.1500000   0.0000000   0.0000000), wk =   0.0327869
        k(    8) = (   0.1750000   0.0000000   0.0000000), wk =   0.0327869
        k(    9) = (   0.2000000   0.0000000   0.0000000), wk =   0.0327869
        k(   10) = (   0.2250000   0.0000000   0.0000000), wk =   0.0327869
        k(   11) = (   0.2500000   0.0000000   0.0000000), wk =   0.0327869
        k(   12) = (   0.2750000   0.0000000   0.0000000), wk =   0.0327869
        k(   13) = (   0.3000000   0.0000000   0.0000000), wk =   0.0327869
        k(   14) = (   0.3250000   0.0000000   0.0000000), wk =   0.0327869
        k(   15) = (   0.3500000   0.0000000   0.0000000), wk =   0.0327869
        k(   16) = (   0.3750000   0.0000000   0.0000000), wk =   0.0327869
        k(   17) = (   0.4000000   0.0000000   0.0000000), wk =   0.0327869
        k(   18) = (   0.4250000   0.0000000   0.0000000), wk =   0.0327869
        k(   19) = (   0.4500000   0.0000000   0.0000000), wk =   0.0327869
        k(   20) = (   0.4750000   0.0000000   0.0000000), wk =   0.0327869
        k(   21) = (   0.5000000   0.0000000   0.0000000), wk =   0.0327869
        k(   22) = (   0.5000000   0.0250000   0.0000000), wk =   0.0327869
        k(   23) = (   0.5000000   0.0500000   0.0000000), wk =   0.0327869
        k(   24) = (   0.5000000   0.0750000   0.0000000), wk =   0.0327869
        k(   25) = (   0.5000000   0.1000000   0.0000000), wk =   0.0327869
        k(   26) = (   0.5000000   0.1250000   0.0000000), wk =   0.0327869
        k(   27) = (   0.5000000   0.1500000   0.0000000), wk =   0.0327869
        k(   28) = (   0.5000000   0.1750000   0.0000000), wk =   0.0327869
        k(   29) = (   0.5000000   0.2000000   0.0000000), wk =   0.0327869
        k(   30) = (   0.5000000   0.2250000   0.0000000), wk =   0.0327869
        k(   31) = (   0.5000000   0.2500000   0.0000000), wk =   0.0327869
        k(   32) = (   0.5000000   0.2750000   0.0000000), wk =   0.0327869
        k(   33) = (   0.5000000   0.3000000   0.0000000), wk =   0.0327869
        k(   34) = (   0.5000000   0.3250000   0.0000000), wk =   0.0327869
        k(   35) = (   0.5000000   0.3500000   0.0000000), wk =   0.0327869
        k(   36) = (   0.5000000   0.3750000   0.0000000), wk =   0.0327869
        k(   37) = (   0.5000000   0.4000000   0.0000000), wk =   0.0327869
        k(   38) = (   0.5000000   0.4250000   0.0000000), wk =   0.0327869
        k(   39) = (   0.5000000   0.4500000   0.0000000), wk =   0.0327869
        k(   40) = (   0.5000000   0.4750000   0.0000000), wk =   0.0327869
        k(   41) = (   0.5000000   0.5000000   0.0000000), wk =   0.0327869
        k(   42) = (   0.4750000   0.4750000   0.0000000), wk =   0.0327869
        k(   43) = (   0.4500000   0.4500000   0.0000000), wk =   0.0327869
        k(   44) = (   0.4250000   0.4250000   0.0000000), wk =   0.0327869
        k(   45) = (   0.4000000   0.4000000   0.0000000), wk =   0.0327869
        k(   46) = (   0.3750000   0.3750000   0.0000000), wk =   0.0327869
        k(   47) = (   0.3500000   0.3500000   0.0000000), wk =   0.0327869
        k(   48) = (   0.3250000   0.3250000   0.0000000), wk =   0.0327869
        k(   49) = (   0.3000000   0.3000000   0.0000000), wk =   0.0327869
        k(   50) = (   0.2750000   0.2750000   0.0000000), wk =   0.0327869
        k(   51) = (   0.2500000   0.2500000   0.0000000), wk =   0.0327869
        k(   52) = (   0.2250000   0.2250000   0.0000000), wk =   0.0327869
        k(   53) = (   0.2000000   0.2000000   0.0000000), wk =   0.0327869
        k(   54) = (   0.1750000   0.1750000   0.0000000), wk =   0.0327869
        k(   55) = (   0.1500000   0.1500000   0.0000000), wk =   0.0327869
        k(   56) = (   0.1250000   0.1250000   0.0000000), wk =   0.0327869
        k(   57) = (   0.1000000   0.1000000   0.0000000), wk =   0.0327869
        k(   58) = (   0.0750000   0.0750000   0.0000000), wk =   0.0327869
        k(   59) = (   0.0500000   0.0500000   0.0000000), wk =   0.0327869
        k(   60) = (   0.0250000   0.0250000   0.0000000), wk =   0.0327869
        k(   61) = (   0.0000000   0.0000000   0.0000000), wk =   0.0327869

     Dense  grid:   617895 G-vectors     FFT dimensions: (  48,  60, 480)

     Smooth grid:   218323 G-vectors     FFT dimensions: (  36,  40, 324)

     Dynamical RAM for                 wfc:      10.42 MB

     Dynamical RAM for     wfc (w. buffer):      10.42 MB

     Dynamical RAM for           str. fact:       2.36 MB

     Dynamical RAM for           local pot:       0.00 MB

     Dynamical RAM for          nlocal pot:      15.00 MB

     Dynamical RAM for                qrad:       3.21 MB

     Dynamical RAM for          rho,v,vnew:       7.49 MB

     Dynamical RAM for           G-vectors:       4.63 MB

     Dynamical RAM for          h,s,v(r/c):       1.83 MB

     Dynamical RAM for          <psi|beta>:       0.88 MB

     Dynamical RAM for                 psi:      20.83 MB

     Dynamical RAM for                hpsi:      20.83 MB

     Dynamical RAM for                spsi:      20.83 MB

     Dynamical RAM for      wfcinit/wfcrot:      21.75 MB

     Dynamical RAM for           addusdens:     228.62 MB

     Estimated static dynamical RAM per process >      53.23 MB

     Estimated max dynamical RAM per process >     281.85 MB

     Estimated total dynamical RAM >       2.20 GB

     The potential is recalculated from file :
     ./bi/sns.save/charge-density


     negative rho (up, down):  1.101E-03 0.000E+00
     Starting wfcs are  104 randomized atomic wfcs +   96 random wfcs
     Checking if some PAW data can be deallocated... 
       PAW data deallocated on    4 nodes for type:  1
       PAW data deallocated on    4 nodes for type:  2

     Band Structure Calculation
     Davidson diagonalization with overlap

     Computing kpt #:     1  of    61
     c_bands:  1 eigenvalues not converged
     total cpu time spent up to now is       32.4 secs

     Computing kpt #:     2  of    61
     total cpu time spent up to now is       54.9 secs

     Computing kpt #:     3  of    61
     total cpu time spent up to now is       78.6 secs

     Computing kpt #:     4  of    61
     c_bands:  1 eigenvalues not converged
     total cpu time spent up to now is      107.8 secs

     Computing kpt #:     5  of    61
     total cpu time spent up to now is      130.8 secs

     Computing kpt #:     6  of    61
     c_bands:  1 eigenvalues not converged
     total cpu time spent up to now is      160.4 secs

     Computing kpt #:     7  of    61
     total cpu time spent up to now is      185.0 secs

     Computing kpt #:     8  of    61
     c_bands:  1 eigenvalues not converged
     total cpu time spent up to now is      214.1 secs

     Computing kpt #:     9  of    61
     total cpu time spent up to now is      234.7 secs

     Computing kpt #:    10  of    61
     total cpu time spent up to now is      257.5 secs

     Computing kpt #:    11  of    61
     total cpu time spent up to now is      283.0 secs

     Computing kpt #:    12  of    61
     total cpu time spent up to now is      306.9 secs

     Computing kpt #:    13  of    61
     total cpu time spent up to now is      330.3 secs

     Computing kpt #:    14  of    61
     total cpu time spent up to now is      353.8 secs

     Computing kpt #:    15  of    61
     total cpu time spent up to now is      377.5 secs

     Computing kpt #:    16  of    61
     total cpu time spent up to now is      400.8 secs

     Computing kpt #:    17  of    61
     total cpu time spent up to now is      423.7 secs

     Computing kpt #:    18  of    61
     total cpu time spent up to now is      446.0 secs

     Computing kpt #:    19  of    61
     total cpu time spent up to now is      469.0 secs

     Computing kpt #:    20  of    61
     total cpu time spent up to now is      492.8 secs

     Computing kpt #:    21  of    61
     total cpu time spent up to now is      516.0 secs

     Computing kpt #:    22  of    61
     total cpu time spent up to now is      539.3 secs

     Computing kpt #:    23  of    61
     total cpu time spent up to now is      562.9 secs

     Computing kpt #:    24  of    61
     total cpu time spent up to now is      589.6 secs

     Computing kpt #:    25  of    61
     total cpu time spent up to now is      612.7 secs

     Computing kpt #:    26  of    61
     total cpu time spent up to now is      635.7 secs

     Computing kpt #:    27  of    61
     total cpu time spent up to now is      657.8 secs

     Computing kpt #:    28  of    61
     total cpu time spent up to now is      679.0 secs

     Computing kpt #:    29  of    61
     total cpu time spent up to now is      701.9 secs

     Computing kpt #:    30  of    61
     total cpu time spent up to now is      724.7 secs

     Computing kpt #:    31  of    61
     total cpu time spent up to now is      746.7 secs

     Computing kpt #:    32  of    61
     total cpu time spent up to now is      768.0 secs

     Computing kpt #:    33  of    61
     total cpu time spent up to now is      788.6 secs

     Computing kpt #:    34  of    61
     total cpu time spent up to now is      810.4 secs

     Computing kpt #:    35  of    61
     total cpu time spent up to now is      833.1 secs

     Computing kpt #:    36  of    61
     total cpu time spent up to now is      856.5 secs

     Computing kpt #:    37  of    61
     total cpu time spent up to now is      879.8 secs

     Computing kpt #:    38  of    61
     total cpu time spent up to now is      903.7 secs

     Computing kpt #:    39  of    61
     total cpu time spent up to now is      927.6 secs

     Computing kpt #:    40  of    61
     total cpu time spent up to now is      950.7 secs

     Computing kpt #:    41  of    61
     total cpu time spent up to now is      974.0 secs

     Computing kpt #:    42  of    61
     total cpu time spent up to now is      997.5 secs

     Computing kpt #:    43  of    61
     c_bands:  1 eigenvalues not converged
     total cpu time spent up to now is     1027.7 secs

     Computing kpt #:    44  of    61
     total cpu time spent up to now is     1053.7 secs

     Computing kpt #:    45  of    61
     total cpu time spent up to now is     1077.3 secs

     Computing kpt #:    46  of    61
     total cpu time spent up to now is     1101.5 secs

     Computing kpt #:    47  of    61
     total cpu time spent up to now is     1127.5 secs

     Computing kpt #:    48  of    61
     total cpu time spent up to now is     1151.1 secs

     Computing kpt #:    49  of    61
     total cpu time spent up to now is     1173.7 secs

     Computing kpt #:    50  of    61
     total cpu time spent up to now is     1196.8 secs

     Computing kpt #:    51  of    61
     total cpu time spent up to now is     1220.2 secs

     Computing kpt #:    52  of    61
     total cpu time spent up to now is     1243.2 secs

     Computing kpt #:    53  of    61
     total cpu time spent up to now is     1267.0 secs

     Computing kpt #:    54  of    61
     total cpu time spent up to now is     1290.7 secs

     Computing kpt #:    55  of    61
     total cpu time spent up to now is     1313.6 secs

     Computing kpt #:    56  of    61
     total cpu time spent up to now is     1337.1 secs

     Computing kpt #:    57  of    61
     total cpu time spent up to now is     1360.3 secs

     Computing kpt #:    58  of    61
     total cpu time spent up to now is     1385.3 secs

     Computing kpt #:    59  of    61
     c_bands:  1 eigenvalues not converged
     total cpu time spent up to now is     1414.4 secs

     Computing kpt #:    60  of    61
     total cpu time spent up to now is     1437.2 secs

     Computing kpt #:    61  of    61
     c_bands:  1 eigenvalues not converged
     total cpu time spent up to now is     1465.9 secs

     ethr =  6.25E-12,  avg # of iterations = 76.2

     total cpu time spent up to now is     1465.9 secs

     End of band structure calculation

          k = 0.0000 0.0000 0.0000 ( 27299 PWs)   bands (ev):

   -18.4497 -18.4431 -18.4301 -18.4276 -18.4214 -18.4213 -18.4198 -18.4171
   -18.4125 -18.4116 -18.4058 -18.4058 -18.3998 -18.3990 -18.3968 -18.3968
   -18.3899 -18.3891 -18.3890 -18.3823 -18.3814 -18.3771 -18.3759 -18.3757
   -18.3752 -18.3624 -18.3606 -18.3569 -18.3551 -18.3480 -18.3470 -18.3469
   -18.3391 -18.3389 -18.3352 -18.3352 -18.3277 -18.3275 -18.3237 -18.3237
   -10.8325 -10.7579 -10.6701 -10.6201  -9.5738  -9.4511  -9.3375  -9.2764
    -4.3459  -4.1576  -3.8858  -3.6381  -2.3308  -2.0037  -1.8478  -1.8000
    -1.7743  -1.5661  -1.1878  -0.7771  -0.6314  -0.4096  -0.3463  -0.3258
    -0.2677  -0.2234  -0.1967  -0.1557   0.6941   0.7266   0.7709   0.8183
     0.9323   0.9825   0.9974   1.4316   2.0612   2.2653   2.4322   2.4968
     4.0366   4.5187   5.2043   5.4396   5.4805   5.5227   5.6038   5.8434
     5.8857   6.0896   6.3503   6.6323   6.6678   6.8351   6.8700   6.9731
     7.1410   7.4486   7.4799   7.6491   7.8800   8.0904   8.1264   8.1935
     8.4792   8.6602   8.8000   8.9544   8.9934   9.0499   9.4333   9.5795
     9.8888  10.0232  10.1095  10.2213  10.3981  10.4996  10.6898  10.7719
    10.7791  10.9647  11.1259  11.1886  11.4772  11.4838  11.5317  11.5935
    11.6279  11.6565  11.9070  11.9288  12.0332  12.0547  12.5587  12.8208
    12.8344  12.9646  13.1984  13.3535  13.4713  13.5053  13.5290  13.6300
    13.6519  13.8293  13.8305  13.8734  13.9600  14.0873  14.2364  14.3602
    14.6074  14.6588  14.6971  14.9132  15.0599  15.2522  15.2732  15.4109
    15.4831  15.5677  15.6235  15.8459  15.9322  15.9973  16.0256  16.0687
    16.1905  16.3705  16.5212  16.5318  16.6608  16.7144  16.7729  16.9147
    16.9270  17.0080  17.0098  17.2171  17.2172  17.3695  17.5174  17.7975
    18.0709  18.0739  18.1286  18.1352  18.2505  18.2582  18.5405  18.6041
    18.8013  18.8587  19.1462  19.2216  19.3899  19.4559  19.4789  19.5490

          k = 0.0250 0.0000 0.0000 ( 27345 PWs)   bands (ev):

   -18.4495 -18.4430 -18.4299 -18.4275 -18.4213 -18.4212 -18.4199 -18.4172
   -18.4127 -18.4117 -18.4057 -18.4056 -18.3997 -18.3990 -18.3969 -18.3968
   -18.3900 -18.3892 -18.3892 -18.3823 -18.3815 -18.3772 -18.3758 -18.3757
   -18.3752 -18.3624 -18.3606 -18.3569 -18.3551 -18.3482 -18.3470 -18.3469
   -18.3392 -18.3390 -18.3352 -18.3351 -18.3278 -18.3276 -18.3237 -18.3236
   -10.8285 -10.7541 -10.6664 -10.6164  -9.5720  -9.4496  -9.3363  -9.2754
    -4.3495  -4.1615  -3.8904  -3.6439  -2.3335  -2.0137  -1.8618  -1.8174
    -1.7775  -1.5642  -1.1839  -0.7734  -0.6278  -0.4372  -0.3427  -0.3233
    -0.2755  -0.2147  -0.1818  -0.1620   0.6922   0.7273   0.7714   0.8096
     0.9324   0.9844   1.0061   1.4433   2.0624   2.2673   2.4321   2.4954
     4.0416   4.5232   5.2092   5.4546   5.4972   5.5380   5.6214   5.8502
     5.8952   6.0685   6.3335   6.6059   6.6697   6.8024   6.8760   6.9583
     7.1131   7.4152   7.4723   7.6696   7.9047   8.0620   8.1462   8.2142
     8.4529   8.6594   8.7791   8.9602   8.9662   9.0529   9.4283   9.5795
     9.8712   9.9850  10.0750  10.1713  10.3316  10.4405  10.6853  10.7084
    10.8716  10.9468  11.1471  11.1510  11.4891  11.5045  11.6107  11.6116
    11.6396  11.6588  11.9417  11.9659  12.0802  12.0905  12.5835  12.8271
    12.8558  12.9897  13.2088  13.3532  13.4366  13.5529  13.6045  13.6343
    13.6978  13.7933  13.8777  13.9306  13.9625  14.0926  14.2617  14.3567
    14.6024  14.6589  14.7505  14.9170  14.9877  15.1477  15.3147  15.3530
    15.4431  15.5283  15.7440  15.8126  15.8568  16.0130  16.0208  16.0873
    16.1697  16.3109  16.4183  16.5583  16.6233  16.7020  16.7730  16.8519
    16.9377  17.0485  17.1151  17.1331  17.3878  17.5483  17.5570  17.7430
    17.9747  18.0608  18.0753  18.1206  18.2573  18.2935  18.5885  18.7642
    18.7813  19.0517  19.1588  19.2269  19.2356  19.3369  19.5173  19.5485

          k = 0.0500 0.0000 0.0000 ( 27339 PWs)   bands (ev):

   -18.4490 -18.4425 -18.4294 -18.4270 -18.4209 -18.4208 -18.4201 -18.4175
   -18.4130 -18.4120 -18.4052 -18.4052 -18.3996 -18.3989 -18.3971 -18.3970
   -18.3902 -18.3895 -18.3894 -18.3823 -18.3816 -18.3773 -18.3758 -18.3755
   -18.3753 -18.3625 -18.3605 -18.3570 -18.3550 -18.3485 -18.3470 -18.3468
   -18.3393 -18.3392 -18.3350 -18.3349 -18.3281 -18.3279 -18.3235 -18.3235
   -10.8168 -10.7426 -10.6551 -10.6055  -9.5664  -9.4449  -9.3326  -9.2725
    -4.3600  -4.1731  -3.9044  -3.6614  -2.3424  -2.0444  -1.9044  -1.8687
    -1.7851  -1.5578  -1.1719  -0.7623  -0.6171  -0.4836  -0.3794  -0.3109
    -0.2688  -0.1964  -0.1805  -0.1494   0.6876   0.7280   0.7720   0.7923
     0.9342   0.9726   1.0427   1.4766   2.0657   2.2730   2.4316   2.4908
     4.0564   4.5366   5.2226   5.4960   5.5451   5.5811   5.6719   5.8666
     5.9217   6.0043   6.2754   6.5441   6.6674   6.7288   6.8911   6.8919
     7.0818   7.2885   7.5007   7.7050   7.9525   7.9898   8.1943   8.2609
     8.3861   8.6424   8.7369   8.8955   8.9772   9.0517   9.4096   9.5754
     9.8156   9.8721   9.9857  10.0394  10.1801  10.3284  10.5976  10.6982
    10.9449  10.9471  11.1076  11.1533  11.5248  11.5669  11.6448  11.6786
    11.7222  11.7678  11.9733  12.1127  12.1451  12.2368  12.6610  12.8612
    12.9190  13.0655  13.2442  13.3917  13.4225  13.5893  13.7180  13.7200
    13.7559  13.8178  13.9690  14.0098  14.0191  14.1172  14.3362  14.3671
    14.5886  14.6596  14.7633  14.8840  14.9330  14.9940  15.3078  15.4006
    15.4089  15.4444  15.6318  15.6853  15.7738  15.9017  16.0507  16.1096
    16.1838  16.3619  16.3757  16.4148  16.5590  16.5975  16.7379  16.9323
    16.9721  17.0960  17.2250  17.3298  17.4592  17.6231  17.6710  17.6847
    17.8653  18.0505  18.0719  18.2585  18.3984  18.4024  18.5483  18.8741
    18.9701  18.9839  19.1350  19.2452  19.2928  19.3795  19.4508  19.5709

          k = 0.0750 0.0000 0.0000 ( 27353 PWs)   bands (ev):

   -18.4481 -18.4418 -18.4285 -18.4262 -18.4207 -18.4202 -18.4200 -18.4181
   -18.4134 -18.4124 -18.4045 -18.4044 -18.3995 -18.3990 -18.3974 -18.3972
   -18.3905 -18.3899 -18.3898 -18.3823 -18.3817 -18.3774 -18.3759 -18.3752
   -18.3751 -18.3625 -18.3604 -18.3571 -18.3549 -18.3489 -18.3471 -18.3466
   -18.3396 -18.3395 -18.3346 -18.3346 -18.3285 -18.3283 -18.3232 -18.3232
   -10.7974 -10.7235 -10.6365 -10.5873  -9.5574  -9.4373  -9.3267  -9.2680
    -4.3776  -4.1923  -3.9275  -3.6903  -2.3605  -2.0973  -1.9752  -1.9511
    -1.7931  -1.5451  -1.1518  -0.7441  -0.5999  -0.5314  -0.4208  -0.3331
    -0.2323  -0.2077  -0.1735  -0.1129   0.6823   0.7247   0.7710   0.7800
     0.9409   0.9535   1.0932   1.5273   2.0706   2.2817   2.4298   2.4819
     4.0808   4.5583   5.2418   5.5531   5.6159   5.6373   5.7472   5.8409
     5.9493   5.9601   6.1661   6.4728   6.6249   6.6534   6.8042   6.9170
     7.0866   7.1283   7.5391   7.6984   7.9196   7.9857   8.2472   8.2669
     8.3473   8.5731   8.7203   8.7949   9.0087   9.0404   9.3716   9.5499
     9.7084   9.7151   9.8568   9.8700  10.0249  10.2026  10.4954  10.6684
    10.9239  10.9678  11.1384  11.1691  11.5160  11.6175  11.7459  11.7654
    11.8727  11.9361  12.0103  12.2089  12.3147  12.4322  12.7946  12.9543
    13.0171  13.1923  13.3095  13.4509  13.4798  13.5977  13.6923  13.7581
    13.9313  13.9763  14.0435  14.0749  14.0995  14.2384  14.4159  14.4250
    14.4961  14.5890  14.7556  14.8637  14.9741  15.0158  15.2262  15.2518
    15.3096  15.4077  15.5061  15.6170  15.7506  15.7681  16.0164  16.0698
    16.2122  16.2484  16.2523  16.2845  16.6642  16.7698  16.8755  16.8992
    16.9948  17.0808  17.2243  17.3601  17.5152  17.5452  17.5831  18.0143
    18.0229  18.0763  18.1002  18.4850  18.5318  18.5743  18.5810  18.7190
    18.8489  19.1256  19.1711  19.2596  19.2751  19.4790  19.5893  19.6680

          k = 0.1000 0.0000 0.0000 ( 27353 PWs)   bands (ev):

   -18.4469 -18.4409 -18.4272 -18.4251 -18.4213 -18.4196 -18.4191 -18.4187
   -18.4140 -18.4130 -18.4034 -18.4034 -18.3997 -18.3995 -18.3975 -18.3971
   -18.3910 -18.3905 -18.3904 -18.3823 -18.3820 -18.3775 -18.3761 -18.3748
   -18.3748 -18.3627 -18.3602 -18.3573 -18.3547 -18.3493 -18.3472 -18.3465
   -18.3400 -18.3398 -18.3343 -18.3342 -18.3290 -18.3288 -18.3229 -18.3229
   -10.7704 -10.6970 -10.6106 -10.5620  -9.5453  -9.4272  -9.3189  -9.2622
    -4.4020  -4.2190  -3.9595  -3.7300  -2.3918  -2.1736  -2.0719  -2.0601
    -1.7971  -1.5245  -1.1236  -0.7193  -0.5782  -0.5759  -0.4592  -0.3609
    -0.2403  -0.1935  -0.1457  -0.0753   0.6787   0.7149   0.7672   0.7786
     0.9332   0.9556   1.1504   1.5898   2.0759   2.2924   2.4257   2.4675
     4.1144   4.5877   5.2620   5.5800   5.6262   5.6870   5.7962   5.8239
     5.9812   6.0035   6.0320   6.3973   6.5073   6.5906   6.7810   6.9287
     6.9866   7.1112   7.5818   7.6024   7.9048   7.9609   8.2147   8.2819
     8.3782   8.4690   8.6784   8.7308   9.0241   9.0560   9.3147   9.4374
     9.5677   9.5752   9.6959   9.7126   9.9301  10.0725  10.3774  10.6556
    10.8318  10.9766  11.2240  11.2403  11.4493  11.6589  11.8923  11.9129
    11.9912  12.1031  12.1060  12.2875  12.5142  12.6484  12.9681  13.1234
    13.1328  13.3632  13.3963  13.5093  13.5781  13.5968  13.6748  13.7598
    13.9776  13.9833  14.0454  14.1806  14.3530  14.4088  14.4428  14.4454
    14.5512  14.6930  14.7452  14.8438  14.9416  15.0327  15.0794  15.1456
    15.2260  15.4315  15.4326  15.5257  15.6873  15.6955  15.9324  16.0720
    16.1024  16.2116  16.2592  16.3233  16.6899  16.8035  16.8585  16.8661
    17.1079  17.1432  17.2879  17.2888  17.4996  17.6147  17.6460  18.0388
    18.1005  18.1910  18.3499  18.4897  18.4983  18.5460  18.7759  18.8869
    18.9974  19.0978  19.2310  19.2746  19.3650  19.4742  19.5712  19.7029

          k = 0.1250 0.0000 0.0000 ( 27361 PWs)   bands (ev):

   -18.4455 -18.4398 -18.4257 -18.4240 -18.4219 -18.4201 -18.4182 -18.4181
   -18.4145 -18.4135 -18.4022 -18.4022 -18.4003 -18.4002 -18.3973 -18.3968
   -18.3915 -18.3911 -18.3909 -18.3824 -18.3823 -18.3777 -18.3764 -18.3744
   -18.3743 -18.3630 -18.3600 -18.3575 -18.3545 -18.3498 -18.3474 -18.3463
   -18.3405 -18.3403 -18.3339 -18.3338 -18.3294 -18.3292 -18.3226 -18.3226
   -10.7359 -10.6632 -10.5776 -10.5299  -9.5304  -9.4150  -9.3097  -9.2555
    -4.4330  -4.2529  -3.9999  -3.7797  -2.4408  -2.2746  -2.1911  -2.1891
    -1.7924  -1.4950  -1.0873  -0.6895  -0.6132  -0.5590  -0.4858  -0.3885
    -0.2726  -0.1543  -0.1129  -0.0366   0.6779   0.7036   0.7616   0.7820
     0.9182   0.9793   1.2107   1.6584   2.0806   2.3046   2.4182   2.4463
     4.1565   4.6236   5.2732   5.3917   5.6431   5.6747   5.8429   5.8606
     5.9870   6.0186   6.0572   6.3122   6.3899   6.5356   6.7908   6.8006
     7.0117   7.1459   7.4624   7.6273   7.8593   7.9127   8.1991   8.2704
     8.3741   8.3897   8.5624   8.7596   9.0067   9.1054   9.2418   9.2419
     9.4099   9.4879   9.5664   9.5988   9.8945   9.9471  10.2570  10.6448
    10.7307  11.0001  11.2910  11.3338  11.3868  11.7088  12.0096  12.0132
    12.1225  12.2594  12.3029  12.3927  12.6968  12.8579  13.1358  13.2333
    13.3532  13.4820  13.4931  13.5534  13.5699  13.6279  13.6878  13.7683
    13.8979  13.9500  14.0424  14.3544  14.4695  14.4803  14.5431  14.6228
    14.6682  14.7517  14.7691  14.8854  14.9626  14.9841  15.1586  15.1604
    15.1982  15.2244  15.3072  15.5311  15.7256  15.8073  15.8318  15.9626
    16.0208  16.2017  16.3497  16.4025  16.6946  16.7440  16.8035  16.8769
    17.0758  17.1569  17.4076  17.5022  17.5037  17.6243  17.7593  18.0129
    18.1314  18.2024  18.2740  18.4778  18.6337  18.7086  18.9261  18.9399
    19.0757  19.2160  19.2931  19.3816  19.3941  19.5439  19.5804  19.7722

          k = 0.1500 0.0000 0.0000 ( 27361 PWs)   bands (ev):

   -18.4438 -18.4387 -18.4241 -18.4237 -18.4216 -18.4210 -18.4174 -18.4172
   -18.4147 -18.4140 -18.4012 -18.4012 -18.4010 -18.4009 -18.3968 -18.3962
   -18.3921 -18.3917 -18.3913 -18.3828 -18.3825 -18.3778 -18.3767 -18.3738
   -18.3738 -18.3634 -18.3598 -18.3578 -18.3543 -18.3504 -18.3477 -18.3462
   -18.3410 -18.3408 -18.3336 -18.3336 -18.3297 -18.3295 -18.3222 -18.3222
   -10.6942 -10.6223 -10.5378 -10.4911  -9.5135  -9.4014  -9.2998  -9.2487
    -4.4699  -4.2932  -4.0479  -3.8381  -2.5105  -2.4027  -2.3291  -2.3283
    -1.7755  -1.4565  -1.0432  -0.6675  -0.6295  -0.5594  -0.4849  -0.4125
    -0.2971  -0.1133  -0.0758   0.0038   0.6803   0.6949   0.7562   0.7823
     0.9152   1.0110   1.2718   1.7273   2.0834   2.3176   2.4067   2.4183
     4.2065   4.6633   5.1554   5.2450   5.5509   5.6085   5.8292   5.9183
     6.0084   6.0100   6.1249   6.2736   6.2936   6.4947   6.6813   6.8134
     7.0698   7.1746   7.3337   7.6681   7.7271   7.9087   8.1856   8.1860
     8.3293   8.3525   8.4730   8.7991   8.9581   9.0723   9.0749   9.1867
     9.3392   9.4066   9.5368   9.5496   9.8368   9.8867  10.1506  10.5559
    10.7214  11.0320  11.2188  11.4255  11.4566  11.7622  12.0329  12.0982
    12.3634  12.3818  12.5069  12.5448  12.8439  12.9609  13.2255  13.2811
    13.4003  13.4847  13.5163  13.5714  13.6371  13.6610  13.8113  13.8875
    13.9388  13.9792  14.0787  14.1326  14.5461  14.5612  14.6733  14.7514
    14.7589  14.7858  14.9469  15.0019  15.0846  15.1038  15.1371  15.1767
    15.2126  15.2679  15.3219  15.6045  15.6754  15.7326  15.9053  15.9383
    16.0236  16.1421  16.4201  16.5138  16.6519  16.7480  16.7894  16.9689
    17.0960  17.2208  17.3742  17.4840  17.5247  17.6901  17.9850  18.0542
    18.0875  18.1492  18.3663  18.5387  18.6672  18.7565  18.7603  19.0722
    19.1263  19.2408  19.3396  19.3921  19.5950  19.5963  19.7341  19.8533

          k = 0.1750 0.0000 0.0000 ( 27337 PWs)   bands (ev):

   -18.4421 -18.4376 -18.4245 -18.4233 -18.4212 -18.4201 -18.4172 -18.4167
   -18.4143 -18.4140 -18.4023 -18.4023 -18.3997 -18.3996 -18.3961 -18.3955
   -18.3926 -18.3923 -18.3916 -18.3833 -18.3827 -18.3779 -18.3770 -18.3732
   -18.3731 -18.3639 -18.3596 -18.3581 -18.3541 -18.3509 -18.3480 -18.3460
   -18.3415 -18.3414 -18.3335 -18.3334 -18.3296 -18.3295 -18.3219 -18.3218
   -10.6456 -10.5747 -10.4915 -10.4460  -9.4952  -9.3871  -9.2899  -9.2425
    -4.5120  -4.3391  -4.1022  -3.9032  -2.6023  -2.5574  -2.4784  -2.4731
    -1.7449  -1.4092  -0.9915  -0.6778  -0.6008  -0.5734  -0.4682  -0.4285
    -0.3028  -0.0691  -0.0352   0.0467   0.6852   0.6896   0.7532   0.7766
     0.9276   1.0491   1.3319   1.7910   2.0829   2.3287   2.3867   2.3910
     4.2634   4.6957   4.9202   5.1222   5.4731   5.4951   5.7578   5.9274
     5.9700   5.9971   6.1793   6.1959   6.2909   6.4747   6.5958   6.8492
     7.1179   7.1395   7.3116   7.5653   7.7274   7.8672   8.0926   8.1460
     8.2463   8.2870   8.4281   8.8327   8.8662   8.9806   8.9882   9.1224
     9.4198   9.4282   9.5690   9.5778   9.7573   9.8866  10.0718  10.4484
    10.7522  11.0335  11.1679  11.5057  11.5347  11.8094  12.0757  12.1594
    12.4723  12.6163  12.6887  12.7110  12.8227  12.9219  13.1035  13.2858
    13.3911  13.4619  13.5204  13.6144  13.6857  13.7820  13.8794  13.9923
    14.0194  14.0251  14.1775  14.1971  14.5282  14.6086  14.6352  14.6880
    14.8376  14.9737  15.0751  15.1529  15.1695  15.2127  15.2888  15.3172
    15.4093  15.4338  15.4386  15.6144  15.6146  15.7510  15.9222  15.9495
    16.1378  16.1964  16.4862  16.5299  16.5574  16.8337  16.8787  17.1381
    17.1665  17.1905  17.4000  17.4104  17.4968  17.7365  18.0219  18.0621
    18.2449  18.2977  18.4145  18.4935  18.6028  18.7402  18.8680  18.9167
    19.1644  19.3668  19.3801  19.4174  19.4263  19.8118  19.8889  19.9725

          k = 0.2000 0.0000 0.0000 ( 27311 PWs)   bands (ev):

   -18.4403 -18.4367 -18.4254 -18.4243 -18.4196 -18.4183 -18.4172 -18.4168
   -18.4134 -18.4133 -18.4034 -18.4034 -18.3987 -18.3985 -18.3955 -18.3946
   -18.3928 -18.3926 -18.3916 -18.3838 -18.3830 -18.3781 -18.3772 -18.3726
   -18.3725 -18.3647 -18.3595 -18.3583 -18.3539 -18.3516 -18.3483 -18.3457
   -18.3421 -18.3420 -18.3336 -18.3335 -18.3291 -18.3291 -18.3215 -18.3214
   -10.5904 -10.5207 -10.4389 -10.3950  -9.4764  -9.3729  -9.2809  -9.2378
    -4.5580  -4.3891  -4.1608  -3.9729  -2.7303  -2.7177  -2.6340  -2.6218
    -1.7008  -1.3534  -0.9328  -0.6879  -0.5843  -0.5629  -0.4585  -0.4304
    -0.2797  -0.0212   0.0082   0.0924   0.6869   0.6909   0.7543   0.7675
     0.9529   1.0918   1.3888   1.8435   2.0775   2.3167   2.3716   2.3745
     4.3255   4.6119   4.8037   4.9337   5.3337   5.4274   5.6608   5.8741
     5.9174   5.9361   6.1020   6.1916   6.2989   6.4402   6.5490   6.8879
     7.0086   7.2179   7.3701   7.4183   7.7619   7.7637   8.0295   8.0575
     8.1037   8.2191   8.3986   8.8525   8.8643   8.9428   8.9558   9.0905
     9.5160   9.5778   9.6179   9.6770   9.7589   9.8933  10.0295  10.3599
    10.7930  10.9759  11.2026  11.5718  11.5853  11.8491  12.1441  12.1931
    12.5153  12.5413  12.7953  12.8073  12.8990  12.9527  13.0282  13.0627
    13.3650  13.4136  13.4739  13.6028  13.7854  13.8958  13.9914  14.0203
    14.0351  14.1606  14.3347  14.3880  14.4859  14.6577  14.6897  14.7581
    14.8449  15.0544  15.0911  15.1648  15.3038  15.3360  15.4435  15.5257
    15.5659  15.6543  15.6683  15.7395  15.7400  15.9195  15.9414  16.0079
    16.1403  16.2640  16.5047  16.5680  16.7007  16.8983  16.9300  17.1454
    17.2155  17.2452  17.4546  17.4600  17.6763  17.7047  17.9196  18.0763
    18.3671  18.3917  18.4967  18.5057  18.5254  18.6706  18.9954  19.0114
    19.1569  19.2510  19.3957  19.4304  19.5599  19.7303  19.7330  19.8552

          k = 0.2250 0.0000 0.0000 ( 27309 PWs)   bands (ev):

   -18.4387 -18.4361 -18.4265 -18.4258 -18.4180 -18.4171 -18.4167 -18.4165
   -18.4126 -18.4126 -18.4045 -18.4045 -18.3980 -18.3978 -18.3951 -18.3937
   -18.3925 -18.3924 -18.3912 -18.3843 -18.3834 -18.3782 -18.3774 -18.3719
   -18.3718 -18.3657 -18.3594 -18.3586 -18.3539 -18.3523 -18.3484 -18.3454
   -18.3427 -18.3426 -18.3338 -18.3337 -18.3284 -18.3284 -18.3210 -18.3210
   -10.5289 -10.4607 -10.3807 -10.3385  -9.4581  -9.3601  -9.2738  -9.2356
    -4.6061  -4.4413  -4.2217  -4.0444  -2.9132  -2.8601  -2.7846  -2.7764
    -1.6443  -1.2898  -0.8675  -0.6887  -0.5869  -0.5311  -0.4554  -0.4109
    -0.2308   0.0290   0.0545   0.1406   0.6850   0.6955   0.7582   0.7600
     0.9876   1.1372   1.4410   1.8800   2.0657   2.2731   2.3492   2.3915
     4.3865   4.3961   4.7401   4.8187   5.1711   5.3273   5.6042   5.7678
     5.8316   5.8408   6.0200   6.1525   6.2738   6.3687   6.5146   6.8642
     6.9586   7.2598   7.3151   7.4362   7.6011   7.7739   7.8708   7.9764
     8.0065   8.1314   8.3831   8.9390   8.9474   8.9736   9.0083   9.1116
     9.5905   9.6324   9.8091   9.8200   9.8859   9.9222  10.0409  10.3003
    10.8445  10.9202  11.2660  11.6087  11.6189  11.8875  12.1772  12.2249
    12.2921  12.4478  12.7255  12.7865  12.8934  12.9132  13.0720  13.1422
    13.2265  13.3635  13.3802  13.6595  13.9152  13.9645  14.0127  14.0607
    14.0886  14.2434  14.4649  14.5119  14.6221  14.7106  14.7777  14.8502
    14.8974  15.0518  15.1124  15.1985  15.3578  15.4334  15.5945  15.7509
    15.7821  15.8301  15.9079  15.9081  15.9773  16.0620  16.0692  16.1164
    16.1403  16.4018  16.5350  16.7330  16.8361  16.8467  17.0329  17.1351
    17.3420  17.3437  17.5070  17.6145  17.6542  17.8405  17.8969  18.1118
    18.2524  18.3237  18.4834  18.5772  18.6868  18.8141  18.9609  19.1535
    19.1707  19.2277  19.3452  19.4054  19.6359  19.6991  19.7052  19.7494

          k = 0.2500 0.0000 0.0000 ( 27307 PWs)   bands (ev):

   -18.4374 -18.4359 -18.4276 -18.4273 -18.4176 -18.4167 -18.4154 -18.4148
   -18.4121 -18.4121 -18.4055 -18.4055 -18.3975 -18.3973 -18.3950 -18.3931
   -18.3916 -18.3914 -18.3903 -18.3848 -18.3837 -18.3784 -18.3776 -18.3712
   -18.3710 -18.3667 -18.3593 -18.3587 -18.3541 -18.3531 -18.3484 -18.3451
   -18.3434 -18.3433 -18.3340 -18.3340 -18.3276 -18.3275 -18.3206 -18.3206
   -10.4618 -10.3952 -10.3174 -10.2772  -9.4414  -9.3497  -9.2697  -9.2369
    -4.6544  -4.4934  -4.2820  -4.1146  -3.1006  -3.0243  -2.9359  -2.9286
    -1.5768  -1.2187  -0.7963  -0.6795  -0.5799  -0.5073  -0.4499  -0.3693
    -0.1654   0.0769   0.1062   0.1905   0.6816   0.6973   0.7506   0.7702
     1.0291   1.1836   1.4867   1.8975   2.0463   2.2205   2.3243   2.4136
     4.1861   4.4111   4.5984   4.7935   5.0679   5.1755   5.5724   5.6257
     5.7218   5.7398   5.9346   6.0724   6.2174   6.2762   6.4528   6.7775
     6.9614   7.1178   7.3964   7.4054   7.4860   7.6213   7.7791   7.9048
     7.9256   8.0521   8.3930   9.0204   9.1087   9.1135   9.1756   9.1885
     9.6021   9.7161   9.9143  10.0363  10.0412  10.0717  10.1585  10.2861
    10.8858  10.9133  11.3336  11.6120  11.6256  11.9228  12.0695  12.0812
    12.3008  12.3420  12.4553  12.7852  12.8355  12.8436  12.9458  13.0574
    13.3481  13.3552  13.4816  13.6859  13.8830  13.9156  14.0628  14.1140
    14.2489  14.3248  14.4593  14.6110  14.7708  14.8150  14.8448  14.9440
    15.0022  15.1249  15.1615  15.3313  15.3543  15.5105  15.5986  15.9284
    15.9342  15.9981  16.0538  16.1263  16.2040  16.2565  16.2625  16.3018
    16.3329  16.4677  16.6692  16.8417  16.9230  17.0118  17.1601  17.1849
    17.3579  17.5183  17.5390  17.6931  17.7007  17.8457  18.0268  18.1584
    18.2573  18.2742  18.5409  18.6095  18.6840  18.9494  19.0070  19.1585
    19.1707  19.2517  19.3742  19.3957  19.4436  19.6607  19.7046  19.7428

          k = 0.2750 0.0000 0.0000 ( 27291 PWs)   bands (ev):

   -18.4364 -18.4361 -18.4289 -18.4288 -18.4173 -18.4160 -18.4141 -18.4135
   -18.4116 -18.4116 -18.4063 -18.4063 -18.3970 -18.3970 -18.3947 -18.3926
   -18.3908 -18.3900 -18.3890 -18.3852 -18.3840 -18.3787 -18.3777 -18.3706
   -18.3702 -18.3678 -18.3593 -18.3589 -18.3545 -18.3539 -18.3482 -18.3448
   -18.3441 -18.3439 -18.3341 -18.3341 -18.3266 -18.3266 -18.3202 -18.3202
   -10.3895 -10.3249 -10.2494 -10.2116  -9.4277  -9.3429  -9.2697  -9.2427
    -4.7004  -4.5429  -4.3391  -4.1804  -3.2886  -3.1973  -3.0981  -3.0725
    -1.4996  -1.1408  -0.7203  -0.6611  -0.5632  -0.4838  -0.4365  -0.3145
    -0.0894   0.1185   0.1648   0.2407   0.6739   0.6953   0.7449   0.7832
     1.0756   1.2292   1.5248   1.8963   2.0189   2.1659   2.2959   2.4278
     4.0065   4.3135   4.6037   4.6823   5.0112   5.0613   5.4651   5.4988
     5.6106   5.6684   5.8302   5.9717   6.1371   6.1754   6.3624   6.6952
     6.9452   6.9625   7.1919   7.3861   7.4762   7.5035   7.7246   7.8004
     7.8736   8.0154   8.4303   9.1069   9.2399   9.3113   9.3963   9.4351
     9.6733   9.7822   9.9368  10.1802  10.2439  10.3083  10.3593  10.3933
    10.8782  11.0071  11.3837  11.5456  11.6009  11.8982  11.9370  11.9705
    12.2092  12.2240  12.4141  12.5675  12.6560  12.8053  12.9040  13.0706
    13.3308  13.3599  13.6058  13.7119  13.8556  13.9428  14.0623  14.1252
    14.2897  14.4405  14.4743  14.7067  14.8774  14.9340  14.9552  14.9719
    15.1092  15.1125  15.3350  15.3468  15.4409  15.5256  15.7496  16.0142
    16.0496  16.0600  16.1977  16.2507  16.2997  16.5043  16.5190  16.5793
    16.6053  16.6396  16.8032  16.8941  17.1515  17.1660  17.2780  17.2881
    17.3187  17.6337  17.7111  17.7342  17.7706  17.9126  18.0483  18.1466
    18.3486  18.3888  18.5586  18.5758  18.7657  18.9035  18.9801  19.1394
    19.1623  19.2426  19.2556  19.3709  19.3901  19.5155  19.5197  19.6396

          k = 0.3000 0.0000 0.0000 ( 27305 PWs)   bands (ev):

   -18.4366 -18.4358 -18.4304 -18.4299 -18.4167 -18.4153 -18.4139 -18.4130
   -18.4107 -18.4104 -18.4071 -18.4070 -18.3969 -18.3965 -18.3940 -18.3919
   -18.3900 -18.3887 -18.3876 -18.3854 -18.3842 -18.3789 -18.3778 -18.3703
   -18.3694 -18.3685 -18.3593 -18.3590 -18.3552 -18.3549 -18.3478 -18.3449
   -18.3448 -18.3440 -18.3342 -18.3342 -18.3256 -18.3255 -18.3198 -18.3198
   -10.3127 -10.2504 -10.1777 -10.1426  -9.4181  -9.3411  -9.2750  -9.2541
    -4.7415  -4.5870  -4.3898  -4.2388  -3.4743  -3.3715  -3.2604  -3.2177
    -1.4140  -1.0570  -0.6405  -0.6350  -0.5377  -0.4552  -0.4134  -0.2544
    -0.0061   0.1530   0.2275   0.2888   0.6599   0.6890   0.7406   0.7970
     1.1259   1.2724   1.5552   1.8799   1.9847   2.1124   2.2613   2.4207
     3.8721   4.1871   4.5452   4.6644   4.8548   5.0811   5.3016   5.3814
     5.5185   5.6096   5.7103   5.8654   6.0383   6.0833   6.2624   6.6148
     6.7997   6.9062   6.9832   7.1549   7.4841   7.4875   7.6695   7.7013
     7.8501   8.0320   8.4907   9.1834   9.3401   9.5146   9.6782   9.7454
     9.8479   9.8926   9.9712  10.2333  10.4688  10.5478  10.5523  10.6164
    10.9241  11.1202  11.3606  11.4082  11.6131  11.7032  11.8998  11.9237
    12.0858  12.1569  12.3201  12.4127  12.5356  12.6903  12.9553  13.1354
    13.2191  13.2934  13.6463  13.7441  13.9195  13.9722  14.0922  14.1085
    14.2237  14.5321  14.6417  14.7857  14.8150  14.9488  14.9949  15.0320
    15.1470  15.1884  15.4546  15.5017  15.5771  15.6603  15.8737  15.8993
    16.0527  16.1804  16.3117  16.3923  16.4198  16.7005  16.7605  16.8199
    16.8499  16.8559  16.9405  17.0013  17.1211  17.3680  17.4165  17.4628
    17.5216  17.7209  17.7462  17.8590  17.9070  18.0110  18.0166  18.1801
    18.3228  18.5076  18.5536  18.6930  18.7320  18.7423  18.8784  18.9519
    19.0811  19.1255  19.2212  19.2493  19.3001  19.4180  19.5219  19.5899

          k = 0.3250 0.0000 0.0000 ( 27289 PWs)   bands (ev):

   -18.4372 -18.4357 -18.4319 -18.4311 -18.4160 -18.4152 -18.4143 -18.4124
   -18.4095 -18.4091 -18.4078 -18.4077 -18.3968 -18.3961 -18.3931 -18.3911
   -18.3893 -18.3877 -18.3862 -18.3853 -18.3843 -18.3792 -18.3779 -18.3710
   -18.3686 -18.3684 -18.3593 -18.3591 -18.3560 -18.3558 -18.3473 -18.3455
   -18.3454 -18.3436 -18.3341 -18.3341 -18.3245 -18.3245 -18.3195 -18.3194
   -10.2321 -10.1725 -10.1029 -10.0709  -9.4141  -9.3457  -9.2864  -9.2718
    -4.7750  -4.6229  -4.4313  -4.2869  -3.6550  -3.5428  -3.4204  -3.3629
    -1.3214  -0.9680  -0.6037  -0.5585  -0.5048  -0.4200  -0.3804  -0.1942
     0.0821   0.1798   0.2915   0.3322   0.6386   0.6781   0.7363   0.8098
     1.1790   1.3119   1.5788   1.8535   1.9460   2.0611   2.2166   2.3806
     3.7941   4.0892   4.4196   4.6708   4.7664   5.0488   5.1665   5.2503
     5.4716   5.5334   5.5860   5.7549   5.9292   6.0055   6.1825   6.5219
     6.6345   6.7384   6.9150   6.9340   7.4061   7.4341   7.5246   7.7135
     7.8817   8.0915   8.5694   9.2553   9.4158   9.6405   9.9739  10.0056
    10.0757  10.1201  10.1498  10.3099  10.6310  10.6905  10.7416  10.8293
    11.0799  11.1389  11.2775  11.4195  11.4822  11.6592  11.8405  11.8674
    12.0441  12.0749  12.1048  12.3579  12.4801  12.7157  12.8991  13.1180
    13.2068  13.2196  13.6493  13.7466  13.8952  14.0890  14.0995  14.1504
    14.2550  14.5475  14.6198  14.7376  14.8281  14.9791  14.9824  15.1444
    15.2732  15.2978  15.5487  15.6087  15.7131  15.7948  15.8435  16.0033
    16.0433  16.1266  16.4268  16.4474  16.6329  16.6479  16.8425  16.9200
    17.0283  17.1080  17.2040  17.2158  17.2976  17.3907  17.4959  17.6825
    17.7692  17.7751  17.8066  17.9072  18.0039  18.1036  18.1235  18.1852
    18.3622  18.4302  18.4864  18.5095  18.6339  18.6962  18.7516  18.8863
    18.9450  19.1378  19.1562  19.2029  19.2279  19.3650  19.4325  19.4524

          k = 0.3500 0.0000 0.0000 ( 27321 PWs)   bands (ev):

   -18.4378 -18.4359 -18.4332 -18.4322 -18.4160 -18.4158 -18.4141 -18.4113
   -18.4090 -18.4089 -18.4078 -18.4074 -18.3968 -18.3958 -18.3920 -18.3900
   -18.3887 -18.3873 -18.3851 -18.3849 -18.3840 -18.3795 -18.3779 -18.3721
   -18.3678 -18.3677 -18.3593 -18.3592 -18.3569 -18.3567 -18.3467 -18.3461
   -18.3460 -18.3432 -18.3341 -18.3340 -18.3235 -18.3235 -18.3191 -18.3191
   -10.1487 -10.0922 -10.0261  -9.9975  -9.4167  -9.3581  -9.3050  -9.2961
    -4.7982  -4.6479  -4.4611  -4.3221  -3.8284  -3.7083  -3.5759  -3.5056
    -1.2232  -0.8753  -0.5708  -0.4777  -0.4653  -0.3786  -0.3388  -0.1378
     0.1733   0.1983   0.3538   0.3677   0.6094   0.6628   0.7310   0.8195
     1.2341   1.3474   1.5971   1.8237   1.9062   2.0114   2.1583   2.3048
     3.7753   4.0311   4.3177   4.5536   4.8013   4.9201   5.0850   5.1154
     5.4550   5.4663   5.4861   5.6424   5.8217   5.9250   6.1420   6.4101
     6.4758   6.5327   6.7343   6.9148   7.2936   7.3505   7.3890   7.6849
     7.9855   8.1796   8.6619   9.3206   9.4922   9.7033  10.0747  10.1910
    10.3986  10.4353  10.4844  10.4882  10.6179  10.7861  10.8576  10.9659
    11.1346  11.2282  11.3197  11.3243  11.5637  11.5848  11.8250  11.8422
    11.8941  11.9736  12.1301  12.3144  12.5433  12.7048  12.8142  13.0656
    13.1248  13.3038  13.6119  13.7675  13.9081  14.1072  14.1408  14.2303
    14.3136  14.4660  14.5545  14.6267  14.8912  14.9873  15.0864  15.2447
    15.3402  15.4440  15.5962  15.6490  15.8025  15.8542  15.8825  15.9629
    16.0766  16.2194  16.3875  16.4284  16.6441  16.8496  16.8610  16.8938
    17.0801  17.3107  17.3157  17.4275  17.4673  17.5515  17.5679  17.6136
    17.7765  17.8238  18.0005  18.0838  18.0872  18.1280  18.1867  18.2090
    18.2847  18.3380  18.3495  18.3767  18.5043  18.6501  18.7148  18.9209
    18.9440  19.0380  19.0556  19.1938  19.2329  19.3073  19.3165  19.4066

          k = 0.3750 0.0000 0.0000 ( 27305 PWs)   bands (ev):

   -18.4385 -18.4364 -18.4343 -18.4332 -18.4166 -18.4166 -18.4130 -18.4103
   -18.4095 -18.4092 -18.4070 -18.4063 -18.3967 -18.3956 -18.3909 -18.3889
   -18.3881 -18.3873 -18.3844 -18.3842 -18.3833 -18.3797 -18.3780 -18.3732
   -18.3670 -18.3670 -18.3594 -18.3593 -18.3577 -18.3577 -18.3467 -18.3467
   -18.3458 -18.3429 -18.3339 -18.3339 -18.3225 -18.3225 -18.3189 -18.3188
   -10.0632 -10.0104  -9.9483  -9.9235  -9.4273  -9.3798  -9.3310  -9.3270
    -4.8087  -4.6598  -4.4768  -4.3424  -3.9925  -3.8658  -3.7245  -3.6435
    -1.1211  -0.7805  -0.5410  -0.4281  -0.3951  -0.3328  -0.2903  -0.0892
     0.2098   0.2650   0.3928   0.4104   0.5727   0.6446   0.7247   0.8242
     1.2916   1.3800   1.6116   1.7967   1.8688   1.9613   2.0856   2.2013
     3.8077   4.0153   4.2454   4.4412   4.7697   4.8148   4.9779   4.9995
     5.3644   5.4017   5.5353   5.5394   5.7280   5.8456   6.1105   6.2836
     6.3377   6.3458   6.5733   6.9303   7.1754   7.2060   7.3078   7.6348
     8.1196   8.2852   8.7642   9.3736   9.5872   9.7432  10.1535  10.2632
    10.5199  10.5837  10.7056  10.7676  10.8471  10.8757  10.9371  11.0206
    11.1292  11.2976  11.3307  11.4490  11.5395  11.6217  11.6559  11.8007
    12.0115  12.0253  12.2140  12.3167  12.5581  12.6616  12.8973  12.9789
    13.0728  13.3781  13.5832  13.7759  14.0085  14.0156  14.1210  14.3287
    14.3595  14.4957  14.5060  14.5719  14.8668  14.9469  15.1913  15.3169
    15.4380  15.5397  15.6312  15.7019  15.7227  15.7500  15.9561  15.9846
    16.1717  16.1803  16.4074  16.4595  16.6530  16.7708  16.7709  16.9477
    17.1163  17.2878  17.3565  17.4138  17.4424  17.6150  17.6201  17.6430
    17.8827  17.9210  17.9466  17.9677  18.0439  18.0511  18.1503  18.2181
    18.2819  18.3677  18.4610  18.4732  18.5653  18.6590  18.8121  18.8143
    18.8908  18.9043  19.0729  19.1072  19.1323  19.4274  19.4629  19.5000

          k = 0.4000 0.0000 0.0000 ( 27313 PWs)   bands (ev):

   -18.4390 -18.4371 -18.4351 -18.4341 -18.4174 -18.4174 -18.4119 -18.4104
   -18.4100 -18.4086 -18.4064 -18.4054 -18.3966 -18.3955 -18.3900 -18.3879
   -18.3876 -18.3873 -18.3839 -18.3837 -18.3824 -18.3799 -18.3781 -18.3742
   -18.3663 -18.3663 -18.3594 -18.3594 -18.3586 -18.3585 -18.3471 -18.3471
   -18.3451 -18.3426 -18.3338 -18.3337 -18.3216 -18.3216 -18.3187 -18.3186
    -9.9769  -9.9283  -9.8708  -9.8501  -9.4467  -9.4123  -9.3645  -9.3636
    -4.8043  -4.6564  -4.4767  -4.3464  -4.1454  -4.0132  -3.8642  -3.7741
    -1.0170  -0.6859  -0.5204  -0.3906  -0.3209  -0.2854  -0.2379  -0.0521
     0.2178   0.3541   0.4067   0.4545   0.5292   0.6280   0.7189   0.8220
     1.3521   1.4123   1.6229   1.7765   1.8374   1.9091   2.0012   2.0843
     3.8780   4.0388   4.2058   4.3497   4.6274   4.7811   4.8387   4.8994
     5.2864   5.3844   5.4587   5.5882   5.6607   5.7824   6.0392   6.1489
     6.1947   6.2311   6.4814   6.9361   7.0612   7.0673   7.2425   7.5758
     8.2654   8.3998   8.8723   9.4110   9.7035   9.7659  10.2013  10.2424
    10.4327  10.5548  10.8067  10.8646  10.9724  11.0609  11.1884  11.1976
    11.2411  11.3085  11.3414  11.4755  11.5768  11.6396  11.7449  11.7863
    12.1104  12.2094  12.2108  12.3672  12.6236  12.6753  12.9660  12.9668
    13.1235  13.4089  13.5132  13.8354  13.8590  14.0885  14.1876  14.3813
    14.4006  14.5144  14.5784  14.6147  14.6966  14.9552  15.2722  15.3075
    15.3949  15.5142  15.5802  15.6479  15.8152  15.8610  15.8690  16.0422
    16.0832  16.1528  16.4024  16.5149  16.6027  16.6558  16.7814  16.8286
    17.0990  17.1899  17.2149  17.3235  17.4177  17.4959  17.5415  17.7086
    17.7284  17.7448  17.9058  17.9246  18.0660  18.1422  18.2186  18.2762
    18.3223  18.3591  18.4682  18.5800  18.6517  18.7575  18.7757  18.8117
    18.9277  18.9478  19.1399  19.1964  19.3073  19.5436  19.5807  19.6202

          k = 0.4250 0.0000 0.0000 ( 27320 PWs)   bands (ev):

   -18.4394 -18.4379 -18.4356 -18.4348 -18.4181 -18.4181 -18.4112 -18.4109
   -18.4101 -18.4077 -18.4058 -18.4048 -18.3964 -18.3955 -18.3893 -18.3875
   -18.3871 -18.3870 -18.3835 -18.3833 -18.3816 -18.3800 -18.3781 -18.3751
   -18.3656 -18.3656 -18.3596 -18.3595 -18.3592 -18.3592 -18.3475 -18.3475
   -18.3445 -18.3425 -18.3337 -18.3336 -18.3208 -18.3208 -18.3186 -18.3185
    -9.8909  -9.8474  -9.7950  -9.7787  -9.4758  -9.4563  -9.4051  -9.4050
    -4.7835  -4.6365  -4.4598  -4.3335  -4.2848  -4.1485  -3.9931  -3.8955
    -0.9132  -0.5946  -0.5159  -0.3616  -0.2555  -0.2397  -0.1853  -0.0296
     0.2283   0.4108   0.4367   0.4760   0.4811   0.6207   0.7168   0.8117
     1.4165   1.4488   1.6314   1.7627   1.8131   1.8540   1.9116   1.9684
     3.9736   4.0959   4.1996   4.2832   4.5016   4.6994   4.7066   4.7858
     5.2402   5.3778   5.4158   5.5930   5.6453   5.7437   5.9340   6.0328
     6.0825   6.1474   6.4642   6.8589   6.9602   7.0009   7.2047   7.5120
     8.4135   8.5151   8.9817   9.4266   9.7626   9.8375  10.0551  10.3326
    10.3849  10.5223  10.7910  10.8167  10.9031  11.0220  11.2254  11.2859
    11.3914  11.5606  11.5850  11.6181  11.6482  11.6488  11.9291  11.9304
    12.0004  12.2694  12.3578  12.5027  12.6645  12.7977  12.8701  13.1366
    13.3211  13.3693  13.4347  13.6625  13.9870  14.1584  14.2605  14.4329
    14.4915  14.5421  14.5660  14.6362  14.7156  14.9068  15.0603  15.2509
    15.3370  15.4348  15.6161  15.6466  15.7082  15.8738  15.8777  16.0687
    16.1091  16.1444  16.2250  16.3667  16.5844  16.6633  16.7887  16.9317
    16.9772  17.0177  17.0902  17.1372  17.2428  17.4139  17.4575  17.4862
    17.6492  17.7057  17.8979  17.9246  18.0836  18.0956  18.2022  18.2313
    18.3319  18.4364  18.4760  18.6487  18.6607  18.8245  18.8926  19.0076
    19.0866  19.0898  19.3022  19.3367  19.4332  19.4918  19.5394  19.5968

          k = 0.4500 0.0000 0.0000 ( 27334 PWs)   bands (ev):

   -18.4396 -18.4386 -18.4360 -18.4354 -18.4186 -18.4186 -18.4113 -18.4113
   -18.4092 -18.4073 -18.4054 -18.4045 -18.3962 -18.3956 -18.3887 -18.3876
   -18.3867 -18.3864 -18.3831 -18.3830 -18.3811 -18.3802 -18.3780 -18.3760
   -18.3650 -18.3650 -18.3601 -18.3600 -18.3594 -18.3594 -18.3478 -18.3477
   -18.3439 -18.3425 -18.3335 -18.3334 -18.3202 -18.3202 -18.3186 -18.3185
    -9.8064  -9.7690  -9.7230  -9.7112  -9.5151  -9.5113  -9.4508  -9.4507
    -4.7451  -4.5991  -4.4258  -4.4112  -4.3017  -4.2696  -4.1090  -4.0054
    -0.8130  -0.5347  -0.5093  -0.3476  -0.2035  -0.2002  -0.1363  -0.0233
     0.2471   0.4042   0.4368   0.4717   0.5081   0.6233   0.7214   0.7943
     1.4849   1.4943   1.6402   1.7445   1.7836   1.8012   1.8353   1.8688
     4.0841   4.1774   4.2250   4.2469   4.3987   4.5663   4.6056   4.6622
     5.2269   5.3513   5.4158   5.5731   5.6308   5.7323   5.8278   5.9401
     6.0344   6.0964   6.4820   6.7336   6.8860   6.9611   7.2132   7.4457
     8.5526   8.6200   9.0867   9.4085   9.7337   9.9062   9.9863  10.3638
    10.4570  10.4644  10.6720  10.7968  10.8217  10.9284  11.1228  11.3524
    11.5263  11.5529  11.7381  11.7638  11.8170  11.9078  11.9905  12.0402
    12.0925  12.2935  12.5090  12.6399  12.7365  12.8535  12.9456  13.2506
    13.2838  13.3248  13.4905  13.6791  14.1306  14.2072  14.2830  14.4549
    14.5478  14.5528  14.6300  14.6778  14.7601  14.8202  14.8699  15.0761
    15.2123  15.4036  15.5542  15.5784  15.6695  15.7493  15.8346  16.0323
    16.1024  16.1859  16.2632  16.3759  16.4264  16.5616  16.7553  16.9367
    16.9488  16.9813  17.0580  17.0754  17.1726  17.2254  17.2537  17.3220
    17.5050  17.6978  17.8327  17.9177  18.0744  18.0969  18.1004  18.2477
    18.2659  18.3834  18.6330  18.8385  18.8818  18.9280  18.9360  19.0224
    19.1724  19.1948  19.1952  19.2747  19.5344  19.6223  19.6708  19.7250

          k = 0.4750 0.0000 0.0000 ( 27350 PWs)   bands (ev):

   -18.4396 -18.4391 -18.4361 -18.4358 -18.4189 -18.4189 -18.4116 -18.4115
   -18.4084 -18.4073 -18.4049 -18.4044 -18.3960 -18.3957 -18.3883 -18.3878
   -18.3863 -18.3861 -18.3828 -18.3827 -18.3807 -18.3804 -18.3777 -18.3767
   -18.3646 -18.3646 -18.3605 -18.3605 -18.3594 -18.3594 -18.3479 -18.3479
   -18.3433 -18.3426 -18.3334 -18.3334 -18.3197 -18.3197 -18.3187 -18.3186
    -9.7248  -9.6952  -9.6593  -9.6517  -9.5752  -9.5646  -9.4977  -9.4976
    -4.6886  -4.5460  -4.5184  -4.3918  -4.3581  -4.2573  -4.2067  -4.1021
    -0.7200  -0.5755  -0.4385  -0.3544  -0.1720  -0.1707  -0.0931  -0.0333
     0.2775   0.3662   0.4266   0.4541   0.5641   0.6212   0.7340   0.7732
     1.5514   1.5558   1.6521   1.6960   1.7182   1.7547   1.8104   1.8136
     4.2013   4.2263   4.2653   4.2924   4.3381   4.4403   4.4956   4.5344
     5.2420   5.3175   5.4337   5.5326   5.6266   5.7358   5.7488   5.8564
     6.0481   6.0794   6.5083   6.6241   6.8538   6.9100   7.2560   7.3789
     8.6630   8.6958   9.1823   9.3511   9.7082   9.7906  10.1468  10.4026
    10.4364  10.4924  10.5568  10.7132  10.7377  10.9214  11.0894  11.3985
    11.4541  11.6558  11.6961  11.8206  11.9755  12.0351  12.0934  12.1390
    12.2241  12.3374  12.6450  12.7240  12.8466  12.9504  12.9981  13.1640
    13.2087  13.3009  13.5879  13.9474  14.0834  14.2157  14.3768  14.4434
    14.5492  14.6380  14.6419  14.6689  14.6747  14.7670  14.9044  14.9060
    15.1057  15.2724  15.5097  15.5312  15.6677  15.6942  15.7195  15.9743
    16.0638  16.1001  16.3755  16.4100  16.4936  16.5191  16.6699  16.8237
    16.8955  16.9414  16.9901  17.0222  17.0453  17.1675  17.3399  17.3583
    17.4444  17.6213  17.7268  17.7617  17.8879  17.9033  18.3067  18.3527
    18.3678  18.5273  18.7334  18.8592  18.8896  18.9134  18.9356  19.0017
    19.0882  19.0956  19.3356  19.3557  19.7375  19.7565  19.8449  19.8572

          k = 0.5000 0.0000 0.0000 ( 27368 PWs)   bands (ev):

   -18.4395 -18.4395 -18.4361 -18.4361 -18.4190 -18.4190 -18.4116 -18.4116
   -18.4077 -18.4077 -18.4046 -18.4046 -18.3959 -18.3959 -18.3880 -18.3880
   -18.3861 -18.3861 -18.3827 -18.3826 -18.3805 -18.3805 -18.3773 -18.3773
   -18.3644 -18.3644 -18.3607 -18.3607 -18.3595 -18.3594 -18.3480 -18.3480
   -18.3429 -18.3429 -18.3334 -18.3334 -18.3195 -18.3195 -18.3187 -18.3187
    -9.6492  -9.6492  -9.6311  -9.6311  -9.6152  -9.6152  -9.5256  -9.5256
    -4.6140  -4.6140  -4.4703  -4.4703  -4.3010  -4.3009  -4.1830  -4.1830
    -0.6391  -0.6391  -0.3851  -0.3851  -0.1606  -0.1606  -0.0577  -0.0577
     0.3187   0.3187   0.4365   0.4365   0.6023   0.6023   0.7522   0.7523
     1.6155   1.6155   1.6302   1.6302   1.7075   1.7075   1.8053   1.8053
     4.2470   4.2470   4.3192   4.3192   4.3920   4.3920   4.4094   4.4094
     5.2767   5.2767   5.4751   5.4751   5.6666   5.6666   5.7908   5.7908
     6.0699   6.0699   6.5490   6.5490   6.8671   6.8671   7.3143   7.3143
     8.7158   8.7160   9.2699   9.2700   9.7225   9.7227  10.3167  10.3168
    10.4331  10.4332  10.6169  10.6169  10.7997  10.7997  11.2317  11.2317
    11.5742  11.5743  11.7722  11.7723  12.0397  12.0397  12.1661  12.1661
    12.3201  12.3201  12.7346  12.7346  12.9392  12.9393  13.0919  13.0919
    13.1951  13.1951  13.8512  13.8512  14.1268  14.1268  14.5072  14.5072
    14.5402  14.5403  14.6533  14.6533  14.7139  14.7139  14.8445  14.8445
    15.1729  15.1729  15.5282  15.5283  15.5980  15.5980  15.8428  15.8428
    16.0618  16.0620  16.3709  16.3711  16.6480  16.6483  16.7210  16.7211
    16.7635  16.7639  16.9867  16.9867  17.0883  17.0885  17.4633  17.4640
    17.5004  17.5007  17.6744  17.6745  17.7997  17.7997  18.3630  18.3632
    18.6066  18.6066  18.7816  18.7817  18.7868  18.7869  19.0061  19.0062
    19.0204  19.0204  19.5759  19.5760  19.6334  19.6334  19.8298  19.8299

          k = 0.5000 0.0218 0.0000 ( 27380 PWs)   bands (ev):

   -18.4395 -18.4395 -18.4361 -18.4361 -18.4190 -18.4190 -18.4117 -18.4116
   -18.4077 -18.4077 -18.4046 -18.4046 -18.3959 -18.3958 -18.3880 -18.3880
   -18.3861 -18.3861 -18.3827 -18.3826 -18.3805 -18.3805 -18.3773 -18.3772
   -18.3644 -18.3644 -18.3607 -18.3607 -18.3594 -18.3594 -18.3480 -18.3479
   -18.3429 -18.3429 -18.3334 -18.3334 -18.3195 -18.3195 -18.3187 -18.3187
    -9.6480  -9.6480  -9.6300  -9.6300  -9.6142  -9.6142  -9.5246  -9.5246
    -4.6112  -4.6112  -4.4678  -4.4678  -4.2989  -4.2989  -4.1813  -4.1813
    -0.6449  -0.6449  -0.3952  -0.3952  -0.1749  -0.1748  -0.0716  -0.0716
     0.2977   0.2977   0.4261   0.4261   0.6048   0.6048   0.7542   0.7543
     1.6070   1.6070   1.6248   1.6248   1.7137   1.7137   1.8073   1.8074
     4.2255   4.2255   4.3288   4.3288   4.3903   4.3903   4.4185   4.4185
     5.2931   5.2931   5.4989   5.4989   5.7006   5.7006   5.8306   5.8306
     6.0792   6.0793   6.5555   6.5555   6.8679   6.8679   7.3100   7.3100
     8.7168   8.7170   9.2725   9.2726   9.7195   9.7197  10.2322  10.2322
    10.4083  10.4084  10.7094  10.7094  10.7967  10.7967  11.2180  11.2180
    11.5943  11.5944  11.7796  11.7796  12.0266  12.0266  12.1623  12.1623
    12.3278  12.3278  12.7430  12.7430  12.9229  12.9229  13.1070  13.1070
    13.2282  13.2282  13.8520  13.8520  14.1346  14.1347  14.4956  14.4956
    14.5511  14.5511  14.6528  14.6529  14.7161  14.7161  14.8469  14.8469
    15.1645  15.1645  15.5103  15.5104  15.5642  15.5643  15.8370  15.8370
    16.0393  16.0395  16.3283  16.3284  16.4493  16.4495  16.7814  16.7814
    16.9139  16.9140  17.0096  17.0099  17.0798  17.0799  17.3706  17.3710
    17.5156  17.5157  17.8015  17.8015  17.8607  17.8608  18.2907  18.2909
    18.4909  18.4909  18.8240  18.8241  18.8841  18.8842  18.9982  18.9983
    19.0366  19.0366  19.4799  19.4799  19.6511  19.6512  19.8340  19.8341

          k = 0.5000 0.0436 0.0000 ( 27340 PWs)   bands (ev):

   -18.4397 -18.4397 -18.4363 -18.4363 -18.4192 -18.4192 -18.4118 -18.4118
   -18.4078 -18.4078 -18.4046 -18.4046 -18.3958 -18.3958 -18.3879 -18.3879
   -18.3861 -18.3861 -18.3827 -18.3826 -18.3805 -18.3805 -18.3771 -18.3771
   -18.3644 -18.3644 -18.3606 -18.3606 -18.3593 -18.3593 -18.3479 -18.3479
   -18.3429 -18.3429 -18.3334 -18.3334 -18.3195 -18.3194 -18.3187 -18.3187
    -9.6447  -9.6447  -9.6268  -9.6268  -9.6111  -9.6111  -9.5215  -9.5215
    -4.6029  -4.6029  -4.4604  -4.4604  -4.2928  -4.2927  -4.1764  -4.1763
    -0.6626  -0.6626  -0.4254  -0.4254  -0.2167  -0.2167  -0.1124  -0.1124
     0.2463   0.2463   0.3980   0.3980   0.6045   0.6045   0.7568   0.7568
     1.5722   1.5722   1.6162   1.6162   1.7252   1.7252   1.8185   1.8185
     4.1812   4.1812   4.3301   4.3301   4.4122   4.4122   4.4405   4.4405
     5.3474   5.3474   5.5678   5.5678   5.7906   5.7907   5.9365   5.9365
     6.1118   6.1118   6.5758   6.5758   6.8709   6.8709   7.2973   7.2973
     8.7198   8.7200   9.2801   9.2802   9.7065   9.7067  10.0938  10.0939
    10.3451  10.3451  10.7692  10.7693  10.8924  10.8924  11.1727  11.1728
    11.6461  11.6461  11.7911  11.7912  12.0023  12.0023  12.1586  12.1586
    12.3490  12.3490  12.7607  12.7607  12.8998  12.8998  13.1484  13.1485
    13.3072  13.3072  13.8550  13.8550  14.1537  14.1537  14.4749  14.4749
    14.5708  14.5709  14.6517  14.6518  14.7235  14.7235  14.8547  14.8547
    15.1351  15.1351  15.3895  15.3896  15.5743  15.5743  15.7836  15.7836
    15.9350  15.9352  16.1705  16.1707  16.4270  16.4270  16.7790  16.7790
    16.8140  16.8141  17.0605  17.0606  17.2706  17.2709  17.3289  17.3291
    17.5552  17.5554  17.9308  17.9308  18.0352  18.0353  18.2121  18.2122
    18.2843  18.2843  18.8557  18.8558  18.9481  18.9481  19.0148  19.0149
    19.1113  19.1114  19.3447  19.3447  19.6263  19.6264  19.8127  19.8128

          k = 0.5000 0.0655 0.0000 ( 27340 PWs)   bands (ev):

   -18.4399 -18.4399 -18.4365 -18.4365 -18.4194 -18.4194 -18.4120 -18.4120
   -18.4078 -18.4078 -18.4046 -18.4046 -18.3956 -18.3956 -18.3878 -18.3878
   -18.3861 -18.3861 -18.3827 -18.3826 -18.3806 -18.3806 -18.3769 -18.3769
   -18.3643 -18.3643 -18.3605 -18.3605 -18.3591 -18.3591 -18.3478 -18.3478
   -18.3429 -18.3429 -18.3334 -18.3334 -18.3195 -18.3194 -18.3187 -18.3187
    -9.6391  -9.6391  -9.6214  -9.6214  -9.6060  -9.6060  -9.5164  -9.5164
    -4.5892  -4.5892  -4.4482  -4.4482  -4.2827  -4.2826  -4.1682  -4.1682
    -0.6933  -0.6933  -0.4751  -0.4751  -0.2833  -0.2833  -0.1766  -0.1766
     0.1832   0.1832   0.3583   0.3583   0.5919   0.5920   0.7520   0.7520
     1.5137   1.5137   1.5961   1.5961   1.7321   1.7321   1.8447   1.8447
     4.1322   4.1322   4.3239   4.3239   4.4591   4.4591   4.4904   4.4904
     5.4431   5.4431   5.6724   5.6724   5.9090   5.9090   6.0732   6.0732
     6.1889   6.1889   6.6128   6.6128   6.8785   6.8785   7.2778   7.2778
     8.7246   8.7248   9.2917   9.2919   9.6707   9.6708   9.9809   9.9810
    10.2576  10.2576  10.7635  10.7636  11.0350  11.0350  11.1173  11.1173
    11.6752  11.6752  11.8091  11.8091  12.0065  12.0065  12.1676  12.1676
    12.3794  12.3795  12.7739  12.7739  12.8998  12.8999  13.2148  13.2148
    13.4060  13.4060  13.8605  13.8605  14.1721  14.1722  14.4567  14.4567
    14.5842  14.5842  14.6554  14.6554  14.7367  14.7367  14.8681  14.8681
    15.0683  15.0683  15.2572  15.2574  15.5469  15.5470  15.6716  15.6717
    15.7933  15.7934  16.0843  16.0844  16.4109  16.4110  16.6663  16.6664
    16.7567  16.7568  17.0680  17.0682  17.2943  17.2944  17.4664  17.4665
    17.7233  17.7233  17.9246  17.9247  18.0326  18.0326  18.2453  18.2453
    18.3110  18.3111  18.7982  18.7983  18.9222  18.9222  19.0223  19.0224
    19.1640  19.1641  19.3236  19.3236  19.5873  19.5874  19.7862  19.7862

          k = 0.5000 0.0873 0.0000 ( 27320 PWs)   bands (ev):

   -18.4403 -18.4403 -18.4368 -18.4368 -18.4198 -18.4198 -18.4123 -18.4123
   -18.4079 -18.4079 -18.4047 -18.4047 -18.3955 -18.3955 -18.3877 -18.3877
   -18.3861 -18.3861 -18.3827 -18.3827 -18.3806 -18.3806 -18.3767 -18.3767
   -18.3642 -18.3642 -18.3604 -18.3604 -18.3588 -18.3588 -18.3477 -18.3477
   -18.3429 -18.3429 -18.3334 -18.3333 -18.3194 -18.3194 -18.3187 -18.3187
    -9.6315  -9.6315  -9.6142  -9.6142  -9.5991  -9.5991  -9.5095  -9.5094
    -4.5703  -4.5703  -4.4314  -4.4314  -4.2688  -4.2688  -4.1570  -4.1570
    -0.7388  -0.7388  -0.5429  -0.5429  -0.3695  -0.3694  -0.2579  -0.2579
     0.1190   0.1190   0.3122   0.3122   0.5650   0.5650   0.7325   0.7326
     1.4364   1.4364   1.5591   1.5591   1.7311   1.7311   1.8792   1.8792
     4.0917   4.0917   4.3313   4.3313   4.5221   4.5221   4.5808   4.5808
     5.5722   5.5722   5.7949   5.7949   6.0248   6.0248   6.2059   6.2059
     6.3389   6.3389   6.6734   6.6734   6.8955   6.8955   7.2540   7.2540
     8.7305   8.7307   9.3050   9.3052   9.5995   9.5996   9.9209   9.9210
    10.1629  10.1629  10.7572  10.7572  11.0136  11.0137  11.1603  11.1603
    11.6780  11.6781  11.8245  11.8245  12.0536  12.0537  12.2075  12.2075
    12.4140  12.4140  12.7887  12.7887  12.9277  12.9277  13.2999  13.2999
    13.5154  13.5154  13.8669  13.8669  14.1770  14.1770  14.4462  14.4462
    14.5722  14.5722  14.6698  14.6698  14.7494  14.7494  14.8830  14.8830
    14.9630  14.9630  15.1373  15.1375  15.4429  15.4431  15.5075  15.5076
    15.7627  15.7627  16.0441  16.0442  16.2982  16.2983  16.5293  16.5294
    16.8183  16.8184  16.9898  16.9898  17.3230  17.3230  17.5065  17.5065
    17.7772  17.7773  17.8894  17.8894  18.0094  18.0095  18.3443  18.3445
    18.5073  18.5074  18.7196  18.7196  18.8956  18.8957  18.9830  18.9830
    19.1463  19.1464  19.3257  19.3257  19.6333  19.6334  19.7677  19.7677

          k = 0.5000 0.1091 0.0000 ( 27310 PWs)   bands (ev):

   -18.4407 -18.4407 -18.4372 -18.4372 -18.4202 -18.4202 -18.4127 -18.4126
   -18.4080 -18.4080 -18.4047 -18.4047 -18.3953 -18.3953 -18.3875 -18.3875
   -18.3861 -18.3860 -18.3827 -18.3827 -18.3806 -18.3806 -18.3764 -18.3764
   -18.3641 -18.3641 -18.3602 -18.3602 -18.3585 -18.3585 -18.3476 -18.3475
   -18.3429 -18.3429 -18.3334 -18.3333 -18.3194 -18.3194 -18.3187 -18.3187
    -9.6220  -9.6220  -9.6051  -9.6051  -9.5904  -9.5904  -9.5008  -9.5008
    -4.5462  -4.5462  -4.4102  -4.4101  -4.2514  -4.2513  -4.1431  -4.1431
    -0.8004  -0.8004  -0.6259  -0.6259  -0.4677  -0.4677  -0.3495  -0.3495
     0.0568   0.0568   0.2618   0.2618   0.5243   0.5243   0.6954   0.6954
     1.3464   1.3464   1.5074   1.5075   1.7212   1.7212   1.9095   1.9095
     4.0722   4.0722   4.3629   4.3629   4.6110   4.6111   4.7042   4.7043
     5.7188   5.7188   5.9132   5.9132   6.1320   6.1320   6.3435   6.3436
     6.5254   6.5254   6.7702   6.7702   6.9312   6.9312   7.2313   7.2313
     8.7370   8.7372   9.3126   9.3128   9.5133   9.5133   9.9048   9.9050
    10.0747  10.0747  10.7401  10.7402  10.9585  10.9586  11.1466  11.1466
    11.6954  11.6954  11.8522  11.8522  12.0931  12.0932  12.2872  12.2872
    12.4545  12.4545  12.8240  12.8240  12.9815  12.9815  13.3881  13.3881
    13.6340  13.6340  13.8729  13.8729  14.1612  14.1612  14.4391  14.4391
    14.5314  14.5315  14.6745  14.6745  14.7335  14.7336  14.8532  14.8532
    14.8944  14.8944  15.0379  15.0380  15.2782  15.2783  15.4488  15.4489
    15.7457  15.7458  15.9713  15.9714  16.1970  16.1971  16.4292  16.4292
    16.8545  16.8545  16.9091  16.9091  17.2507  17.2508  17.4755  17.4755
    17.6429  17.6429  17.8658  17.8659  18.1432  18.1432  18.4172  18.4174
    18.6159  18.6159  18.7028  18.7029  18.8771  18.8773  19.0266  19.0267
    19.1159  19.1161  19.3596  19.3597  19.6064  19.6064  19.7184  19.7185

          k = 0.5000 0.1309 0.0000 ( 27284 PWs)   bands (ev):

   -18.4413 -18.4413 -18.4376 -18.4376 -18.4207 -18.4207 -18.4131 -18.4131
   -18.4082 -18.4082 -18.4048 -18.4048 -18.3950 -18.3950 -18.3873 -18.3873
   -18.3860 -18.3860 -18.3827 -18.3827 -18.3806 -18.3806 -18.3761 -18.3761
   -18.3640 -18.3640 -18.3600 -18.3600 -18.3581 -18.3581 -18.3474 -18.3474
   -18.3429 -18.3429 -18.3333 -18.3333 -18.3194 -18.3194 -18.3187 -18.3187
    -9.6108  -9.6108  -9.5944  -9.5943  -9.5802  -9.5802  -9.4906  -9.4905
    -4.5175  -4.5175  -4.3848  -4.3848  -4.2308  -4.2308  -4.1268  -4.1268
    -0.8783  -0.8783  -0.7204  -0.7204  -0.5703  -0.5703  -0.4457  -0.4457
    -0.0043  -0.0043   0.2064   0.2064   0.4706   0.4706   0.6407   0.6407
     1.2505   1.2505   1.4465   1.4465   1.7016   1.7016   1.9262   1.9263
     4.0824   4.0824   4.4221   4.4221   4.7274   4.7274   4.8555   4.8555
     5.8582   5.8582   6.0202   6.0202   6.2429   6.2429   6.4702   6.4702
     6.7118   6.7118   6.9128   6.9129   7.0015   7.0015   7.2218   7.2218
     8.7430   8.7432   9.2931   9.2932   9.4569   9.4569   9.9095   9.9097
    10.0039  10.0039  10.6987  10.6987  10.9295  10.9296  11.0682  11.0682
    11.6764  11.6764  11.9293  11.9293  12.1101  12.1102  12.3636  12.3636
    12.5217  12.5217  12.8840  12.8840  13.0730  13.0730  13.4589  13.4590
    13.7420  13.7420  13.8963  13.8964  14.1199  14.1200  14.4060  14.4060
    14.4727  14.4728  14.6364  14.6364  14.6654  14.6654  14.8129  14.8129
    14.8620  14.8621  15.0067  15.0067  15.1419  15.1420  15.4629  15.4629
    15.6971  15.6971  15.8381  15.8383  16.1674  16.1674  16.3639  16.3640
    16.7305  16.7306  16.9111  16.9111  17.1184  17.1185  17.2998  17.2998
    17.6096  17.6096  17.8454  17.8454  18.1427  18.1427  18.4396  18.4396
    18.6193  18.6193  18.7047  18.7047  18.9120  18.9120  19.1247  19.1248
    19.2469  19.2470  19.4508  19.4509  19.4771  19.4772  19.6338  19.6339

          k = 0.5000 0.1528 0.0000 ( 27260 PWs)   bands (ev):

   -18.4418 -18.4418 -18.4381 -18.4381 -18.4212 -18.4212 -18.4136 -18.4135
   -18.4083 -18.4083 -18.4048 -18.4048 -18.3948 -18.3948 -18.3872 -18.3872
   -18.3859 -18.3859 -18.3827 -18.3826 -18.3806 -18.3806 -18.3757 -18.3757
   -18.3638 -18.3638 -18.3598 -18.3598 -18.3577 -18.3576 -18.3472 -18.3472
   -18.3429 -18.3429 -18.3333 -18.3333 -18.3194 -18.3194 -18.3187 -18.3187
    -9.5981  -9.5981  -9.5822  -9.5822  -9.5687  -9.5687  -9.4791  -9.4790
    -4.4843  -4.4843  -4.3559  -4.3559  -4.2075  -4.2075  -4.1085  -4.1085
    -0.9705  -0.9705  -0.8219  -0.8219  -0.6715  -0.6715  -0.5424  -0.5424
    -0.0669  -0.0669   0.1439   0.1439   0.4046   0.4047   0.5709   0.5709
     1.1553   1.1553   1.3825   1.3825   1.6740   1.6740   1.9254   1.9254
     4.1259   4.1259   4.5072   4.5072   4.8671   4.8671   5.0294   5.0294
     5.9584   5.9584   6.1369   6.1369   6.3450   6.3450   6.5715   6.5715
     6.8877   6.8877   7.0658   7.0658   7.1270   7.1270   7.2625   7.2625
     8.7475   8.7477   9.2368   9.2368   9.4528   9.4529   9.9111   9.9112
     9.9687   9.9687  10.6345  10.6346  10.9018  10.9019  11.0001  11.0002
    11.6330  11.6330  11.9978  11.9978  12.1131  12.1131  12.4115  12.4116
    12.6230  12.6230  12.9678  12.9678  13.2054  13.2054  13.4871  13.4873
    13.7888  13.7888  13.9838  13.9839  14.0473  14.0473  14.2975  14.2976
    14.4364  14.4364  14.5684  14.5685  14.6262  14.6262  14.7643  14.7644
    14.8559  14.8560  14.9779  14.9779  15.0926  15.0927  15.4688  15.4688
    15.6212  15.6213  15.7461  15.7462  16.1531  16.1531  16.3128  16.3128
    16.5793  16.5793  16.8069  16.8070  17.0093  17.0093  17.0968  17.0968
    17.5584  17.5585  17.7836  17.7836  18.1863  18.1863  18.3426  18.3426
    18.5235  18.5236  18.7720  18.7720  18.9863  18.9863  19.2315  19.2316
    19.2831  19.2831  19.5179  19.5180  19.5509  19.5509  19.5680  19.5681

          k = 0.5000 0.1746 0.0000 ( 27232 PWs)   bands (ev):

   -18.4425 -18.4425 -18.4386 -18.4386 -18.4218 -18.4218 -18.4141 -18.4141
   -18.4085 -18.4085 -18.4049 -18.4049 -18.3945 -18.3945 -18.3871 -18.3871
   -18.3859 -18.3859 -18.3826 -18.3826 -18.3806 -18.3806 -18.3753 -18.3753
   -18.3637 -18.3636 -18.3596 -18.3595 -18.3572 -18.3572 -18.3470 -18.3469
   -18.3429 -18.3429 -18.3333 -18.3333 -18.3194 -18.3194 -18.3187 -18.3186
    -9.5843  -9.5843  -9.5690  -9.5690  -9.5562  -9.5562  -9.4665  -9.4664
    -4.4473  -4.4473  -4.3238  -4.3238  -4.1820  -4.1820  -4.0886  -4.0886
    -1.0725  -1.0725  -0.9262  -0.9262  -0.7682  -0.7682  -0.6362  -0.6362
    -0.1348  -0.1348   0.0719   0.0719   0.3271   0.3271   0.4896   0.4896
     1.0659   1.0659   1.3213   1.3213   1.6417   1.6417   1.9078   1.9079
     4.2005   4.2005   4.6131   4.6131   5.0240   5.0240   5.2207   5.2207
     6.0170   6.0170   6.2605   6.2605   6.4218   6.4218   6.6514   6.6514
     7.0485   7.0485   7.1761   7.1761   7.3001   7.3001   7.4147   7.4147
     8.7498   8.7499   9.1768   9.1768   9.4745   9.4746   9.8938   9.8938
     9.9828   9.9830  10.5580  10.5580  10.8306  10.8306  11.0025  11.0027
    11.5851  11.5851  12.0278  12.0278  12.1051  12.1051  12.4501  12.4501
    12.7187  12.7187  13.0861  13.0861  13.3356  13.3357  13.4731  13.4731
    13.8278  13.8278  13.8832  13.8834  14.1355  14.1355  14.1774  14.1775
    14.4071  14.4072  14.5259  14.5259  14.6027  14.6027  14.7223  14.7223
    14.8467  14.8467  14.9584  14.9584  15.0907  15.0909  15.3927  15.3927
    15.5322  15.5322  15.7826  15.7826  16.1087  16.1088  16.2569  16.2570
    16.4106  16.4106  16.6293  16.6294  16.8698  16.8698  16.9450  16.9450
    17.4646  17.4646  17.7360  17.7360  18.1988  18.1989  18.2978  18.2978
    18.4290  18.4290  18.8136  18.8137  19.0246  19.0247  19.1921  19.1921
    19.2998  19.2998  19.4705  19.4705  19.5488  19.5489  19.8526  19.8529

          k = 0.5000 0.1964 0.0000 ( 27214 PWs)   bands (ev):

   -18.4431 -18.4431 -18.4392 -18.4392 -18.4224 -18.4224 -18.4146 -18.4146
   -18.4087 -18.4087 -18.4050 -18.4050 -18.3942 -18.3942 -18.3870 -18.3870
   -18.3858 -18.3858 -18.3825 -18.3825 -18.3806 -18.3806 -18.3749 -18.3749
   -18.3635 -18.3635 -18.3593 -18.3593 -18.3567 -18.3567 -18.3467 -18.3467
   -18.3429 -18.3429 -18.3333 -18.3333 -18.3194 -18.3194 -18.3187 -18.3186
    -9.5695  -9.5695  -9.5550  -9.5550  -9.5430  -9.5430  -9.4531  -9.4531
    -4.4070  -4.4070  -4.2891  -4.2891  -4.1549  -4.1549  -4.0678  -4.0678
    -1.1787  -1.1787  -1.0293  -1.0293  -0.8593  -0.8593  -0.7248  -0.7248
    -0.2115  -0.2115  -0.0111  -0.0111   0.2393   0.2393   0.4010   0.4010
     0.9865   0.9865   1.2676   1.2676   1.6083   1.6083   1.8772   1.8772
     4.3007   4.3007   4.7329   4.7329   5.1900   5.1900   5.4238   5.4238
     6.0529   6.0529   6.3633   6.3633   6.4757   6.4758   6.7151   6.7151
     7.1795   7.1795   7.3164   7.3164   7.4994   7.4994   7.6257   7.6257
     8.7502   8.7503   9.1336   9.1336   9.5055   9.5056   9.8859   9.8859
    10.0157  10.0159  10.4773  10.4774  10.7608  10.7608  11.0355  11.0357
    11.5414  11.5414  12.0286  12.0286  12.0867  12.0868  12.4891  12.4892
    12.7827  12.7828  13.1673  13.1675  13.3838  13.3838  13.5232  13.5233
    13.7234  13.7234  13.8986  13.8987  14.0548  14.0548  14.2377  14.2377
    14.4048  14.4048  14.5007  14.5007  14.5960  14.5960  14.7066  14.7066
    14.8033  14.8033  14.9605  14.9606  15.1060  15.1062  15.3020  15.3020
    15.4500  15.4501  15.8606  15.8607  16.0222  16.0223  16.1759  16.1760
    16.2368  16.2369  16.4427  16.4428  16.6956  16.6956  16.8382  16.8382
    17.3635  17.3636  17.7148  17.7148  18.0765  18.0766  18.3657  18.3657
    18.4118  18.4118  18.8213  18.8213  18.9047  18.9048  19.2447  19.2447
    19.2764  19.2765  19.4399  19.4399  19.5733  19.5733  19.9205  19.9205

          k = 0.5000 0.2182 0.0000 ( 27232 PWs)   bands (ev):

   -18.4438 -18.4438 -18.4398 -18.4397 -18.4230 -18.4230 -18.4152 -18.4152
   -18.4089 -18.4089 -18.4051 -18.4051 -18.3939 -18.3939 -18.3870 -18.3870
   -18.3857 -18.3857 -18.3824 -18.3824 -18.3806 -18.3806 -18.3745 -18.3745
   -18.3633 -18.3633 -18.3591 -18.3591 -18.3562 -18.3562 -18.3465 -18.3465
   -18.3429 -18.3429 -18.3333 -18.3333 -18.3194 -18.3194 -18.3187 -18.3186
    -9.5542  -9.5542  -9.5405  -9.5405  -9.5294  -9.5294  -9.4393  -9.4393
    -4.3641  -4.3641  -4.2527  -4.2526  -4.1269  -4.1269  -4.0466  -4.0466
    -1.2840  -1.2840  -1.1279  -1.1279  -0.9438  -0.9438  -0.8064  -0.8063
    -0.2985  -0.2985  -0.1049  -0.1049   0.1428   0.1428   0.3080   0.3080
     0.9200   0.9200   1.2242   1.2243   1.5766   1.5767   1.8382   1.8382
     4.4194   4.4194   4.8591   4.8591   5.3552   5.3552   5.6328   5.6328
     6.0762   6.0763   6.4284   6.4284   6.5212   6.5212   6.7723   6.7723
     7.3048   7.3048   7.4987   7.4988   7.7084   7.7084   7.8448   7.8448
     8.7517   8.7518   9.1128   9.1128   9.5413   9.5414   9.8952   9.8952
    10.0557  10.0558  10.4017  10.4017  10.7133  10.7133  11.0780  11.0781
    11.5064  11.5064  12.0139  12.0140  12.0624  12.0625  12.5246  12.5246
    12.8198  12.8199  13.0817  13.0819  13.3787  13.3788  13.5704  13.5704
    13.7421  13.7422  13.8443  13.8445  14.0732  14.0732  14.2615  14.2616
    14.4198  14.4199  14.4925  14.4925  14.5992  14.5992  14.6885  14.6885
    14.7684  14.7685  14.9693  14.9693  15.1242  15.1243  15.2510  15.2510
    15.3848  15.3848  15.8720  15.8720  15.9370  15.9371  16.0423  16.0423
    16.0890  16.0890  16.2748  16.2748  16.5748  16.5748  16.7281  16.7281
    17.2790  17.2790  17.7166  17.7166  17.9507  17.9508  18.3995  18.3996
    18.4545  18.4546  18.7209  18.7210  18.8493  18.8493  19.2282  19.2283
    19.2760  19.2761  19.4141  19.4141  19.6023  19.6023  19.8910  19.8911

          k = 0.5000 0.2401 0.0000 ( 27220 PWs)   bands (ev):

   -18.4445 -18.4445 -18.4403 -18.4403 -18.4237 -18.4237 -18.4158 -18.4157
   -18.4091 -18.4091 -18.4052 -18.4052 -18.3936 -18.3936 -18.3870 -18.3870
   -18.3857 -18.3857 -18.3822 -18.3822 -18.3805 -18.3805 -18.3741 -18.3741
   -18.3631 -18.3631 -18.3588 -18.3588 -18.3557 -18.3557 -18.3462 -18.3462
   -18.3428 -18.3428 -18.3333 -18.3332 -18.3194 -18.3194 -18.3186 -18.3186
    -9.5386  -9.5386  -9.5259  -9.5259  -9.5157  -9.5157  -9.4254  -9.4253
    -4.3195  -4.3195  -4.2152  -4.2152  -4.0987  -4.0987  -4.0255  -4.0254
    -1.3840  -1.3840  -1.2195  -1.2195  -1.0205  -1.0205  -0.8798  -0.8798
    -0.3948  -0.3948  -0.2077  -0.2077   0.0396   0.0396   0.2117   0.2117
     0.8689   0.8689   1.1922   1.1922   1.5484   1.5484   1.7948   1.7948
     4.5499   4.5499   4.9849   4.9849   5.5068   5.5068   5.8414   5.8414
     6.0918   6.0918   6.4612   6.4612   6.5685   6.5685   6.8340   6.8340
     7.4402   7.4403   7.6907   7.6907   7.9160   7.9160   8.0578   8.0578
     8.7605   8.7606   9.1138   9.1139   9.5806   9.5807   9.9192   9.9192
    10.1001  10.1002  10.3404  10.3404  10.6920  10.6920  11.1231  11.1233
    11.4826  11.4827  11.9886  11.9887  12.0424  12.0424  12.5415  12.5416
    12.8196  12.8198  12.9707  12.9708  13.2024  13.2025  13.5985  13.5987
    13.7670  13.7672  13.8952  13.8953  14.1641  14.1641  14.2500  14.2501
    14.3377  14.3379  14.5163  14.5164  14.6343  14.6343  14.6681  14.6681
    14.7609  14.7609  14.9604  14.9604  15.1221  15.1222  15.2606  15.2606
    15.3522  15.3523  15.7645  15.7646  15.8734  15.8734  15.9087  15.9087
    15.9638  15.9638  16.1547  16.1547  16.4928  16.4929  16.6683  16.6683
    17.2000  17.2001  17.7373  17.7373  17.8508  17.8509  18.3837  18.3837
    18.4674  18.4675  18.6412  18.6413  18.7941  18.7941  19.1842  19.1842
    19.2988  19.2988  19.3849  19.3850  19.5767  19.5767  19.8565  19.8566

          k = 0.5000 0.2619 0.0000 ( 27202 PWs)   bands (ev):

   -18.4452 -18.4452 -18.4409 -18.4409 -18.4243 -18.4243 -18.4163 -18.4163
   -18.4093 -18.4093 -18.4053 -18.4053 -18.3934 -18.3934 -18.3870 -18.3870
   -18.3856 -18.3856 -18.3821 -18.3821 -18.3804 -18.3804 -18.3737 -18.3737
   -18.3629 -18.3629 -18.3586 -18.3586 -18.3552 -18.3552 -18.3460 -18.3460
   -18.3428 -18.3428 -18.3332 -18.3332 -18.3194 -18.3194 -18.3186 -18.3186
    -9.5232  -9.5232  -9.5115  -9.5115  -9.5023  -9.5023  -9.4117  -9.4117
    -4.2740  -4.2740  -4.1777  -4.1777  -4.0713  -4.0712  -4.0050  -4.0050
    -1.4759  -1.4759  -1.3017  -1.3017  -1.0881  -1.0881  -0.9449  -0.9449
    -0.4960  -0.4960  -0.3160  -0.3160  -0.0680  -0.0680   0.1124   0.1124
     0.8337   0.8337   1.1710   1.1710   1.5241   1.5241   1.7500   1.7500
     4.6862   4.6862   5.1041   5.1041   5.6289   5.6289   6.0385   6.0385
     6.1050   6.1050   6.4890   6.4890   6.6213   6.6213   6.8998   6.8998
     7.5738   7.5738   7.8780   7.8780   8.1160   8.1160   8.2589   8.2589
     8.7844   8.7845   9.1328   9.1329   9.6226   9.6226   9.9540   9.9541
    10.1484  10.1485  10.3003  10.3003  10.6984  10.6984  11.1661  11.1662
    11.4714  11.4714  11.9552  11.9553  12.0342  12.0342  12.5141  12.5143
    12.7298  12.7299  12.9312  12.9313  13.0591  13.0591  13.4238  13.4240
    13.8697  13.8698  13.9673  13.9674  14.1613  14.1614  14.2379  14.2379
    14.2982  14.2983  14.4993  14.4993  14.6506  14.6506  14.6986  14.6986
    14.7651  14.7651  14.9138  14.9138  15.1324  15.1325  15.2995  15.2995
    15.3474  15.3474  15.6593  15.6593  15.7636  15.7637  15.8235  15.8235
    15.8669  15.8669  16.0926  16.0927  16.4109  16.4109  16.6931  16.6931
    17.1203  17.1204  17.7296  17.7296  17.8051  17.8051  18.3098  18.3098
    18.4152  18.4153  18.5856  18.5856  18.7883  18.7883  19.1056  19.1056
    19.2686  19.2686  19.4226  19.4227  19.5233  19.5233  19.7886  19.7886

          k = 0.5000 0.2837 0.0000 ( 27194 PWs)   bands (ev):

   -18.4458 -18.4458 -18.4414 -18.4414 -18.4248 -18.4248 -18.4168 -18.4168
   -18.4094 -18.4094 -18.4054 -18.4054 -18.3931 -18.3931 -18.3870 -18.3870
   -18.3856 -18.3856 -18.3819 -18.3819 -18.3803 -18.3803 -18.3733 -18.3733
   -18.3627 -18.3627 -18.3583 -18.3583 -18.3548 -18.3547 -18.3458 -18.3457
   -18.3428 -18.3428 -18.3332 -18.3332 -18.3194 -18.3193 -18.3186 -18.3186
    -9.5084  -9.5084  -9.4977  -9.4977  -9.4896  -9.4896  -9.3986  -9.3985
    -4.2289  -4.2289  -4.1411  -4.1411  -4.0454  -4.0454  -3.9857  -3.9857
    -1.5574  -1.5574  -1.3731  -1.3731  -1.1456  -1.1456  -1.0024  -1.0024
    -0.5962  -0.5962  -0.4256  -0.4256  -0.1771  -0.1771   0.0106   0.0106
     0.8134   0.8134   1.1592   1.1592   1.5037   1.5037   1.7058   1.7058
     4.8237   4.8237   5.2122   5.2122   5.7090   5.7090   6.0888   6.0888
     6.2389   6.2389   6.5407   6.5407   6.6823   6.6823   6.9633   6.9633
     7.6919   7.6919   8.0531   8.0531   8.3052   8.3052   8.4450   8.4450
     8.8293   8.8293   9.1645   9.1645   9.6663   9.6663   9.9956   9.9957
    10.1999  10.2000  10.2872  10.2872  10.7325  10.7326  11.2021  11.2022
    11.4730  11.4730  11.9164  11.9165  12.0394  12.0394  12.4309  12.4311
    12.5824  12.5826  12.9045  12.9046  13.0063  13.0064  13.2499  13.2500
    13.8250  13.8251  13.9717  13.9717  14.1079  14.1079  14.2402  14.2402
    14.2850  14.2850  14.4534  14.4534  14.6528  14.6528  14.7370  14.7370
    14.8033  14.8033  14.8767  14.8768  15.1705  15.1706  15.3009  15.3009
    15.3714  15.3714  15.5677  15.5677  15.6763  15.6765  15.7797  15.7797
    15.8530  15.8530  16.0629  16.0629  16.3744  16.3744  16.7289  16.7289
    17.0667  17.0668  17.6408  17.6409  17.8258  17.8258  18.2167  18.2167
    18.3017  18.3018  18.5290  18.5290  18.8240  18.8241  18.9744  18.9744
    19.2370  19.2371  19.4445  19.4445  19.4827  19.4827  19.7492  19.7492

          k = 0.5000 0.3055 0.0000 ( 27190 PWs)   bands (ev):

   -18.4464 -18.4464 -18.4419 -18.4419 -18.4254 -18.4254 -18.4173 -18.4173
   -18.4096 -18.4096 -18.4055 -18.4054 -18.3929 -18.3929 -18.3870 -18.3870
   -18.3857 -18.3857 -18.3817 -18.3817 -18.3802 -18.3802 -18.3730 -18.3730
   -18.3625 -18.3625 -18.3581 -18.3581 -18.3543 -18.3543 -18.3456 -18.3455
   -18.3428 -18.3428 -18.3332 -18.3332 -18.3193 -18.3193 -18.3186 -18.3186
    -9.4944  -9.4944  -9.4848  -9.4848  -9.4779  -9.4779  -9.3864  -9.3863
    -4.1852  -4.1852  -4.1065  -4.1065  -4.0219  -4.0219  -3.9681  -3.9680
    -1.6269  -1.6269  -1.4323  -1.4323  -1.1922  -1.1922  -1.0544  -1.0544
    -0.6877  -0.6877  -0.5323  -0.5323  -0.2848  -0.2848  -0.0920  -0.0920
     0.8056   0.8056   1.1548   1.1548   1.4866   1.4866   1.6636   1.6636
     4.9587   4.9587   5.3065   5.3065   5.7481   5.7481   6.0653   6.0654
     6.4083   6.4084   6.6246   6.6246   6.7534   6.7534   7.0195   7.0195
     7.7859   7.7859   8.2110   8.2110   8.4816   8.4816   8.6153   8.6153
     8.8963   8.8963   9.2037   9.2037   9.7103   9.7103  10.0386  10.0386
    10.2467  10.2467  10.3140  10.3140  10.7916  10.7917  11.2268  11.2268
    11.4872  11.4873  11.8685  11.8685  12.0574  12.0575  12.3221  12.3222
    12.4194  12.4194  12.8555  12.8555  12.9780  12.9783  13.1305  13.1305
    13.6621  13.6623  13.9106  13.9106  14.0636  14.0637  14.1666  14.1666
    14.2578  14.2579  14.4233  14.4233  14.6176  14.6176  14.7857  14.7857
    14.8372  14.8372  14.9254  14.9255  15.2184  15.2184  15.2829  15.2829
    15.3980  15.3981  15.4822  15.4822  15.6306  15.6307  15.7927  15.7928
    15.9062  15.9062  16.0763  16.0763  16.4121  16.4121  16.7095  16.7095
    17.0815  17.0816  17.5254  17.5256  17.8276  17.8277  18.0908  18.0909
    18.1819  18.1820  18.4788  18.4789  18.7727  18.7727  18.9012  18.9013
    19.1790  19.1791  19.3903  19.3903  19.4956  19.4956  19.7529  19.7529

          k = 0.5000 0.3274 0.0000 ( 27208 PWs)   bands (ev):

   -18.4469 -18.4469 -18.4423 -18.4423 -18.4258 -18.4258 -18.4177 -18.4177
   -18.4098 -18.4098 -18.4055 -18.4055 -18.3927 -18.3927 -18.3870 -18.3870
   -18.3857 -18.3857 -18.3816 -18.3816 -18.3801 -18.3801 -18.3727 -18.3727
   -18.3624 -18.3624 -18.3579 -18.3579 -18.3540 -18.3539 -18.3454 -18.3453
   -18.3427 -18.3427 -18.3332 -18.3332 -18.3193 -18.3193 -18.3186 -18.3185
    -9.4818  -9.4818  -9.4733  -9.4733  -9.4675  -9.4675  -9.3754  -9.3754
    -4.1443  -4.1443  -4.0751  -4.0751  -4.0018  -4.0018  -3.9522  -3.9522
    -1.6836  -1.6836  -1.4790  -1.4790  -1.2280  -1.2280  -1.1042  -1.1042
    -0.7628  -0.7628  -0.6315  -0.6315  -0.3876  -0.3876  -0.1927  -0.1926
     0.8070   0.8070   1.1558   1.1558   1.4725   1.4725   1.6247   1.6247
     5.0884   5.0884   5.3859   5.3859   5.7584   5.7584   6.0226   6.0226
     6.5578   6.5578   6.7205   6.7205   6.8360   6.8360   7.0664   7.0664
     7.8537   7.8537   8.3494   8.3494   8.6436   8.6436   8.7697   8.7697
     8.9800   8.9800   9.2460   9.2460   9.7516   9.7516  10.0783  10.0783
    10.2866  10.2866  10.3860  10.3861  10.8697  10.8698  11.2363  11.2363
    11.5129  11.5131  11.8019  11.8020  12.0802  12.0804  12.2143  12.2144
    12.2796  12.2796  12.7751  12.7751  12.8809  12.8812  13.1226  13.1228
    13.4780  13.4782  13.7614  13.7614  13.9936  13.9936  14.0857  14.0857
    14.1849  14.1849  14.4348  14.4348  14.5810  14.5810  14.8219  14.8220
    14.8626  14.8627  15.0048  15.0049  15.2267  15.2267  15.3124  15.3124
    15.3900  15.3901  15.4315  15.4315  15.6429  15.6430  15.8329  15.8330
    15.9709  15.9710  16.1835  16.1836  16.5031  16.5031  16.6510  16.6511
    17.1406  17.1406  17.4064  17.4066  17.7802  17.7802  17.9391  17.9391
    18.0667  18.0668  18.4215  18.4215  18.6425  18.6426  18.8892  18.8892
    19.0725  19.0725  19.3412  19.3412  19.5138  19.5138  19.6865  19.6865

          k = 0.5000 0.3492 0.0000 ( 27214 PWs)   bands (ev):

   -18.4474 -18.4474 -18.4427 -18.4427 -18.4262 -18.4262 -18.4181 -18.4180
   -18.4099 -18.4099 -18.4056 -18.4056 -18.3926 -18.3926 -18.3870 -18.3870
   -18.3857 -18.3857 -18.3815 -18.3815 -18.3800 -18.3800 -18.3725 -18.3725
   -18.3623 -18.3623 -18.3578 -18.3578 -18.3537 -18.3536 -18.3452 -18.3452
   -18.3427 -18.3427 -18.3332 -18.3332 -18.3193 -18.3193 -18.3186 -18.3185
    -9.4707  -9.4707  -9.4634  -9.4634  -9.4588  -9.4588  -9.3660  -9.3660
    -4.1076  -4.1076  -4.0478  -4.0478  -3.9856  -3.9856  -3.9386  -3.9386
    -1.7273  -1.7273  -1.5133  -1.5133  -1.2538  -1.2538  -1.1544  -1.1544
    -0.8154  -0.8154  -0.7185  -0.7185  -0.4820  -0.4820  -0.2881  -0.2881
     0.8143   0.8143   1.1601   1.1601   1.4609   1.4609   1.5900   1.5900
     5.2105   5.2105   5.4508   5.4508   5.7529   5.7529   5.9677   5.9677
     6.6841   6.6842   6.8046   6.8046   6.9264   6.9264   7.1042   7.1042
     7.8986   7.8987   8.4670   8.4670   8.7889   8.7889   8.9072   8.9072
     9.0693   9.0694   9.2883   9.2884   9.7847   9.7847  10.1141  10.1141
    10.3343  10.3343  10.4862  10.4863  10.9573  10.9574  11.2297  11.2298
    11.5437  11.5439  11.7143  11.7143  12.0557  12.0558  12.1282  12.1282
    12.2211  12.2212  12.6661  12.6661  12.7759  12.7760  13.1469  13.1472
    13.2980  13.2981  13.5896  13.5896  13.8433  13.8433  14.0370  14.0371
    14.1404  14.1404  14.4159  14.4159  14.6095  14.6096  14.8389  14.8389
    14.8692  14.8692  15.0606  15.0606  15.2099  15.2099  15.3368  15.3368
    15.3875  15.3876  15.4263  15.4263  15.6893  15.6894  15.8855  15.8855
    16.0701  16.0701  16.3513  16.3513  16.5621  16.5622  16.6514  16.6514
    17.1670  17.1671  17.3264  17.3265  17.6826  17.6826  17.7872  17.7872
    17.9618  17.9618  18.2971  18.2972  18.5821  18.5821  18.8366  18.8366
    18.9488  18.9488  19.2776  19.2777  19.4875  19.4876  19.6578  19.6578

          k = 0.5000 0.3710 0.0000 ( 27198 PWs)   bands (ev):

   -18.4477 -18.4477 -18.4430 -18.4430 -18.4266 -18.4265 -18.4184 -18.4183
   -18.4100 -18.4100 -18.4057 -18.4056 -18.3924 -18.3924 -18.3870 -18.3870
   -18.3858 -18.3858 -18.3814 -18.3814 -18.3799 -18.3799 -18.3723 -18.3723
   -18.3622 -18.3622 -18.3577 -18.3577 -18.3534 -18.3534 -18.3451 -18.3450
   -18.3427 -18.3427 -18.3332 -18.3332 -18.3193 -18.3193 -18.3186 -18.3185
    -9.4615  -9.4615  -9.4554  -9.4553  -9.4519  -9.4519  -9.3584  -9.3583
    -4.0764  -4.0764  -4.0258  -4.0258  -3.9737  -3.9737  -3.9274  -3.9273
    -1.7585  -1.7585  -1.5361  -1.5361  -1.2713  -1.2713  -1.2034  -1.2034
    -0.8460  -0.8459  -0.7874  -0.7874  -0.5639  -0.5639  -0.3741  -0.3741
     0.8242   0.8242   1.1659   1.1659   1.4515   1.4515   1.5608   1.5608
     5.3228   5.3228   5.5023   5.5023   5.7401   5.7401   5.9060   5.9060
     6.7842   6.7842   6.8696   6.8696   7.0111   7.0111   7.1341   7.1341
     7.9268   7.9268   8.5622   8.5622   8.9133   8.9133   9.0250   9.0250
     9.1520   9.1520   9.3285   9.3285   9.8048   9.8048  10.1461  10.1461
    10.3930  10.3931  10.6048  10.6049  11.0313  11.0314  11.2199  11.2200
    11.5305  11.5308  11.6551  11.6552  11.9724  11.9724  12.0652  12.0653
    12.2534  12.2534  12.5638  12.5639  12.6742  12.6743  13.0949  13.0952
    13.2047  13.2047  13.4316  13.4316  13.6918  13.6918  13.9455  13.9457
    14.1677  14.1677  14.3860  14.3860  14.6682  14.6683  14.8394  14.8394
    14.8614  14.8614  15.0432  15.0432  15.2223  15.2223  15.3612  15.3612
    15.4132  15.4132  15.4380  15.4380  15.7337  15.7338  15.9347  15.9347
    16.2178  16.2178  16.4785  16.4785  16.5842  16.5842  16.7588  16.7588
    17.1077  17.1079  17.3183  17.3184  17.5607  17.5607  17.6477  17.6477
    17.8903  17.8904  18.1445  18.1446  18.5239  18.5239  18.7576  18.7576
    18.8604  18.8605  19.1791  19.1792  19.4242  19.4243  19.6947  19.6947

          k = 0.5000 0.3928 0.0000 ( 27206 PWs)   bands (ev):

   -18.4480 -18.4480 -18.4432 -18.4432 -18.4268 -18.4268 -18.4186 -18.4186
   -18.4101 -18.4101 -18.4057 -18.4057 -18.3923 -18.3923 -18.3871 -18.3871
   -18.3858 -18.3858 -18.3814 -18.3814 -18.3798 -18.3798 -18.3721 -18.3721
   -18.3621 -18.3621 -18.3576 -18.3576 -18.3532 -18.3532 -18.3450 -18.3449
   -18.3427 -18.3427 -18.3332 -18.3332 -18.3193 -18.3193 -18.3186 -18.3185
    -9.4545  -9.4545  -9.4495  -9.4495  -9.4471  -9.4471  -9.3528  -9.3527
    -4.0520  -4.0520  -4.0097  -4.0097  -3.9661  -3.9661  -3.9189  -3.9189
    -1.7786  -1.7786  -1.5494  -1.5494  -1.2834  -1.2834  -1.2447  -1.2447
    -0.8670  -0.8670  -0.8272  -0.8272  -0.6287  -0.6287  -0.4453  -0.4453
     0.8338   0.8338   1.1715   1.1715   1.4445   1.4445   1.5386   1.5386
     5.4224   5.4224   5.5411   5.5411   5.7259   5.7259   5.8415   5.8415
     6.8554   6.8554   6.9158   6.9158   7.0778   7.0778   7.1565   7.1565
     7.9438   7.9438   8.6326   8.6326   9.0104   9.0104   9.1177   9.1178
     9.2178   9.2178   9.3634   9.3634   9.8124   9.8124  10.1705  10.1706
    10.4598  10.4600  10.7351  10.7352  11.0413  11.0413  11.2390  11.2391
    11.4413  11.4416  11.6696  11.6697  11.9007  11.9007  12.0139  12.0140
    12.3058  12.3058  12.4836  12.4836  12.5943  12.5944  12.9432  12.9435
    13.2062  13.2062  13.3276  13.3277  13.5635  13.5635  13.8578  13.8580
    14.2092  14.2092  14.3788  14.3788  14.7188  14.7189  14.8262  14.8262
    14.8517  14.8517  14.9727  14.9727  15.2684  15.2684  15.3964  15.3964
    15.4320  15.4320  15.4626  15.4626  15.7765  15.7766  15.9656  15.9657
    16.3623  16.3623  16.4852  16.4852  16.7261  16.7261  16.8560  16.8560
    17.0468  17.0469  17.2975  17.2975  17.4487  17.4487  17.5318  17.5318
    17.8581  17.8582  18.0224  18.0224  18.4343  18.4343  18.6580  18.6580
    18.8248  18.8248  19.0625  19.0625  19.4132  19.4132  19.7001  19.7001

          k = 0.5000 0.4146 0.0000 ( 27194 PWs)   bands (ev):

   -18.4481 -18.4481 -18.4433 -18.4433 -18.4269 -18.4269 -18.4187 -18.4187
   -18.4101 -18.4101 -18.4057 -18.4057 -18.3923 -18.3923 -18.3871 -18.3871
   -18.3858 -18.3858 -18.3813 -18.3813 -18.3797 -18.3797 -18.3720 -18.3720
   -18.3620 -18.3620 -18.3575 -18.3575 -18.3531 -18.3531 -18.3449 -18.3449
   -18.3427 -18.3427 -18.3332 -18.3332 -18.3193 -18.3193 -18.3186 -18.3185
    -9.4500  -9.4500  -9.4459  -9.4459  -9.4443  -9.4443  -9.3494  -9.3493
    -4.0362  -4.0362  -4.0002  -4.0002  -3.9621  -3.9621  -3.9137  -3.9137
    -1.7895  -1.7895  -1.5558  -1.5558  -1.2936  -1.2936  -1.2696  -1.2696
    -0.8888  -0.8888  -0.8347  -0.8347  -0.6710  -0.6709  -0.4942  -0.4942
     0.8407   0.8407   1.1755   1.1755   1.4400   1.4400   1.5246   1.5247
     5.5022   5.5022   5.5654   5.5654   5.7168   5.7168   5.7810   5.7810
     6.8974   6.8974   6.9432   6.9432   7.1207   7.1207   7.1701   7.1702
     7.9529   7.9530   8.6759   8.6759   9.0730   9.0730   9.1782   9.1782
     9.2596   9.2596   9.3879   9.3879   9.8128   9.8128  10.1845  10.1845
    10.5215  10.5217  10.8657  10.8657  11.0048  11.0049  11.1974  11.1977
    11.4406  11.4406  11.6510  11.6512  11.8668  11.8669  11.9868  11.9869
    12.3393  12.3394  12.4216  12.4216  12.5772  12.5773  12.8106  12.8109
    13.1621  13.1621  13.3239  13.3240  13.4710  13.4710  13.7929  13.7931
    14.2364  14.2364  14.3980  14.3980  14.7431  14.7431  14.8176  14.8177
    14.8464  14.8464  14.9042  14.9043  15.3079  15.3079  15.4219  15.4219
    15.4513  15.4513  15.4815  15.4815  15.8121  15.8121  15.9791  15.9792
    16.4397  16.4398  16.5022  16.5023  16.8416  16.8416  16.9269  16.9269
    17.0283  17.0283  17.2470  17.2471  17.3715  17.3715  17.4576  17.4576
    17.8234  17.8235  17.9750  17.9751  18.3564  18.3564  18.5827  18.5827
    18.7974  18.7975  18.9661  18.9662  19.4554  19.4554  19.6816  19.6816

          k = 0.5000 0.4365 0.0000 ( 27152 PWs)   bands (ev):

   -18.4482 -18.4482 -18.4434 -18.4434 -18.4270 -18.4270 -18.4188 -18.4187
   -18.4101 -18.4101 -18.4057 -18.4057 -18.3922 -18.3922 -18.3871 -18.3871
   -18.3858 -18.3858 -18.3813 -18.3813 -18.3797 -18.3797 -18.3720 -18.3720
   -18.3620 -18.3620 -18.3575 -18.3575 -18.3531 -18.3530 -18.3449 -18.3448
   -18.3426 -18.3426 -18.3332 -18.3331 -18.3193 -18.3193 -18.3185 -18.3185
    -9.4484  -9.4484  -9.4448  -9.4448  -9.4434  -9.4434  -9.3482  -9.3482
    -4.0307  -4.0307  -3.9970  -3.9970  -3.9609  -3.9609  -3.9119  -3.9119
    -1.7929  -1.7929  -1.5575  -1.5575  -1.2992  -1.2992  -1.2762  -1.2762
    -0.8975  -0.8975  -0.8339  -0.8339  -0.6858  -0.6858  -0.5121  -0.5121
     0.8432   0.8432   1.1769   1.1769   1.4385   1.4385   1.5199   1.5199
     5.5391   5.5391   5.5718   5.5718   5.7188   5.7188   5.7469   5.7469
     6.9112   6.9112   6.9523   6.9523   7.1360   7.1360   7.1743   7.1743
     7.9559   7.9559   8.6904   8.6904   9.0947   9.0947   9.1994   9.1994
     9.2739   9.2739   9.3968   9.3968   9.8120   9.8120  10.1888  10.1888
    10.5490  10.5492  10.9353  10.9354  10.9997  10.9997  11.1220  11.1225
    11.4954  11.4955  11.6031  11.6035  11.8680  11.8681  11.9780  11.9781
    12.3498  12.3498  12.3917  12.3917  12.6006  12.6007  12.7423  12.7426
    13.1371  13.1371  13.3425  13.3425  13.4307  13.4307  13.7681  13.7684
    14.2443  14.2443  14.4130  14.4131  14.7424  14.7424  14.8230  14.8231
    14.8582  14.8582  14.8602  14.8602  15.3228  15.3228  15.4296  15.4296
    15.4626  15.4626  15.4870  15.4870  15.8263  15.8264  15.9824  15.9824
    16.4539  16.4540  16.5179  16.5179  16.8803  16.8803  16.9663  16.9663
    17.0287  17.0287  17.2149  17.2150  17.3420  17.3420  17.4348  17.4348
    17.7994  17.7994  17.9731  17.9731  18.3261  18.3261  18.5558  18.5559
    18.7848  18.7848  18.9278  18.9278  19.4901  19.4901  19.6610  19.6610

          k = 0.4750 0.4146 0.0000 ( 27186 PWs)   bands (ev):

   -18.4482 -18.4478 -18.4432 -18.4431 -18.4268 -18.4268 -18.4186 -18.4186
   -18.4104 -18.4099 -18.4061 -18.4055 -18.3924 -18.3921 -18.3873 -18.3870
   -18.3859 -18.3859 -18.3816 -18.3812 -18.3800 -18.3795 -18.3726 -18.3715
   -18.3621 -18.3620 -18.3575 -18.3575 -18.3531 -18.3531 -18.3449 -18.3449
   -18.3431 -18.3423 -18.3332 -18.3332 -18.3194 -18.3194 -18.3186 -18.3186
    -9.4674  -9.4609  -9.4567  -9.4427  -9.4385  -9.4369  -9.3528  -9.3527
    -4.0693  -4.0415  -4.0386  -3.9612  -3.9472  -3.9392  -3.9092  -3.9070
    -1.8262  -1.7725  -1.6078  -1.5270  -1.3278  -1.2684  -1.2651  -1.2617
    -0.9012  -0.8615  -0.8522  -0.8069  -0.6727  -0.6052  -0.4981  -0.4143
     0.8191   0.8552   1.1516   1.1939   1.4332   1.4501   1.5301   1.5307
     5.4093   5.5096   5.5421   5.6033   5.6942   5.7289   5.7863   5.8723
     6.8796   6.8894   6.9339   6.9524   7.1037   7.1299   7.1614   7.1842
     7.9435   7.9639   8.6449   8.6929   9.0314   9.0826   9.1427   9.1782
     9.2278   9.2610   9.3636   9.3861   9.8002   9.8104  10.1326  10.2169
    10.4432  10.5070  10.7696  10.8992  10.9761  11.0110  11.1844  11.2890
    11.3489  11.5364  11.6421  11.7330  11.8418  11.8532  11.9441  12.1255
    12.2810  12.3790  12.4014  12.4774  12.5320  12.6407  12.7020  12.9670
    13.1224  13.1835  13.2534  13.4117  13.4372  13.5256  13.6888  13.8971
    14.2077  14.2527  14.2987  14.4507  14.6670  14.6843  14.7157  14.7522
    14.8103  14.8690  14.9018  14.9567  15.2203  15.2686  15.3471  15.3663
    15.4155  15.5534  15.6050  15.6196  15.8131  15.8530  15.9610  16.0575
    16.3919  16.4520  16.5259  16.5981  16.7821  16.8071  16.9460  16.9855
    17.0058  17.0973  17.2685  17.2913  17.3671  17.4493  17.4679  17.5237
    17.8160  17.8606  17.9504  18.0884  18.3013  18.3724  18.4714  18.6325
    18.7805  18.8130  18.9187  19.0641  19.2674  19.3960  19.4479  19.5816

          k = 0.4500 0.3928 0.0000 ( 27231 PWs)   bands (ev):

   -18.4479 -18.4469 -18.4428 -18.4426 -18.4263 -18.4262 -18.4181 -18.4181
   -18.4109 -18.4098 -18.4067 -18.4055 -18.3928 -18.3920 -18.3876 -18.3871
   -18.3862 -18.3860 -18.3820 -18.3812 -18.3803 -18.3793 -18.3732 -18.3710
   -18.3624 -18.3622 -18.3575 -18.3574 -18.3533 -18.3533 -18.3449 -18.3449
   -18.3437 -18.3420 -18.3334 -18.3333 -18.3197 -18.3196 -18.3188 -18.3187
    -9.5072  -9.4923  -9.4747  -9.4563  -9.4390  -9.4294  -9.3627  -9.3627
    -4.1385  -4.0903  -4.0615  -3.9338  -3.9331  -3.9150  -3.8907  -3.8837
    -1.8907  -1.7200  -1.6761  -1.4862  -1.3978  -1.2883  -1.1980  -1.1973
    -0.8643  -0.8362  -0.8091  -0.6740  -0.6222  -0.4778  -0.4053  -0.2169
     0.7593   0.8900   1.1009   1.2258   1.4183   1.4817   1.5557   1.5623
     5.1982   5.4049   5.5374   5.6273   5.7077   5.7672   5.8587   6.0156
     6.7889   6.8171   6.8764   6.9374   7.0285   7.1057   7.1359   7.2149
     7.9147   7.9682   8.5268   8.6760   8.8610   8.9774   9.0457   9.0962
     9.1366   9.2164   9.2949   9.3475   9.7543   9.8030  10.0193  10.2291
    10.2616  10.3414  10.6535  10.8470  10.9654  11.0015  11.1374  11.2791
    11.4796  11.5858  11.6518  11.7749  11.8475  11.9436  12.1056  12.1911
    12.2657  12.3991  12.4151  12.5297  12.7001  12.7350  12.7771  13.0237
    13.2337  13.2764  13.2927  13.4438  13.4802  13.6543  13.6854  14.0023
    14.1560  14.1886  14.2723  14.4225  14.4715  14.5267  14.5619  14.6468
    14.6733  14.7895  14.8405  14.9661  15.0789  15.3108  15.3455  15.4006
    15.4593  15.6372  15.7478  15.7541  15.8278  15.8974  16.0143  16.0552
    16.3492  16.4680  16.5446  16.6005  16.6752  16.7749  16.9471  17.0039
    17.0324  17.1387  17.3043  17.4253  17.5449  17.6072  17.6310  17.7071
    17.8979  17.9570  18.1485  18.2151  18.2853  18.3937  18.4249  18.6510
    18.6986  18.8290  18.8793  18.9676  19.0868  19.1635  19.3491  19.4687

          k = 0.4250 0.3710 0.0000 ( 27231 PWs)   bands (ev):

   -18.4472 -18.4458 -18.4420 -18.4417 -18.4254 -18.4253 -18.4173 -18.4173
   -18.4115 -18.4097 -18.4074 -18.4058 -18.3931 -18.3919 -18.3880 -18.3874
   -18.3867 -18.3861 -18.3826 -18.3812 -18.3808 -18.3792 -18.3740 -18.3706
   -18.3627 -18.3625 -18.3575 -18.3572 -18.3536 -18.3535 -18.3451 -18.3449
   -18.3442 -18.3419 -18.3336 -18.3335 -18.3201 -18.3201 -18.3190 -18.3190
    -9.5653  -9.5415  -9.5092  -9.4903  -9.4430  -9.4221  -9.3697  -9.3697
    -4.2213  -4.1480  -4.0819  -3.9296  -3.9280  -3.8845  -3.8527  -3.8439
    -1.9447  -1.7569  -1.6176  -1.5110  -1.3816  -1.3461  -1.1045  -1.0958
    -0.8175  -0.8081  -0.6364  -0.5805  -0.4432  -0.4148  -0.1869   0.0080
     0.6873   0.9475   1.0359   1.2774   1.3931   1.5335   1.5838   1.6172
     4.9663   5.2776   5.5361   5.6610   5.7335   5.8186   5.9234   6.1260
     6.6243   6.6958   6.7719   6.8955   6.9433   7.0818   7.1149   7.2614
     7.8579   7.9490   8.3347   8.5964   8.6310   8.7540   8.9618   8.9836
     9.0564   9.1371   9.2389   9.2739   9.6162   9.7874   9.8907  10.0840
    10.1557  10.2600  10.5731  10.8203  10.9249  10.9883  11.1139  11.3341
    11.4178  11.5955  11.7007  11.8164  11.8641  12.0734  12.1446  12.3062
    12.3781  12.4317  12.5097  12.6359  12.7819  12.8852  12.9144  13.0691
    13.3247  13.3517  13.3773  13.4334  13.5646  13.7631  13.7690  13.9183
    14.1228  14.1417  14.2351  14.2812  14.3426  14.3835  14.4092  14.4973
    14.5154  14.6977  14.7758  14.9612  15.0227  15.3074  15.4546  15.4806
    15.5820  15.6296  15.7715  15.8246  15.9231  15.9687  16.1562  16.1653
    16.3245  16.4305  16.5415  16.6083  16.7425  16.8716  16.9649  17.0252
    17.0550  17.1059  17.4371  17.5187  17.7007  17.7700  17.8026  17.9132
    18.0126  18.0574  18.1164  18.2318  18.4099  18.4598  18.4675  18.5841
    18.6547  18.7039  18.8060  18.8747  18.9207  19.0340  19.2160  19.4049

          k = 0.4000 0.3492 0.0000 ( 27232 PWs)   bands (ev):

   -18.4463 -18.4442 -18.4410 -18.4405 -18.4242 -18.4241 -18.4162 -18.4162
   -18.4124 -18.4098 -18.4082 -18.4063 -18.3936 -18.3918 -18.3885 -18.3881
   -18.3872 -18.3864 -18.3833 -18.3814 -18.3812 -18.3790 -18.3748 -18.3702
   -18.3632 -18.3628 -18.3574 -18.3571 -18.3540 -18.3538 -18.3457 -18.3448
   -18.3444 -18.3418 -18.3339 -18.3338 -18.3207 -18.3207 -18.3193 -18.3193
    -9.6396  -9.6078  -9.5646  -9.5447  -9.4473  -9.4155  -9.3705  -9.3698
    -4.3111  -4.2114  -4.1029  -3.9327  -3.9222  -3.8497  -3.8046  -3.7916
    -1.9718  -1.7975  -1.5947  -1.4724  -1.4323  -1.2600  -0.9982  -0.9744
    -0.7745  -0.7364  -0.5024  -0.4000  -0.3523  -0.2039   0.0476   0.2338
     0.6309   0.9501   1.0532   1.3206   1.3920   1.5874   1.6252   1.6947
     4.7331   5.1343   5.5332   5.6971   5.7675   5.8708   5.9678   6.1612
     6.4119   6.5324   6.6312   6.8277   6.8717   7.0448   7.1143   7.3118
     7.7653   7.8872   8.0848   8.3018   8.3839   8.6462   8.8672   8.9010
     8.9606   9.0383   9.1352   9.2430   9.4061   9.6535   9.8474   9.9626
    10.0590  10.2492  10.5422  10.7852  10.9223  10.9698  11.1191  11.3124
    11.4613  11.5569  11.7403  11.8602  11.9687  12.0180  12.1845  12.3867
    12.4010  12.4699  12.6664  12.7429  12.9185  12.9258  13.0062  13.2494
    13.2714  13.3528  13.3881  13.4771  13.5069  13.7261  13.7618  13.9034
    14.0267  14.0650  14.0958  14.2318  14.2878  14.3136  14.4144  14.4390
    14.5722  14.6516  14.7988  14.9390  15.0894  15.2012  15.3569  15.4783
    15.5517  15.8341  15.8479  15.9174  16.0240  16.1458  16.2334  16.3282
    16.3520  16.5608  16.6323  16.7165  16.8099  16.9001  16.9972  17.0139
    17.0854  17.1758  17.5427  17.6471  17.6569  17.7496  17.7688  17.8135
    18.0373  18.1193  18.2229  18.3265  18.4639  18.4989  18.5399  18.6064
    18.6882  18.7465  18.7598  18.8508  18.9542  19.1163  19.1867  19.3346

          k = 0.3750 0.3274 0.0000 ( 27250 PWs)   bands (ev):

   -18.4451 -18.4424 -18.4398 -18.4390 -18.4227 -18.4226 -18.4150 -18.4149
   -18.4134 -18.4103 -18.4089 -18.4071 -18.3941 -18.3917 -18.3893 -18.3891
   -18.3878 -18.3869 -18.3840 -18.3819 -18.3813 -18.3788 -18.3756 -18.3698
   -18.3637 -18.3632 -18.3572 -18.3569 -18.3543 -18.3541 -18.3464 -18.3447
   -18.3443 -18.3419 -18.3342 -18.3340 -18.3215 -18.3215 -18.3197 -18.3197
    -9.7271  -9.6883  -9.6375  -9.6154  -9.4514  -9.4101  -9.3669  -9.3646
    -4.4020  -4.2777  -4.1278  -3.9444  -3.9018  -3.8066  -3.7464  -3.7270
    -1.9683  -1.8083  -1.6202  -1.4867  -1.3265  -1.1411  -0.8987  -0.8763
    -0.7009  -0.6286  -0.3971  -0.2784  -0.1577   0.0334   0.2756   0.4430
     0.6169   0.8984   1.1694   1.3010   1.4853   1.6039   1.7186   1.7913
     4.5162   4.9836   5.5067   5.7223   5.8039   5.9109   5.9754   6.0616
     6.1966   6.3988   6.4938   6.7213   6.7718   7.0083   7.1308   7.3398
     7.6483   7.7994   7.8248   7.9779   8.0449   8.6007   8.7976   8.8465
     8.8555   8.9154   8.9836   9.1448   9.3270   9.4963   9.6894   9.9799
    10.0127  10.2712  10.5528  10.6897  10.9562  10.9851  11.1319  11.3186
    11.4949  11.6123  11.7609  11.9053  11.9804  12.0436  12.1308  12.3858
    12.4249  12.4883  12.6125  12.7132  12.9262  12.9880  13.0637  13.1379
    13.1969  13.2473  13.3487  13.4380  13.5783  13.6630  13.7193  13.9029
    13.9311  14.0384  14.1207  14.2930  14.3165  14.3873  14.4705  14.5592
    14.6479  14.7087  14.8516  14.8892  14.9431  15.1307  15.2849  15.5294
    15.6680  15.9168  15.9414  16.0310  16.2084  16.2269  16.3391  16.4009
    16.4849  16.7062  16.7999  16.8241  16.8796  16.9673  17.0065  17.0659
    17.1205  17.2033  17.4487  17.5703  17.6038  17.7117  17.7278  17.9058
    17.9865  18.1276  18.2483  18.3726  18.4282  18.4940  18.5775  18.6771
    18.7711  18.8266  18.8374  19.0348  19.1790  19.2607  19.3261  19.4252

          k = 0.3500 0.3055 0.0000 ( 27251 PWs)   bands (ev):

   -18.4437 -18.4404 -18.4386 -18.4373 -18.4211 -18.4209 -18.4149 -18.4136
   -18.4134 -18.4111 -18.4095 -18.4082 -18.3946 -18.3917 -18.3905 -18.3902
   -18.3884 -18.3875 -18.3847 -18.3824 -18.3815 -18.3786 -18.3764 -18.3693
   -18.3643 -18.3636 -18.3571 -18.3568 -18.3547 -18.3543 -18.3472 -18.3446
   -18.3442 -18.3421 -18.3345 -18.3343 -18.3224 -18.3224 -18.3201 -18.3200
    -9.8245  -9.7797  -9.7230  -9.6980  -9.4555  -9.4060  -9.3612  -9.3559
    -4.4881  -4.3425  -4.1572  -3.9614  -3.8628  -3.7504  -3.6761  -3.6501
    -1.9359  -1.7894  -1.6202  -1.5022  -1.1794  -1.0168  -0.8462  -0.8112
    -0.5821  -0.5040  -0.2813  -0.1831   0.0719   0.2581   0.4834   0.6223
     0.6632   0.8799   1.2331   1.3703   1.5910   1.6386   1.8358   1.8960
     4.3380   4.8412   5.4216   5.7038   5.7556   5.8323   5.9842   6.0198
     6.0443   6.2576   6.3791   6.5488   6.6226   6.9916   7.1521   7.3082
     7.5068   7.5995   7.6673   7.7029   7.7760   8.5366   8.6782   8.7062
     8.7416   8.7953   8.9458   8.9998   9.3405   9.3800   9.5827   9.9263
    10.0729  10.3136  10.5383  10.6167  11.0048  11.0412  11.1512  11.3788
    11.5050  11.6999  11.7422  11.9233  11.9760  11.9919  12.1386  12.3134
    12.3290  12.4328  12.4898  12.5530  12.8220  12.8608  12.8819  13.0497
    13.0848  13.2335  13.2583  13.4422  13.4798  13.6645  13.7663  13.9303
    14.0624  14.1405  14.2588  14.3055  14.3627  14.4334  14.5215  14.6205
    14.6942  14.7772  14.8668  14.9049  14.9837  15.1424  15.3828  15.6059
    15.7915  15.9262  15.9974  16.1105  16.2474  16.3511  16.4168  16.5821
    16.6239  16.7082  16.8033  16.8588  16.9444  17.0180  17.0820  17.1335
    17.2139  17.3381  17.3932  17.4883  17.5656  17.7301  17.7988  17.8998
    17.9922  18.1140  18.2322  18.3526  18.4452  18.5653  18.6739  18.7301
    18.8115  18.9319  18.9719  19.1619  19.2638  19.4005  19.4796  19.5269

          k = 0.3250 0.2837 0.0000 ( 27260 PWs)   bands (ev):

   -18.4423 -18.4382 -18.4372 -18.4355 -18.4195 -18.4192 -18.4162 -18.4130
   -18.4121 -18.4116 -18.4101 -18.4093 -18.3950 -18.3923 -18.3919 -18.3909
   -18.3891 -18.3883 -18.3855 -18.3829 -18.3817 -18.3784 -18.3770 -18.3689
   -18.3650 -18.3641 -18.3571 -18.3569 -18.3548 -18.3542 -18.3480 -18.3445
   -18.3440 -18.3423 -18.3347 -18.3345 -18.3234 -18.3234 -18.3204 -18.3204
    -9.9283  -9.8784  -9.8168  -9.7886  -9.4603  -9.4033  -9.3547  -9.3455
    -4.5643  -4.4013  -4.1879  -3.9802  -3.8037  -3.6786  -3.5923  -3.5603
    -1.8775  -1.7437  -1.5928  -1.4872  -1.0559  -0.8988  -0.8376  -0.7442
    -0.4627  -0.3923  -0.1622  -0.0551   0.2758   0.4582   0.6616   0.7646
     0.7696   0.9145   1.2339   1.5522   1.6117   1.7843   1.9605   1.9898
     4.2257   4.7305   5.2787   5.4500   5.6983   5.8292   5.8867   6.0002
     6.0668   6.1155   6.2474   6.3178   6.4426   6.9803   7.1413   7.2375
     7.3043   7.3554   7.3992   7.6119   7.7718   8.4504   8.5186   8.5433
     8.5640   8.6260   8.8218   9.1672   9.2015   9.3065   9.6986   9.8713
    10.0815  10.3393  10.5185  10.6428  11.0430  11.0778  11.2044  11.4588
    11.5223  11.6510  11.7454  11.8296  11.9173  12.0165  12.0531  12.1142
    12.1797  12.2135  12.3287  12.5282  12.6819  12.7473  12.8022  12.9373
    12.9505  13.1568  13.3521  13.3722  13.4582  13.5675  13.6880  13.8981
    14.1371  14.2138  14.2632  14.3608  14.4598  14.5625  14.6179  14.6845
    14.7323  14.7490  14.9398  15.0481  15.2176  15.3629  15.5145  15.6136
    15.9062  15.9223  16.0179  16.1821  16.2369  16.3913  16.4939  16.6365
    16.6530  16.6982  16.8511  16.8731  16.9615  17.0975  17.1389  17.1739
    17.2793  17.3775  17.4442  17.4980  17.6379  17.7583  17.9154  17.9567
    18.0671  18.0965  18.2594  18.3838  18.4881  18.6208  18.6515  18.8139
    18.9091  19.0419  19.1109  19.2073  19.2668  19.4193  19.5288  19.5841

          k = 0.3000 0.2619 0.0000 ( 27294 PWs)   bands (ev):

   -18.4409 -18.4365 -18.4355 -18.4335 -18.4184 -18.4175 -18.4170 -18.4141
   -18.4118 -18.4114 -18.4098 -18.4096 -18.3952 -18.3936 -18.3933 -18.3912
   -18.3900 -18.3893 -18.3863 -18.3832 -18.3819 -18.3783 -18.3775 -18.3684
   -18.3657 -18.3646 -18.3573 -18.3571 -18.3546 -18.3539 -18.3488 -18.3444
   -18.3437 -18.3425 -18.3348 -18.3346 -18.3245 -18.3244 -18.3208 -18.3208
   -10.0355  -9.9812  -9.9153  -9.8838  -9.4662  -9.4020  -9.3482  -9.3345
    -4.6262  -4.4499  -4.2149  -3.9966  -3.7249  -3.5903  -3.4942  -3.4571
    -1.7969  -1.6756  -1.5428  -1.4437  -1.0325  -0.8101  -0.7647  -0.6865
    -0.3574  -0.3027  -0.0536   0.0958   0.4431   0.6227   0.7974   0.8624
     0.9250   1.0125   1.2706   1.6308   1.7431   1.9361   2.0623   2.0768
     4.2023   4.6777   5.1310   5.2078   5.5963   5.7194   5.7995   5.8733
     6.0102   6.0657   6.0849   6.1765   6.3130   6.9264   7.0129   7.0499
     7.1804   7.1920   7.3644   7.5789   7.7871   8.2855   8.3588   8.3732
     8.4135   8.4618   8.7295   9.0625   9.1994   9.4528   9.8025   9.8878
    10.0437  10.3317  10.6028  10.6768  11.0268  11.0643  11.2945  11.4906
    11.5163  11.5458  11.6169  11.7179  11.7248  11.8224  11.9003  11.9707
    12.0687  12.1426  12.2997  12.4803  12.6142  12.6541  12.7555  12.8355
    12.9765  13.0731  13.3054  13.3634  13.4294  13.5431  13.6209  13.7587
    14.0444  14.1538  14.2520  14.3547  14.4821  14.5913  14.7263  14.7400
    14.8788  15.0285  15.1238  15.2420  15.3676  15.5743  15.6139  15.7288
    15.9316  15.9550  16.0935  16.1206  16.2879  16.3977  16.5523  16.5996
    16.6168  16.6773  16.8588  16.8810  16.9806  17.0408  17.1327  17.3003
    17.3723  17.4171  17.4880  17.6504  17.7299  17.8463  17.9715  18.0222
    18.0717  18.1710  18.3336  18.4531  18.4929  18.6113  18.7447  18.8435
    18.9871  19.0953  19.1601  19.2345  19.4576  19.4785  19.5255  19.5429

          k = 0.2750 0.2401 0.0000 ( 27319 PWs)   bands (ev):

   -18.4396 -18.4357 -18.4334 -18.4316 -18.4190 -18.4164 -18.4161 -18.4152
   -18.4126 -18.4124 -18.4086 -18.4085 -18.3956 -18.3950 -18.3945 -18.3916
   -18.3912 -18.3902 -18.3872 -18.3834 -18.3822 -18.3782 -18.3777 -18.3681
   -18.3666 -18.3649 -18.3576 -18.3575 -18.3543 -18.3534 -18.3494 -18.3444
   -18.3433 -18.3426 -18.3348 -18.3346 -18.3256 -18.3256 -18.3212 -18.3212
   -10.1431 -10.0850 -10.0152  -9.9808  -9.4735  -9.4022  -9.3424  -9.3236
    -4.6710  -4.4849  -4.2340  -4.0067  -3.6274  -3.4856  -3.3815  -3.3406
    -1.6981  -1.5904  -1.4790  -1.3756  -1.0912  -0.7797  -0.6437  -0.6109
    -0.2572  -0.2171   0.0314   0.2381   0.5675   0.7398   0.8783   0.9089
     1.1054   1.1646   1.3569   1.6825   1.8500   2.0551   2.1460   2.1790
     4.2674   4.6978   4.9977   5.0799   5.4116   5.5454   5.6610   5.7047
     5.8324   5.9371   5.9884   6.1942   6.3114   6.8049   6.8313   6.9212
     7.1292   7.1807   7.3773   7.5440   7.7816   8.0807   8.1711   8.2043
     8.2712   8.3623   8.6496   8.9532   9.1642   9.6993   9.7914   9.8649
    10.2087  10.3146  10.6084  10.7912  10.9407  11.0105  11.2815  11.3189
    11.3511  11.4086  11.4919  11.5298  11.5877  11.7211  11.7425  11.9673
    12.0342  12.1234  12.3050  12.4365  12.5061  12.6033  12.7522  12.8255
    12.9940  13.0993  13.2326  13.2517  13.4039  13.5142  13.6599  13.7212
    13.8198  14.0659  14.2672  14.3718  14.4615  14.6567  14.7347  14.7661
    14.9737  15.1399  15.4143  15.4634  15.5721  15.6126  15.6639  15.8033
    15.9524  16.0202  16.1305  16.2412  16.2917  16.3339  16.4526  16.5257
    16.6007  16.7774  16.8665  16.9276  16.9859  17.0979  17.1867  17.3296
    17.4357  17.4760  17.6438  17.6929  17.8255  17.8951  17.9972  18.0884
    18.1585  18.2518  18.3106  18.4183  18.4730  18.5925  18.8292  18.9392
    18.9673  19.0466  19.2115  19.2896  19.3587  19.4336  19.4510  19.5999

          k = 0.2500 0.2182 0.0000 ( 27329 PWs)   bands (ev):

   -18.4388 -18.4354 -18.4312 -18.4297 -18.4196 -18.4169 -18.4162 -18.4153
   -18.4131 -18.4129 -18.4073 -18.4073 -18.3964 -18.3961 -18.3948 -18.3925
   -18.3923 -18.3909 -18.3883 -18.3834 -18.3823 -18.3782 -18.3776 -18.3683
   -18.3675 -18.3649 -18.3580 -18.3577 -18.3539 -18.3528 -18.3498 -18.3445
   -18.3428 -18.3424 -18.3346 -18.3345 -18.3267 -18.3267 -18.3216 -18.3216
   -10.2485 -10.1872 -10.1140 -10.0767  -9.4824  -9.4039  -9.3376  -9.3135
    -4.6966  -4.5038  -4.2416  -4.0072  -3.5124  -3.3648  -3.2547  -3.2111
    -1.5849  -1.4957  -1.4233  -1.2875  -1.1504  -0.8044  -0.5572  -0.4975
    -0.1558  -0.1216   0.0994   0.3491   0.6467   0.8013   0.8963   0.9026
     1.2780   1.3297   1.4708   1.7589   1.8647   2.1322   2.2408   2.2773
     4.3838   4.7682   4.9210   5.0744   5.1979   5.3907   5.4843   5.5082
     5.7119   5.8259   5.9479   6.1824   6.3302   6.7089   6.7677   6.8559
     7.0919   7.1875   7.3684   7.5196   7.7319   7.8915   7.9659   8.0446
     8.1242   8.3317   8.5600   8.8900   9.1553   9.6256   9.8130  10.0990
    10.2143  10.4313  10.6123  10.7779  10.8760  10.9280  11.0481  11.0974
    11.1082  11.2585  11.2943  11.3677  11.5514  11.7815  11.7914  11.9484
    11.9688  12.1064  12.3133  12.3978  12.4758  12.5308  12.7626  12.8635
    12.9605  13.1154  13.1688  13.3291  13.3724  13.4398  13.6380  13.6872
    13.7757  13.9741  14.2868  14.3524  14.5535  14.6456  14.7122  14.7971
    15.0272  15.2562  15.4203  15.5476  15.5572  15.6223  15.6913  15.8177
    15.9483  16.0380  16.0884  16.2132  16.2786  16.4490  16.4835  16.6677
    16.7301  16.7637  16.9124  16.9865  17.0552  17.1910  17.3001  17.3660
    17.5043  17.5780  17.6519  17.7816  17.7939  17.9350  17.9750  18.0839
    18.1963  18.2885  18.3110  18.4451  18.5565  18.6040  18.7443  18.7533
    18.8579  18.9913  19.1115  19.1597  19.2640  19.3698  19.4076  19.5422

          k = 0.2250 0.1964 0.0000 ( 27347 PWs)   bands (ev):

   -18.4387 -18.4356 -18.4293 -18.4278 -18.4199 -18.4177 -18.4173 -18.4163
   -18.4129 -18.4129 -18.4061 -18.4061 -18.3972 -18.3970 -18.3948 -18.3934
   -18.3933 -18.3915 -18.3894 -18.3833 -18.3823 -18.3782 -18.3774 -18.3690
   -18.3686 -18.3644 -18.3584 -18.3579 -18.3537 -18.3522 -18.3499 -18.3448
   -18.3423 -18.3420 -18.3344 -18.3342 -18.3277 -18.3277 -18.3219 -18.3219
   -10.3495 -10.2853 -10.2092 -10.1694  -9.4927  -9.4072  -9.3340  -9.3045
    -4.7027  -4.5057  -4.2358  -3.9959  -3.3814  -3.2291  -3.1147  -3.0698
    -1.4624  -1.4436  -1.3838  -1.1852  -1.1427  -0.8466  -0.5159  -0.3837
    -0.0509  -0.0153   0.1702   0.4264   0.6751   0.8010   0.8232   0.8686
     1.4078   1.4614   1.5657   1.8389   1.8713   2.1972   2.3027   2.3570
     4.4830   4.8074   4.9359   5.0113   5.1310   5.3187   5.3639   5.3899
     5.6448   5.7951   5.9246   6.1401   6.3146   6.6790   6.7927   6.8361
     7.0605   7.1697   7.3465   7.5026   7.6341   7.7396   7.7687   7.9075
     8.0101   8.3427   8.4604   8.8689   9.1601   9.5297   9.7773  10.0921
    10.3669  10.4602  10.5597  10.6459  10.6948  10.8341  10.8698  10.9426
    10.9913  11.1066  11.1725  11.2696  11.5804  11.7413  11.8394  11.9384
    11.9954  12.1565  12.2353  12.3331  12.4970  12.5520  12.7627  12.8426
    12.9841  13.0683  13.2035  13.2832  13.4332  13.5268  13.5493  13.6407
    13.8082  13.9251  14.3508  14.4328  14.5361  14.6868  14.7047  14.7751
    15.0410  15.2122  15.2958  15.4317  15.4740  15.5385  15.6816  15.7481
    15.9530  15.9927  16.0231  16.1816  16.3511  16.4427  16.6122  16.6998
    16.7151  17.0340  17.0521  17.1372  17.1521  17.2753  17.3488  17.4275
    17.4775  17.6089  17.6191  17.7599  17.9114  17.9198  17.9925  18.0579
    18.2236  18.2496  18.3094  18.3796  18.4172  18.5782  18.6057  18.7008
    18.7830  18.8873  18.9665  19.1236  19.1722  19.2337  19.3167  19.4300

          k = 0.2000 0.1746 0.0000 ( 27343 PWs)   bands (ev):

   -18.4396 -18.4361 -18.4276 -18.4261 -18.4204 -18.4184 -18.4180 -18.4172
   -18.4132 -18.4132 -18.4049 -18.4048 -18.3981 -18.3979 -18.3948 -18.3938
   -18.3938 -18.3922 -18.3904 -18.3831 -18.3822 -18.3782 -18.3772 -18.3699
   -18.3697 -18.3638 -18.3587 -18.3580 -18.3538 -18.3516 -18.3496 -18.3452
   -18.3418 -18.3416 -18.3340 -18.3339 -18.3287 -18.3286 -18.3222 -18.3222
   -10.4440 -10.3775 -10.2988 -10.2568  -9.5042  -9.4120  -9.3318  -9.2968
    -4.6896  -4.4906  -4.2157  -3.9719  -3.2364  -3.0798  -2.9628  -2.9185
    -1.5058  -1.3398  -1.3039  -1.0760  -1.0653  -0.8702  -0.5121  -0.2978
     0.0581   0.0967   0.2540   0.4804   0.6333   0.6978   0.7512   0.7844
     1.4689   1.5304   1.6174   1.8891   1.9089   2.2594   2.3433   2.4005
     4.4983   4.7757   4.8899   5.0416   5.1368   5.2884   5.3347   5.5269
     5.6501   5.8515   5.9255   6.1038   6.2771   6.6714   6.7981   6.8998
     7.0465   7.1108   7.3555   7.4588   7.5199   7.6029   7.6519   7.8088
     7.9495   8.3555   8.3853   8.8684   9.1700   9.4494   9.7397   9.9833
    10.2403  10.3219  10.4306  10.4675  10.5687  10.6619  10.7020  10.8884
    10.9660  11.0798  11.2011  11.3659  11.5877  11.6448  11.8168  11.9972
    12.0706  12.1396  12.2064  12.3281  12.5149  12.6085  12.7475  12.7890
    13.0206  13.0597  13.2203  13.2817  13.4562  13.5307  13.5613  13.7261
    13.8219  14.0069  14.3945  14.4265  14.4791  14.6830  14.7387  14.7997
    14.9541  15.0483  15.0734  15.2987  15.3217  15.4943  15.6839  15.8100
    15.8585  15.9281  16.0110  16.0617  16.2361  16.5012  16.6096  16.6415
    16.7931  16.9708  17.0169  17.0699  17.2870  17.3768  17.4097  17.4726
    17.5312  17.5501  17.7015  17.7990  17.8584  17.9111  17.9621  18.0068
    18.0604  18.1566  18.1887  18.3538  18.4454  18.4826  18.6133  18.7635
    18.7893  18.8218  18.9772  19.0594  19.1592  19.2296  19.2509  19.3679

          k = 0.1750 0.1528 0.0000 ( 27352 PWs)   bands (ev):

   -18.4411 -18.4369 -18.4262 -18.4247 -18.4215 -18.4197 -18.4178 -18.4172
   -18.4140 -18.4139 -18.4036 -18.4035 -18.3992 -18.3990 -18.3951 -18.3938
   -18.3935 -18.3930 -18.3909 -18.3829 -18.3820 -18.3780 -18.3770 -18.3710
   -18.3708 -18.3633 -18.3590 -18.3579 -18.3540 -18.3511 -18.3492 -18.3455
   -18.3413 -18.3411 -18.3337 -18.3336 -18.3294 -18.3293 -18.3225 -18.3225
   -10.5307 -10.4621 -10.3812 -10.3372  -9.5164  -9.4178  -9.3308  -9.2905
    -4.6592  -4.4596  -4.1821  -3.9356  -3.0799  -2.9192  -2.8012  -2.7596
    -1.5860  -1.2888  -1.1994  -0.9723  -0.9611  -0.8376  -0.5316  -0.2525
     0.1666   0.2045   0.3363   0.4912   0.5142   0.5900   0.6598   0.6780
     1.4553   1.5323   1.6383   1.9082   1.9379   2.2894   2.3656   2.4212
     4.4410   4.7477   4.8825   5.1152   5.1357   5.3200   5.4934   5.6750
     5.7287   5.9277   5.9597   6.0970   6.2394   6.6546   6.8126   6.9249
     7.0389   7.1305   7.3326   7.3866   7.4582   7.5755   7.6227   7.7588
     7.9314   8.2906   8.4090   8.8704   9.1865   9.3879   9.6827   9.8737
    10.0480  10.1212  10.2209  10.2688  10.4121  10.4909  10.5432  10.8102
    10.9396  11.1558  11.3621  11.4347  11.5690  11.6117  11.8255  12.0424
    12.0733  12.1352  12.2678  12.3820  12.5327  12.6058  12.7205  12.7783
    12.9998  13.1492  13.2918  13.3217  13.3477  13.4701  13.6704  13.7971
    14.0050  14.1026  14.2926  14.3204  14.4579  14.6223  14.7357  14.7440
    14.7993  14.9110  15.0466  15.1694  15.2246  15.5046  15.5536  15.6840
    15.7710  15.8838  15.9311  16.0133  16.2411  16.4342  16.4960  16.5970
    16.6358  16.8417  16.8497  16.9673  17.1534  17.2860  17.3338  17.3783
    17.4637  17.4847  17.6304  17.7286  17.7609  17.8123  17.8604  17.9719
    18.1062  18.2559  18.2999  18.4053  18.5260  18.5878  18.6772  18.7847
    18.8146  18.8651  19.0415  19.0617  19.2325  19.2380  19.3367  19.4539

          k = 0.1500 0.1309 0.0000 ( 27352 PWs)   bands (ev):

   -18.4429 -18.4380 -18.4254 -18.4246 -18.4220 -18.4206 -18.4176 -18.4170
   -18.4148 -18.4145 -18.4026 -18.4026 -18.4001 -18.4000 -18.3957 -18.3946
   -18.3927 -18.3926 -18.3909 -18.3826 -18.3819 -18.3778 -18.3767 -18.3720
   -18.3719 -18.3629 -18.3594 -18.3578 -18.3542 -18.3505 -18.3486 -18.3458
   -18.3408 -18.3406 -18.3335 -18.3335 -18.3297 -18.3296 -18.3228 -18.3228
   -10.6080 -10.5378 -10.4550 -10.4094  -9.5289  -9.4243  -9.3310  -9.2857
    -4.6142  -4.4155  -4.1369  -3.8887  -2.9161  -2.7501  -2.6328  -2.5968
    -1.6594  -1.3113  -1.0898  -0.8709  -0.8589  -0.7517  -0.5488  -0.2519
     0.2216   0.2566   0.3384   0.4203   0.4621   0.4863   0.5540   0.6777
     1.3772   1.4724   1.6216   1.9078   1.9368   2.2764   2.3714   2.4298
     4.3546   4.7347   4.9590   5.1604   5.2470   5.4455   5.6521   5.7352
     5.8578   5.9580   5.9669   6.1179   6.2150   6.6470   6.7974   6.9442
     7.0597   7.1912   7.2899   7.3315   7.5466   7.6109   7.7361   7.7737
     7.9272   8.2502   8.4215   8.8642   9.2184   9.3392   9.5748   9.7720
     9.8446   9.9757  10.0283  10.1379  10.2482  10.3373  10.4453  10.7630
    10.8921  11.1657  11.3452  11.4755  11.5398  11.6303  11.8735  12.0253
    12.1379  12.2304  12.2739  12.4221  12.5645  12.6150  12.6692  12.8390
    13.0110  13.1924  13.2693  13.3517  13.4064  13.4645  13.6001  13.9292
    13.9804  14.1601  14.2756  14.3365  14.3775  14.5275  14.5882  14.6354
    14.7760  14.8867  15.0092  15.1205  15.2030  15.2593  15.3637  15.5810
    15.6206  15.8355  15.9301  16.0215  16.1866  16.2410  16.3473  16.4336
    16.4795  16.6166  16.7016  16.8860  16.9606  17.0364  17.1227  17.2671
    17.3496  17.3836  17.4883  17.5751  17.6265  17.6866  17.8540  17.9856
    18.1953  18.2394  18.3713  18.4461  18.6393  18.7237  18.8295  18.8960
    18.9507  19.0924  19.1435  19.1831  19.2143  19.3437  19.3949  19.4079

          k = 0.1250 0.1091 0.0000 ( 27376 PWs)   bands (ev):

   -18.4447 -18.4393 -18.4261 -18.4247 -18.4221 -18.4202 -18.4179 -18.4176
   -18.4149 -18.4141 -18.4027 -18.4027 -18.4001 -18.4000 -18.3964 -18.3957
   -18.3918 -18.3917 -18.3908 -18.3824 -18.3818 -18.3776 -18.3764 -18.3731
   -18.3730 -18.3626 -18.3597 -18.3575 -18.3545 -18.3500 -18.3482 -18.3461
   -18.3403 -18.3402 -18.3337 -18.3337 -18.3296 -18.3294 -18.3230 -18.3230
   -10.6750 -10.6035 -10.5191 -10.4721  -9.5409  -9.4311  -9.3319  -9.2821
    -4.5590  -4.3618  -4.0836  -3.8344  -2.7516  -2.5773  -2.4619  -2.4346
    -1.7162  -1.3612  -1.0204  -0.7829  -0.7633  -0.6503  -0.5329  -0.2874
     0.0684   0.2032   0.2709   0.3210   0.4301   0.5045   0.6087   0.7400
     1.2552   1.3588   1.5438   1.8702   1.9362   2.2455   2.3748   2.4391
     4.2646   4.6956   5.0938   5.2685   5.3779   5.6507   5.7242   5.8153
     5.8784   5.9272   5.9473   6.1304   6.2137   6.6734   6.7644   6.9976
     7.0993   7.1917   7.2327   7.5096   7.6020   7.7742   7.8343   7.9075
     8.0170   8.2348   8.4063   8.8433   9.2576   9.3040   9.4148   9.6759
     9.7149   9.8698   9.8989  10.0347  10.1330  10.2458  10.4104  10.7490
    10.8449  11.1756  11.2620  11.4370  11.4579  11.6520  11.8488  12.0649
    12.1580  12.2150  12.2571  12.4060  12.5656  12.6444  12.7418  12.9035
    13.0607  13.1320  13.2618  13.3465  13.4244  13.4930  13.6510  13.7518
    14.0328  14.1377  14.1798  14.2842  14.3410  14.5340  14.5659  14.6391
    14.6860  14.8784  14.9342  15.0000  15.0288  15.1693  15.3022  15.4184
    15.5727  15.7026  15.8693  15.8978  16.0152  16.0804  16.0900  16.3196
    16.3836  16.4807  16.5936  16.7009  16.8647  16.9282  17.0033  17.0807
    17.1514  17.2624  17.3384  17.4212  17.5071  17.7021  17.8778  18.0171
    18.1174  18.2053  18.4529  18.5507  18.6496  18.6714  18.9016  19.0092
    19.0689  19.1149  19.1984  19.2186  19.2995  19.3995  19.4289  19.4542

          k = 0.1000 0.0873 0.0000 ( 27361 PWs)   bands (ev):

   -18.4464 -18.4405 -18.4274 -18.4254 -18.4216 -18.4195 -18.4189 -18.4184
   -18.4144 -18.4134 -18.4036 -18.4036 -18.3995 -18.3993 -18.3971 -18.3965
   -18.3910 -18.3909 -18.3905 -18.3823 -18.3817 -18.3775 -18.3761 -18.3740
   -18.3739 -18.3625 -18.3600 -18.3573 -18.3547 -18.3495 -18.3477 -18.3463
   -18.3399 -18.3398 -18.3341 -18.3341 -18.3291 -18.3290 -18.3232 -18.3232
   -10.7309 -10.6583 -10.5726 -10.5245  -9.5518  -9.4375  -9.3333  -9.2796
    -4.4988  -4.3039  -4.0268  -3.7773  -2.5977  -2.4076  -2.2942  -2.2774
    -1.7496  -1.4171  -1.0172  -0.7050  -0.6863  -0.5601  -0.4812  -0.3329
    -0.0826   0.0725   0.1109   0.1679   0.5147   0.5901   0.6989   0.8062
     1.1183   1.2138   1.4112   1.7688   1.9650   2.2318   2.3855   2.4537
     4.1842   4.6409   5.2082   5.3784   5.5097   5.7129   5.7883   5.8475
     5.8730   5.9052   6.0001   6.1516   6.2592   6.7356   6.7357   7.0129
     7.0793   7.1616   7.4103   7.5818   7.7636   7.8386   7.9582   8.0991
     8.2236   8.3073   8.3649   8.8050   9.1903   9.2526   9.3860   9.6194
     9.6409   9.7945   9.8697   9.9679  10.0860  10.2253  10.4288  10.7332
    10.8377  11.1314  11.2194  11.3611  11.4159  11.6517  11.7931  12.0297
    12.0353  12.1027  12.2511  12.3697  12.4569  12.6771  12.7115  12.8781
    13.0788  13.1941  13.2212  13.3660  13.4571  13.6227  13.6623  13.8272
    13.8767  13.9146  14.0213  14.1794  14.3485  14.4217  14.5580  14.5905
    14.6699  14.7208  14.8857  14.9244  15.0898  15.1385  15.2356  15.3052
    15.4789  15.6603  15.7350  15.8209  15.8542  15.9349  16.0245  16.0440
    16.2887  16.4336  16.5520  16.6101  16.6879  16.7585  16.8891  17.0284
    17.0936  17.1293  17.3316  17.4235  17.4365  17.6884  17.7873  17.8655
    17.9960  18.3610  18.4468  18.6157  18.6396  18.7043  18.7495  18.8637
    18.9481  18.9674  19.1284  19.2346  19.3341  19.3775  19.4963  19.5496

          k = 0.0750 0.0655 0.0000 ( 27363 PWs)   bands (ev):

   -18.4478 -18.4416 -18.4286 -18.4263 -18.4209 -18.4201 -18.4198 -18.4181
   -18.4137 -18.4127 -18.4045 -18.4045 -18.3992 -18.3988 -18.3974 -18.3970
   -18.3905 -18.3901 -18.3900 -18.3822 -18.3816 -18.3773 -18.3758 -18.3747
   -18.3747 -18.3624 -18.3603 -18.3571 -18.3549 -18.3490 -18.3474 -18.3465
   -18.3396 -18.3394 -18.3346 -18.3345 -18.3286 -18.3284 -18.3234 -18.3234
   -10.7750 -10.7015 -10.6149 -10.5660  -9.5610  -9.4431  -9.3349  -9.2780
    -4.4404  -4.2478  -3.9724  -3.7232  -2.4711  -2.2510  -2.1377  -2.1269
    -1.7571  -1.4697  -1.0617  -0.6664  -0.6360  -0.5006  -0.4278  -0.3406
    -0.1844  -0.0515  -0.0371   0.0259   0.5927   0.6729   0.7751   0.8448
     1.0070   1.0684   1.2579   1.6423   2.0012   2.2380   2.4014   2.4701
     4.1195   4.5898   5.2346   5.4869   5.5832   5.6271   5.7203   5.7952
     5.8490   6.0185   6.1575   6.2703   6.4052   6.7167   6.8155   6.9515
     7.1051   7.1703   7.5451   7.6429   7.8213   7.9422   8.1015   8.2142
     8.2898   8.4011   8.5842   8.7560   9.0883   9.1541   9.4362   9.6010
     9.6760   9.7902   9.9104   9.9631  10.1073  10.2672  10.4880  10.7093
    10.8729  11.0634  11.1709  11.2637  11.4461  11.6396  11.7248  11.8550
    11.9411  11.9866  12.0870  12.2745  12.4090  12.4740  12.7429  12.7946
    12.9443  13.1678  13.3734  13.4338  13.5141  13.6227  13.6528  13.6879
    13.8078  13.8926  13.9909  14.0918  14.1654  14.2719  14.3136  14.4833
    14.5989  14.6899  14.8686  15.0164  15.0706  15.1373  15.2226  15.2963
    15.4085  15.5512  15.6618  15.7505  15.8631  15.9102  16.0452  16.0637
    16.2045  16.3149  16.3606  16.5807  16.5996  16.7227  16.8193  16.8439
    17.0735  17.1528  17.2981  17.3784  17.5789  17.6296  17.6673  17.6853
    18.0052  18.0671  18.4544  18.4982  18.6103  18.6385  18.7160  18.7715
    18.8462  18.9481  19.1385  19.1659  19.2458  19.4019  19.5065  19.6084

          k = 0.0500 0.0436 0.0000 ( 27359 PWs)   bands (ev):

   -18.4489 -18.4424 -18.4294 -18.4270 -18.4208 -18.4207 -18.4202 -18.4176
   -18.4131 -18.4121 -18.4052 -18.4052 -18.3994 -18.3988 -18.3971 -18.3970
   -18.3901 -18.3896 -18.3895 -18.3823 -18.3815 -18.3772 -18.3757 -18.3753
   -18.3752 -18.3624 -18.3605 -18.3570 -18.3550 -18.3485 -18.3471 -18.3468
   -18.3393 -18.3391 -18.3349 -18.3349 -18.3281 -18.3279 -18.3236 -18.3236
   -10.8068 -10.7327 -10.6455 -10.5959  -9.5680  -9.4474  -9.3363  -9.2770
    -4.3910  -4.2005  -3.9269  -3.6783  -2.3865  -2.1211  -1.9999  -1.9867
    -1.7484  -1.5149  -1.1203  -0.7065  -0.6078  -0.4688  -0.3811  -0.3088
    -0.2366  -0.1489  -0.1374  -0.0897   0.6523   0.7373   0.7968   0.8309
     0.9593   0.9797   1.1182   1.5298   2.0329   2.2509   2.4171   2.4842
     4.0732   4.5507   5.2240   5.4990   5.5458   5.5773   5.6624   5.8061
     5.8454   6.0565   6.2615   6.4624   6.5937   6.7175   6.8955   6.9158
     7.0765   7.2869   7.5048   7.7098   7.9240   7.9435   8.1725   8.2510
     8.3134   8.6038   8.7155   8.8111   9.0097   9.0945   9.4236   9.5988
     9.7984   9.8585   9.9951  10.0407  10.2003  10.3490  10.5753  10.7080
    10.8961  11.0013  11.1214  11.1918  11.4849  11.6095  11.6589  11.6856
    11.7772  11.8394  11.9845  12.1762  12.2197  12.2772  12.6959  12.7671
    12.8690  13.1503  13.2957  13.4388  13.4522  13.5438  13.5950  13.7344
    13.8121  13.8325  13.9123  13.9313  14.0863  14.1416  14.2112  14.4388
    14.5511  14.7304  14.8182  14.9467  15.0322  15.1206  15.1766  15.3567
    15.5070  15.5553  15.6903  15.7377  15.8427  15.9117  16.0381  16.1047
    16.2547  16.3348  16.3795  16.4848  16.5709  16.6508  16.7049  16.8362
    17.0429  17.1531  17.1986  17.3513  17.5124  17.5972  17.6231  17.7067
    17.7913  17.9939  18.2088  18.3416  18.3781  18.5984  18.6547  18.8451
    18.9340  19.0017  19.0435  19.2212  19.2711  19.3560  19.4567  19.5333

          k = 0.0250 0.0218 0.0000 ( 27355 PWs)   bands (ev):

   -18.4495 -18.4430 -18.4300 -18.4275 -18.4213 -18.4211 -18.4199 -18.4172
   -18.4127 -18.4117 -18.4057 -18.4056 -18.3997 -18.3989 -18.3969 -18.3968
   -18.3900 -18.3892 -18.3892 -18.3823 -18.3814 -18.3772 -18.3758 -18.3756
   -18.3752 -18.3624 -18.3606 -18.3569 -18.3551 -18.3482 -18.3470 -18.3469
   -18.3391 -18.3390 -18.3352 -18.3351 -18.3278 -18.3276 -18.3237 -18.3237
   -10.8260 -10.7516 -10.6640 -10.6140  -9.5724  -9.4502  -9.3372  -9.2765
    -4.3577  -4.1688  -3.8965  -3.6485  -2.3434  -2.0343  -1.8921  -1.8702
    -1.7487  -1.5503  -1.1688  -0.7563  -0.6211  -0.4336  -0.3419  -0.3143
    -0.2663  -0.2087  -0.1682  -0.1577   0.6873   0.7419   0.7763   0.8171
     0.9317   0.9886   1.0209   1.4564   2.0539   2.2614   2.4282   2.4936
     4.0457   4.5267   5.2101   5.4578   5.4976   5.5393   5.6201   5.8386
     5.8681   6.0794   6.3277   6.5903   6.6642   6.7893   6.8789   6.9635
     7.1044   7.4099   7.4720   7.6724   7.9041   8.0469   8.1368   8.2165
     8.4369   8.6634   8.7624   8.9475   8.9675   9.0617   9.4242   9.5880
     9.8655   9.9761  10.0728  10.1647  10.3305  10.4432  10.6744  10.7124
    10.8686  10.9454  11.1316  11.1650  11.4887  11.5231  11.6104  11.6228
    11.6553  11.6750  11.9444  11.9994  12.0931  12.1106  12.5923  12.7875
    12.8823  13.0021  13.2261  13.3664  13.4442  13.5664  13.6112  13.6383
    13.6664  13.7790  13.8555  13.9307  14.0013  14.0763  14.1700  14.4555
    14.5741  14.6839  14.7605  14.9328  15.0310  15.1242  15.2514  15.4017
    15.5093  15.5319  15.7140  15.8202  15.8666  16.0139  16.0246  16.0834
    16.2136  16.3063  16.4368  16.5237  16.6553  16.6913  16.7548  16.9241
    16.9394  16.9925  17.0880  17.1492  17.4443  17.5295  17.5593  17.7342
    17.8707  18.0007  18.0971  18.2409  18.2760  18.3864  18.5926  18.7283
    18.8480  19.0342  19.1490  19.1992  19.2137  19.3456  19.4277  19.5698

          k = 0.0000 0.0000 0.0000 ( 27299 PWs)   bands (ev):

   -18.4497 -18.4431 -18.4301 -18.4276 -18.4214 -18.4213 -18.4198 -18.4171
   -18.4125 -18.4116 -18.4058 -18.4058 -18.3998 -18.3990 -18.3968 -18.3968
   -18.3899 -18.3891 -18.3890 -18.3823 -18.3814 -18.3771 -18.3759 -18.3757
   -18.3752 -18.3624 -18.3606 -18.3569 -18.3551 -18.3480 -18.3470 -18.3469
   -18.3391 -18.3389 -18.3352 -18.3352 -18.3277 -18.3275 -18.3237 -18.3237
   -10.8325 -10.7579 -10.6701 -10.6201  -9.5738  -9.4511  -9.3375  -9.2764
    -4.3459  -4.1576  -3.8858  -3.6381  -2.3308  -2.0037  -1.8478  -1.8000
    -1.7743  -1.5661  -1.1878  -0.7771  -0.6314  -0.4096  -0.3463  -0.3258
    -0.2677  -0.2234  -0.1967  -0.1557   0.6941   0.7266   0.7709   0.8183
     0.9323   0.9825   0.9974   1.4316   2.0612   2.2653   2.4322   2.4968
     4.0366   4.5187   5.2043   5.4396   5.4805   5.5227   5.6038   5.8434
     5.8857   6.0896   6.3503   6.6323   6.6678   6.8351   6.8700   6.9731
     7.1410   7.4486   7.4799   7.6491   7.8800   8.0904   8.1264   8.1935
     8.4792   8.6602   8.8000   8.9544   8.9934   9.0499   9.4333   9.5795
     9.8888  10.0232  10.1095  10.2213  10.3981  10.4996  10.6898  10.7719
    10.7791  10.9647  11.1259  11.1886  11.4772  11.4838  11.5317  11.5935
    11.6279  11.6565  11.9070  11.9288  12.0332  12.0547  12.5587  12.8208
    12.8344  12.9646  13.1984  13.3535  13.4713  13.5053  13.5290  13.6300
    13.6519  13.8293  13.8305  13.8734  13.9600  14.0873  14.2364  14.3602
    14.6074  14.6588  14.6971  14.9132  15.0599  15.2522  15.2732  15.4109
    15.4831  15.5677  15.6235  15.8459  15.9322  15.9973  16.0256  16.0687
    16.1905  16.3705  16.5212  16.5318  16.6608  16.7144  16.7729  16.9147
    16.9270  17.0080  17.0098  17.2171  17.2172  17.3695  17.5174  17.7975
    18.0709  18.0739  18.1286  18.1352  18.2505  18.2582  18.5405  18.6041
    18.8013  18.8587  19.1462  19.2216  19.3899  19.4559  19.4789  19.5490

     Writing all to output data dir ./bi/sns.save/

     init_run     :      4.07s CPU      2.87s WALL (       1 calls)
     electrons    :   2866.97s CPU   1462.86s WALL (       1 calls)

     Called by init_run:
     wfcinit      :      0.00s CPU      0.00s WALL (       1 calls)
     wfcinit:atom :      0.57s CPU      0.32s WALL (      61 calls)
     wfcinit:wfcr :     43.59s CPU     22.47s WALL (      61 calls)
     potinit      :      0.64s CPU      0.47s WALL (       1 calls)
     hinit0       :      2.12s CPU      1.57s WALL (       1 calls)

     Called by electrons:
     c_bands      :   2866.94s CPU   1462.81s WALL (       1 calls)
     v_of_rho     :      0.20s CPU      0.11s WALL (       1 calls)
     v_h          :      0.02s CPU      0.01s WALL (       1 calls)
     v_xc         :      0.18s CPU      0.10s WALL (       1 calls)
     newd         :      1.11s CPU      0.64s WALL (       1 calls)
     PAW_pot      :      0.25s CPU      0.14s WALL (       1 calls)

     Called by c_bands:
     init_us_2    :      1.00s CPU      0.53s WALL (      61 calls)
     init_us_2:cp :      1.00s CPU      0.53s WALL (      61 calls)
     cegterg      :   2816.33s CPU   1436.30s WALL (     261 calls)

     Called by sum_band:

     Called by *egterg:
     cdiaghg      :    251.26s CPU    127.27s WALL (    4712 calls)
     cegterg:over :    298.62s CPU    151.20s WALL (    4651 calls)
     cegterg:upda :    296.48s CPU    150.34s WALL (    4651 calls)
     cegterg:last :    581.67s CPU    295.35s WALL (    1725 calls)
     cdiaghg:chol :     13.94s CPU      7.00s WALL (    4712 calls)
     cdiaghg:inve :      3.16s CPU      1.62s WALL (    4712 calls)
     cdiaghg:para :     49.75s CPU     25.95s WALL (    9424 calls)
     h_psi        :   1149.00s CPU    590.06s WALL (    4973 calls)
     s_psi        :    159.58s CPU     81.30s WALL (    4973 calls)
     g_psi        :     17.64s CPU      9.02s WALL (    4651 calls)

     Called by h_psi:
     h_psi:calbec :    186.88s CPU     94.72s WALL (    4973 calls)
     vloc_psi     :    777.08s CPU    400.62s WALL (    4973 calls)
     add_vuspsi   :    158.33s CPU     80.24s WALL (    4973 calls)

     General routines
     calbec       :    186.85s CPU     94.70s WALL (    4973 calls)
     fft          :      0.48s CPU      0.42s WALL (      13 calls)
     ffts         :      0.16s CPU      0.15s WALL (       1 calls)
     fftw         :    683.79s CPU    352.50s WALL (  697420 calls)
     interpolate  :      0.17s CPU      0.16s WALL (       1 calls)
     davcio       :      0.78s CPU      0.92s WALL (     122 calls)

     Parallel routines

     PAW routines
     PAW_pot      :      0.25s CPU      0.14s WALL (       1 calls)

     PWSCF        :  47m52.30s CPU  24m30.32s WALL


   This run was terminated on:   5: 5:13   3Jul2025            

=------------------------------------------------------------------------------=
   JOB DONE.
=------------------------------------------------------------------------------=
