
     Program PWSCF v.7.0 starts on  3Jul2025 at  3: 6:54 

     This program is part of the open-source Quantum ESPRESSO suite
     for quantum simulation of materials; please cite
         "P. Giannozzi et al., J. Phys.:Condens. Matter 21 395502 (2009);
         "P. Giannozzi et al., J. Phys.:Condens. Matter 29 465901 (2017);
         "P. Giannozzi et al., J. Chem. Phys. 152 154105 (2020);
          URL http://www.quantum-espresso.org", 
     in publications or presentations arising from this work. More details at
     http://www.quantum-espresso.org/quote

     Parallel version (MPI & OpenMP), running on      16 processor cores
     Number of MPI processes:                 8
     Threads/MPI process:                     2

     MPI processes distributed on     1 nodes
     R & G space division:  proc/nbgrp/npool/nimage =       8
     3362 MiB available memory on the printing compute node when the environment starts

     Waiting for input...
     Reading input from standard input

     Current dimensions of program PWSCF are:
     Max number of different atomic species (ntypx) = 10
     Max number of k-points (npk) =  40000
     Max angular momentum in pseudopotentials (lmaxx) =  4
     file Sn.pbe-dn-kjpaw_psl.1.0.0.UPF: wavefunction(s)  5S 5P 4D renormalized
     file S.pbe-n-kjpaw_psl.1.0.0.UPF: wavefunction(s)  3S 3P renormalized

     IMPORTANT: XC functional enforced from input :
     Exchange-correlation= PBE
                           (   1   4   3   4   0   0   0)
     Any further DFT definition will be discarded
     Please, verify this is what you really want

     Message from routine setup:
     using ibrav=0 with symmetry is DISCOURAGED, use correct ibrav instead

     Subspace diagonalization in iterative solution of the eigenvalue problem:
     one sub-group per band group will be used
     scalapack distributed-memory algorithm (size of sub-group:  2*  2 procs)


     Parallelization info
     --------------------
     sticks:   dense  smooth     PW     G-vecs:    dense   smooth      PW
     Min         255     126     36                23291     8218    1294
     Max         256     127     37                23296     8227    1299
     Sum        2045    1015    295               186345    65775   10383

     Using Slab Decomposition



     bravais-lattice index     =            0
     lattice parameter (alat)  =       7.4774  a.u.
     unit-cell volume          =    1378.8436 (a.u.)^3
     number of atoms/cell      =            8
     number of atomic types    =            2
     number of electrons       =        80.00
     number of Kohn-Sham states=          100
     kinetic-energy cutoff     =      50.0000  Ry
     charge density cutoff     =     400.0000  Ry
     scf convergence threshold =      1.0E-08
     mixing beta               =       0.3000
     number of iterations used =            8  plain     mixing
     Exchange-correlation= PBE
                           (   1   4   3   4   0   0   0)

     celldm(1)=   7.477373  celldm(2)=   0.000000  celldm(3)=   0.000000
     celldm(4)=   0.000000  celldm(5)=   0.000000  celldm(6)=   0.000000

     crystal axes: (cart. coord. in units of alat)
               a(1) = (   1.000000   0.000000   0.000000 )  
               a(2) = (   0.000000   1.145559   0.000000 )  
               a(3) = (   0.000000   0.000000   2.879059 )  

     reciprocal axes: (cart. coord. in units 2 pi/alat)
               b(1) = (  1.000000  0.000000  0.000000 )  
               b(2) = (  0.000000  0.872936  0.000000 )  
               b(3) = (  0.000000  0.000000  0.347336 )  


     PseudoPot. # 1 for Sn read from file:
     ./Sn.pbe-dn-kjpaw_psl.1.0.0.UPF
     MD5 check sum: 2f92149585f6306fdaeeb1c6304ac66c
     Pseudo is Projector augmented-wave + core cor, Zval = 14.0
     Generated using &quot;atomic&quot; code by A. Dal Corso  v.6.3
     Shape of augmentation charge: PSQ
     Using radial grid of 1243 points,  6 beta functions with: 
                l(1) =   0
                l(2) =   0
                l(3) =   1
                l(4) =   1
                l(5) =   2
                l(6) =   2
     Q(r) pseudized with 0 coefficients 


     PseudoPot. # 2 for S  read from file:
     ./S.pbe-n-kjpaw_psl.1.0.0.UPF
     MD5 check sum: 3ec093b2a8bef16a6eea98fa2dbb72c3
     Pseudo is Projector augmented-wave + core cor, Zval =  6.0
     Generated using &quot;atomic&quot; code by A. Dal Corso  v.6.3
     Shape of augmentation charge: PSQ
     Using radial grid of 1151 points,  6 beta functions with: 
                l(1) =   0
                l(2) =   0
                l(3) =   1
                l(4) =   1
                l(5) =   2
                l(6) =   2
     Q(r) pseudized with 0 coefficients 


     atomic species   valence    mass     pseudopotential
        Sn            14.00   118.71000     Sn( 1.00)
        S              6.00    32.06500     S ( 1.00)

      8 Sym. Ops., with inversion, found ( 6 have fractional translation)


                                    s                        frac. trans.

      isym =  1     identity                                     

 cryst.   s( 1) = (     1          0          0      )
                  (     0          1          0      )
                  (     0          0          1      )

 cart.    s( 1) = (  1.0000000  0.0000000  0.0000000 )
                  (  0.0000000  1.0000000  0.0000000 )
                  (  0.0000000  0.0000000  1.0000000 )


      isym =  2     180 deg rotation - cart. axis [0,0,1]        

 cryst.   s( 2) = (    -1          0          0      )    f =(  0.5000000 )
                  (     0         -1          0      )       (  0.5000000 )
                  (     0          0          1      )       ( -0.5000000 )

 cart.    s( 2) = ( -1.0000000  0.0000000  0.0000000 )    f =(  0.5000000 )
                  (  0.0000000 -1.0000000  0.0000000 )       (  0.5727794 )
                  (  0.0000000  0.0000000  1.0000000 )       ( -1.4395294 )


      isym =  3     180 deg rotation - cart. axis [0,1,0]        

 cryst.   s( 3) = (    -1          0          0      )    f =(  0.0000000 )
                  (     0          1          0      )       (  0.5000000 )
                  (     0          0         -1      )       ( -0.5000000 )

 cart.    s( 3) = ( -1.0000000  0.0000000  0.0000000 )    f =(  0.0000000 )
                  (  0.0000000  1.0000000  0.0000000 )       (  0.5727794 )
                  (  0.0000000  0.0000000 -1.0000000 )       ( -1.4395294 )


      isym =  4     180 deg rotation - cart. axis [1,0,0]        

 cryst.   s( 4) = (     1          0          0      )    f =( -0.5000000 )
                  (     0         -1          0      )       (  0.0000000 )
                  (     0          0         -1      )       (  0.0000000 )

 cart.    s( 4) = (  1.0000000  0.0000000  0.0000000 )    f =( -0.5000000 )
                  (  0.0000000 -1.0000000  0.0000000 )       (  0.0000000 )
                  (  0.0000000  0.0000000 -1.0000000 )       (  0.0000000 )


      isym =  5     inversion                                    

 cryst.   s( 5) = (    -1          0          0      )
                  (     0         -1          0      )
                  (     0          0         -1      )

 cart.    s( 5) = ( -1.0000000  0.0000000  0.0000000 )
                  (  0.0000000 -1.0000000  0.0000000 )
                  (  0.0000000  0.0000000 -1.0000000 )


      isym =  6     inv. 180 deg rotation - cart. axis [0,0,1]   

 cryst.   s( 6) = (     1          0          0      )    f =( -0.5000000 )
                  (     0          1          0      )       (  0.5000000 )
                  (     0          0         -1      )       ( -0.5000000 )

 cart.    s( 6) = (  1.0000000  0.0000000  0.0000000 )    f =( -0.5000000 )
                  (  0.0000000  1.0000000  0.0000000 )       (  0.5727794 )
                  (  0.0000000  0.0000000 -1.0000000 )       ( -1.4395294 )


      isym =  7     inv. 180 deg rotation - cart. axis [0,1,0]   

 cryst.   s( 7) = (     1          0          0      )    f =(  0.0000000 )
                  (     0         -1          0      )       (  0.5000000 )
                  (     0          0          1      )       ( -0.5000000 )

 cart.    s( 7) = (  1.0000000  0.0000000  0.0000000 )    f =(  0.0000000 )
                  (  0.0000000 -1.0000000  0.0000000 )       (  0.5727794 )
                  (  0.0000000  0.0000000  1.0000000 )       ( -1.4395294 )


      isym =  8     inv. 180 deg rotation - cart. axis [1,0,0]   

 cryst.   s( 8) = (    -1          0          0      )    f =(  0.5000000 )
                  (     0          1          0      )       (  0.0000000 )
                  (     0          0          1      )       (  0.0000000 )

 cart.    s( 8) = ( -1.0000000  0.0000000  0.0000000 )    f =(  0.5000000 )
                  (  0.0000000  1.0000000  0.0000000 )       (  0.0000000 )
                  (  0.0000000  0.0000000  1.0000000 )       (  0.0000000 )


   Cartesian axes

     site n.     atom                  positions (alat units)
         1           Sn  tau(   1) = (   0.2500000   0.4233297   1.7897172  )
         2           Sn  tau(   2) = (   0.7500000   0.7222292   1.0893415  )
         3           Sn  tau(   3) = (   0.7500000   0.9961091   2.5288709  )
         4           Sn  tau(   4) = (   0.2500000   0.1494498   0.3501878  )
         5           S   tau(   5) = (   0.2500000   0.0121393   1.0004656  )
         6           S   tau(   6) = (   0.7500000   1.1334196   1.8785931  )
         7           S   tau(   7) = (   0.7500000   0.5849187   0.4390638  )
         8           S   tau(   8) = (   0.2500000   0.5606402   2.4399950  )

   Crystallographic axes

     site n.     atom                  positions (cryst. coord.)
         1           Sn  tau(   1) = (  0.2500000  0.3695398  0.6216327  )
         2           Sn  tau(   2) = (  0.7500000  0.6304602  0.3783672  )
         3           Sn  tau(   3) = (  0.7500000  0.8695398  0.8783672  )
         4           Sn  tau(   4) = (  0.2500000  0.1304602  0.1216327  )
         5           S   tau(   5) = (  0.2500000  0.0105968  0.3474975  )
         6           S   tau(   6) = (  0.7500000  0.9894032  0.6525025  )
         7           S   tau(   7) = (  0.7500000  0.5105968  0.1525025  )
         8           S   tau(   8) = (  0.2500000  0.4894032  0.8474975  )

     number of k points=    64
                       cart. coord. in units 2pi/alat
        k(    1) = (   0.0000000   0.0000000   0.0000000), wk =   0.0092593
        k(    2) = (   0.0000000   0.0000000   0.0578893), wk =   0.0185185
        k(    3) = (   0.0000000   0.0000000   0.1157786), wk =   0.0185185
        k(    4) = (   0.0000000   0.0000000  -0.1736679), wk =   0.0092593
        k(    5) = (   0.0000000   0.1454894   0.0000000), wk =   0.0185185
        k(    6) = (   0.0000000   0.1454894   0.0578893), wk =   0.0370370
        k(    7) = (   0.0000000   0.1454894   0.1157786), wk =   0.0370370
        k(    8) = (   0.0000000   0.1454894  -0.1736679), wk =   0.0185185
        k(    9) = (   0.0000000   0.2909788   0.0000000), wk =   0.0185185
        k(   10) = (   0.0000000   0.2909788   0.0578893), wk =   0.0370370
        k(   11) = (   0.0000000   0.2909788   0.1157786), wk =   0.0370370
        k(   12) = (   0.0000000   0.2909788  -0.1736679), wk =   0.0185185
        k(   13) = (   0.0000000  -0.4364682   0.0000000), wk =   0.0092593
        k(   14) = (   0.0000000  -0.4364682   0.0578893), wk =   0.0185185
        k(   15) = (   0.0000000  -0.4364682   0.1157786), wk =   0.0185185
        k(   16) = (   0.0000000  -0.4364682  -0.1736679), wk =   0.0092593
        k(   17) = (   0.1666667   0.0000000   0.0000000), wk =   0.0185185
        k(   18) = (   0.1666667   0.0000000   0.0578893), wk =   0.0370370
        k(   19) = (   0.1666667   0.0000000   0.1157786), wk =   0.0370370
        k(   20) = (   0.1666667   0.0000000  -0.1736679), wk =   0.0185185
        k(   21) = (   0.1666667   0.1454894   0.0000000), wk =   0.0370370
        k(   22) = (   0.1666667   0.1454894   0.0578893), wk =   0.0740741
        k(   23) = (   0.1666667   0.1454894   0.1157786), wk =   0.0740741
        k(   24) = (   0.1666667   0.1454894  -0.1736679), wk =   0.0370370
        k(   25) = (   0.1666667   0.2909788   0.0000000), wk =   0.0370370
        k(   26) = (   0.1666667   0.2909788   0.0578893), wk =   0.0740741
        k(   27) = (   0.1666667   0.2909788   0.1157786), wk =   0.0740741
        k(   28) = (   0.1666667   0.2909788  -0.1736679), wk =   0.0370370
        k(   29) = (   0.1666667  -0.4364682   0.0000000), wk =   0.0185185
        k(   30) = (   0.1666667  -0.4364682   0.0578893), wk =   0.0370370
        k(   31) = (   0.1666667  -0.4364682   0.1157786), wk =   0.0370370
        k(   32) = (   0.1666667  -0.4364682  -0.1736679), wk =   0.0185185
        k(   33) = (   0.3333333   0.0000000   0.0000000), wk =   0.0185185
        k(   34) = (   0.3333333   0.0000000   0.0578893), wk =   0.0370370
        k(   35) = (   0.3333333   0.0000000   0.1157786), wk =   0.0370370
        k(   36) = (   0.3333333   0.0000000  -0.1736679), wk =   0.0185185
        k(   37) = (   0.3333333   0.1454894   0.0000000), wk =   0.0370370
        k(   38) = (   0.3333333   0.1454894   0.0578893), wk =   0.0740741
        k(   39) = (   0.3333333   0.1454894   0.1157786), wk =   0.0740741
        k(   40) = (   0.3333333   0.1454894  -0.1736679), wk =   0.0370370
        k(   41) = (   0.3333333   0.2909788   0.0000000), wk =   0.0370370
        k(   42) = (   0.3333333   0.2909788   0.0578893), wk =   0.0740741
        k(   43) = (   0.3333333   0.2909788   0.1157786), wk =   0.0740741
        k(   44) = (   0.3333333   0.2909788  -0.1736679), wk =   0.0370370
        k(   45) = (   0.3333333  -0.4364682   0.0000000), wk =   0.0185185
        k(   46) = (   0.3333333  -0.4364682   0.0578893), wk =   0.0370370
        k(   47) = (   0.3333333  -0.4364682   0.1157786), wk =   0.0370370
        k(   48) = (   0.3333333  -0.4364682  -0.1736679), wk =   0.0185185
        k(   49) = (  -0.5000000   0.0000000   0.0000000), wk =   0.0092593
        k(   50) = (  -0.5000000   0.0000000   0.0578893), wk =   0.0185185
        k(   51) = (  -0.5000000   0.0000000   0.1157786), wk =   0.0185185
        k(   52) = (  -0.5000000   0.0000000  -0.1736679), wk =   0.0092593
        k(   53) = (  -0.5000000   0.1454894   0.0000000), wk =   0.0185185
        k(   54) = (  -0.5000000   0.1454894   0.0578893), wk =   0.0370370
        k(   55) = (  -0.5000000   0.1454894   0.1157786), wk =   0.0370370
        k(   56) = (  -0.5000000   0.1454894  -0.1736679), wk =   0.0185185
        k(   57) = (  -0.5000000   0.2909788   0.0000000), wk =   0.0185185
        k(   58) = (  -0.5000000   0.2909788   0.0578893), wk =   0.0370370
        k(   59) = (  -0.5000000   0.2909788   0.1157786), wk =   0.0370370
        k(   60) = (  -0.5000000   0.2909788  -0.1736679), wk =   0.0185185
        k(   61) = (  -0.5000000  -0.4364682   0.0000000), wk =   0.0092593
        k(   62) = (  -0.5000000  -0.4364682   0.0578893), wk =   0.0185185
        k(   63) = (  -0.5000000  -0.4364682   0.1157786), wk =   0.0185185
        k(   64) = (  -0.5000000  -0.4364682  -0.1736679), wk =   0.0092593

                       cryst. coord.
        k(    1) = (   0.0000000   0.0000000   0.0000000), wk =   0.0092593
        k(    2) = (   0.0000000   0.0000000   0.1666667), wk =   0.0185185
        k(    3) = (   0.0000000   0.0000000   0.3333333), wk =   0.0185185
        k(    4) = (   0.0000000   0.0000000  -0.5000000), wk =   0.0092593
        k(    5) = (   0.0000000   0.1666667   0.0000000), wk =   0.0185185
        k(    6) = (   0.0000000   0.1666667   0.1666667), wk =   0.0370370
        k(    7) = (   0.0000000   0.1666667   0.3333333), wk =   0.0370370
        k(    8) = (   0.0000000   0.1666667  -0.5000000), wk =   0.0185185
        k(    9) = (   0.0000000   0.3333333   0.0000000), wk =   0.0185185
        k(   10) = (   0.0000000   0.3333333   0.1666667), wk =   0.0370370
        k(   11) = (   0.0000000   0.3333333   0.3333333), wk =   0.0370370
        k(   12) = (   0.0000000   0.3333333  -0.5000000), wk =   0.0185185
        k(   13) = (   0.0000000  -0.5000000   0.0000000), wk =   0.0092593
        k(   14) = (   0.0000000  -0.5000000   0.1666667), wk =   0.0185185
        k(   15) = (   0.0000000  -0.5000000   0.3333333), wk =   0.0185185
        k(   16) = (   0.0000000  -0.5000000  -0.5000000), wk =   0.0092593
        k(   17) = (   0.1666667   0.0000000   0.0000000), wk =   0.0185185
        k(   18) = (   0.1666667   0.0000000   0.1666667), wk =   0.0370370
        k(   19) = (   0.1666667   0.0000000   0.3333333), wk =   0.0370370
        k(   20) = (   0.1666667   0.0000000  -0.5000000), wk =   0.0185185
        k(   21) = (   0.1666667   0.1666667   0.0000000), wk =   0.0370370
        k(   22) = (   0.1666667   0.1666667   0.1666667), wk =   0.0740741
        k(   23) = (   0.1666667   0.1666667   0.3333333), wk =   0.0740741
        k(   24) = (   0.1666667   0.1666667  -0.5000000), wk =   0.0370370
        k(   25) = (   0.1666667   0.3333333   0.0000000), wk =   0.0370370
        k(   26) = (   0.1666667   0.3333333   0.1666667), wk =   0.0740741
        k(   27) = (   0.1666667   0.3333333   0.3333333), wk =   0.0740741
        k(   28) = (   0.1666667   0.3333333  -0.5000000), wk =   0.0370370
        k(   29) = (   0.1666667  -0.5000000   0.0000000), wk =   0.0185185
        k(   30) = (   0.1666667  -0.5000000   0.1666667), wk =   0.0370370
        k(   31) = (   0.1666667  -0.5000000   0.3333333), wk =   0.0370370
        k(   32) = (   0.1666667  -0.5000000  -0.5000000), wk =   0.0185185
        k(   33) = (   0.3333333   0.0000000   0.0000000), wk =   0.0185185
        k(   34) = (   0.3333333   0.0000000   0.1666667), wk =   0.0370370
        k(   35) = (   0.3333333   0.0000000   0.3333333), wk =   0.0370370
        k(   36) = (   0.3333333   0.0000000  -0.5000000), wk =   0.0185185
        k(   37) = (   0.3333333   0.1666667   0.0000000), wk =   0.0370370
        k(   38) = (   0.3333333   0.1666667   0.1666667), wk =   0.0740741
        k(   39) = (   0.3333333   0.1666667   0.3333333), wk =   0.0740741
        k(   40) = (   0.3333333   0.1666667  -0.5000000), wk =   0.0370370
        k(   41) = (   0.3333333   0.3333333   0.0000000), wk =   0.0370370
        k(   42) = (   0.3333333   0.3333333   0.1666667), wk =   0.0740741
        k(   43) = (   0.3333333   0.3333333   0.3333333), wk =   0.0740741
        k(   44) = (   0.3333333   0.3333333  -0.5000000), wk =   0.0370370
        k(   45) = (   0.3333333  -0.5000000   0.0000000), wk =   0.0185185
        k(   46) = (   0.3333333  -0.5000000   0.1666667), wk =   0.0370370
        k(   47) = (   0.3333333  -0.5000000   0.3333333), wk =   0.0370370
        k(   48) = (   0.3333333  -0.5000000  -0.5000000), wk =   0.0185185
        k(   49) = (  -0.5000000   0.0000000   0.0000000), wk =   0.0092593
        k(   50) = (  -0.5000000   0.0000000   0.1666667), wk =   0.0185185
        k(   51) = (  -0.5000000   0.0000000   0.3333333), wk =   0.0185185
        k(   52) = (  -0.5000000   0.0000000  -0.5000000), wk =   0.0092593
        k(   53) = (  -0.5000000   0.1666667   0.0000000), wk =   0.0185185
        k(   54) = (  -0.5000000   0.1666667   0.1666667), wk =   0.0370370
        k(   55) = (  -0.5000000   0.1666667   0.3333333), wk =   0.0370370
        k(   56) = (  -0.5000000   0.1666667  -0.5000000), wk =   0.0185185
        k(   57) = (  -0.5000000   0.3333333   0.0000000), wk =   0.0185185
        k(   58) = (  -0.5000000   0.3333333   0.1666667), wk =   0.0370370
        k(   59) = (  -0.5000000   0.3333333   0.3333333), wk =   0.0370370
        k(   60) = (  -0.5000000   0.3333333  -0.5000000), wk =   0.0185185
        k(   61) = (  -0.5000000  -0.5000000   0.0000000), wk =   0.0092593
        k(   62) = (  -0.5000000  -0.5000000   0.1666667), wk =   0.0185185
        k(   63) = (  -0.5000000  -0.5000000   0.3333333), wk =   0.0185185
        k(   64) = (  -0.5000000  -0.5000000  -0.5000000), wk =   0.0092593

     Dense  grid:   186345 G-vectors     FFT dimensions: (  48,  60, 144)

     Smooth grid:    65775 G-vectors     FFT dimensions: (  36,  40, 100)

     Dynamical RAM for                 wfc:       1.57 MB

     Dynamical RAM for     wfc (w. buffer):     102.06 MB

     Dynamical RAM for           str. fact:       0.71 MB

     Dynamical RAM for           local pot:       0.00 MB

     Dynamical RAM for          nlocal pot:       2.26 MB

     Dynamical RAM for                qrad:       3.21 MB

     Dynamical RAM for          rho,v,vnew:       2.25 MB

     Dynamical RAM for               rhoin:       0.75 MB

     Dynamical RAM for            rho*nmix:       5.69 MB

     Dynamical RAM for           G-vectors:       1.40 MB

     Dynamical RAM for          h,s,v(r/c):       0.46 MB

     Dynamical RAM for          <psi|beta>:       0.22 MB

     Dynamical RAM for                 psi:       3.14 MB

     Dynamical RAM for                hpsi:       3.14 MB

     Dynamical RAM for                spsi:       3.14 MB

     Dynamical RAM for      wfcinit/wfcrot:       3.37 MB

     Dynamical RAM for           addusdens:      67.53 MB

     Dynamical RAM for          addusforce:      69.86 MB

     Dynamical RAM for         addusstress:      71.44 MB

     Estimated static dynamical RAM per process >     115.68 MB

     Estimated max dynamical RAM per process >     192.81 MB

     Estimated total dynamical RAM >       1.51 GB

     Initial potential from superposition of free atoms

     starting charge      79.9943, renormalised to      80.0000
     Starting wfcs are   52 randomized atomic wfcs +   48 random wfcs
     Checking if some PAW data can be deallocated... 
       PAW data deallocated on    4 nodes for type:  1
       PAW data deallocated on    4 nodes for type:  2

     total cpu time spent up to now is       10.1 secs

     per-process dynamical memory:   140.3 Mb

     Self-consistent Calculation

     iteration #  1     ecut=    50.00 Ry     beta= 0.30
     Davidson diagonalization with overlap

---- Real-time Memory Report at c_bands before calling an iterative solver
           189 MiB given to the printing process from OS
           136 MiB allocation reported by mallinfo(arena+hblkhd)
          2129 MiB available memory on the node where the printing process lives
------------------
     ethr =  1.00E-02,  avg # of iterations =  7.8

     Threshold (ethr) on eigenvalues was too large:
     Diagonalizing with lowered threshold

     Davidson diagonalization with overlap

---- Real-time Memory Report at c_bands before calling an iterative solver
           255 MiB given to the printing process from OS
           141 MiB allocation reported by mallinfo(arena+hblkhd)
          2190 MiB available memory on the node where the printing process lives
------------------
     ethr =  4.66E-04,  avg # of iterations =  2.7

     total cpu time spent up to now is      155.0 secs

     total energy              =   -2033.59723299 Ry
     estimated scf accuracy    <       0.37111306 Ry

     iteration #  2     ecut=    50.00 Ry     beta= 0.30
     Davidson diagonalization with overlap

---- Real-time Memory Report at c_bands before calling an iterative solver
           256 MiB given to the printing process from OS
           142 MiB allocation reported by mallinfo(arena+hblkhd)
          2057 MiB available memory on the node where the printing process lives
------------------
     ethr =  4.64E-04,  avg # of iterations =  2.0

     total cpu time spent up to now is      191.7 secs

     total energy              =   -2033.63639925 Ry
     estimated scf accuracy    <       0.03569920 Ry

     iteration #  3     ecut=    50.00 Ry     beta= 0.30
     Davidson diagonalization with overlap

---- Real-time Memory Report at c_bands before calling an iterative solver
           256 MiB given to the printing process from OS
           142 MiB allocation reported by mallinfo(arena+hblkhd)
          2048 MiB available memory on the node where the printing process lives
------------------
     ethr =  4.46E-05,  avg # of iterations =  7.7

     total cpu time spent up to now is      274.3 secs

     total energy              =   -2033.63812301 Ry
     estimated scf accuracy    <       0.00940309 Ry

     iteration #  4     ecut=    50.00 Ry     beta= 0.30
     Davidson diagonalization with overlap

---- Real-time Memory Report at c_bands before calling an iterative solver
           257 MiB given to the printing process from OS
           143 MiB allocation reported by mallinfo(arena+hblkhd)
          2093 MiB available memory on the node where the printing process lives
------------------
     ethr =  1.18E-05,  avg # of iterations =  3.3

     total cpu time spent up to now is      321.9 secs

     total energy              =   -2033.63867414 Ry
     estimated scf accuracy    <       0.00118769 Ry

     iteration #  5     ecut=    50.00 Ry     beta= 0.30
     Davidson diagonalization with overlap

---- Real-time Memory Report at c_bands before calling an iterative solver
           257 MiB given to the printing process from OS
           143 MiB allocation reported by mallinfo(arena+hblkhd)
          1938 MiB available memory on the node where the printing process lives
------------------
     c_bands:  1 eigenvalues not converged
     ethr =  1.48E-06,  avg # of iterations =  6.8

     total cpu time spent up to now is      375.1 secs

     total energy              =   -2033.63871918 Ry
     estimated scf accuracy    <       0.00009649 Ry

     iteration #  6     ecut=    50.00 Ry     beta= 0.30
     Davidson diagonalization with overlap

---- Real-time Memory Report at c_bands before calling an iterative solver
           257 MiB given to the printing process from OS
           143 MiB allocation reported by mallinfo(arena+hblkhd)
          2117 MiB available memory on the node where the printing process lives
------------------
     ethr =  1.21E-07,  avg # of iterations =  1.2

     total cpu time spent up to now is      399.3 secs

     total energy              =   -2033.63873173 Ry
     estimated scf accuracy    <       0.00000400 Ry

     iteration #  7     ecut=    50.00 Ry     beta= 0.30
     Davidson diagonalization with overlap

---- Real-time Memory Report at c_bands before calling an iterative solver
           257 MiB given to the printing process from OS
           143 MiB allocation reported by mallinfo(arena+hblkhd)
          2044 MiB available memory on the node where the printing process lives
------------------
     ethr =  5.00E-09,  avg # of iterations =  2.0

     total cpu time spent up to now is      428.3 secs

     total energy              =   -2033.63873277 Ry
     estimated scf accuracy    <       0.00000121 Ry

     iteration #  8     ecut=    50.00 Ry     beta= 0.30
     Davidson diagonalization with overlap

---- Real-time Memory Report at c_bands before calling an iterative solver
           258 MiB given to the printing process from OS
           144 MiB allocation reported by mallinfo(arena+hblkhd)
          2134 MiB available memory on the node where the printing process lives
------------------
     ethr =  1.51E-09,  avg # of iterations =  2.0

     total cpu time spent up to now is      461.5 secs

     total energy              =   -2033.63873300 Ry
     estimated scf accuracy    <       0.00000006 Ry

     iteration #  9     ecut=    50.00 Ry     beta= 0.30
     Davidson diagonalization with overlap

---- Real-time Memory Report at c_bands before calling an iterative solver
           258 MiB given to the printing process from OS
           144 MiB allocation reported by mallinfo(arena+hblkhd)
          2058 MiB available memory on the node where the printing process lives
------------------
     ethr =  7.93E-11,  avg # of iterations =  2.0

     total cpu time spent up to now is      500.0 secs

     End of self-consistent calculation

          k = 0.0000 0.0000 0.0000 (  8239 PWs)   bands (ev):

   -13.6643 -13.6524 -13.6443 -13.6376 -13.6322 -13.6287 -13.6270 -13.6232
   -13.6129 -13.6123 -13.6045 -13.5964 -13.5944 -13.5934 -13.5756 -13.5710
   -13.5641 -13.5633 -13.5591 -13.5531  -6.0743  -5.8268  -4.8445  -4.4753
     0.3750   1.2313   2.2489   2.9507   2.9799   3.9809   4.2973   4.3454
     4.3543   4.6457   5.4208   5.5292   5.8019   6.5435   6.7598   7.2755
     8.7317  10.2935  10.4244  10.4691  10.7733  11.3291  11.3482  12.3834
    12.6292  13.0362  13.0515  13.6815  13.8413  14.4221  14.7730  15.0497
    15.1855  15.9276  16.0834  16.1960  16.3966  16.6294  16.6620  16.7784
    17.6272  17.7047  17.9399  18.3716  18.4833  18.9240  18.9907  19.3334
    20.1834  20.3620  20.6781  20.8694  21.8264  21.8823  22.7385  22.8245
    22.8862  24.0604  24.0951  24.4140  24.5283  24.5356  25.1087  25.1645
    25.3184  25.4568  25.8498  25.9434  26.7062  26.8057  26.8889  27.1590
    27.1828  27.3643  27.7119  27.9101

     occupation numbers 
     1.0000   1.0000   1.0000   1.0000   1.0000   1.0000   1.0000   1.0000
     1.0000   1.0000   1.0000   1.0000   1.0000   1.0000   1.0000   1.0000
     1.0000   1.0000   1.0000   1.0000   1.0000   1.0000   1.0000   1.0000
     1.0000   1.0000   1.0000   1.0000   1.0000   1.0000   1.0000   1.0000
     1.0000   1.0000   1.0000   1.0000   1.0000   1.0000   1.0000   1.0000
     0.0000   0.0000   0.0000   0.0000   0.0000   0.0000   0.0000   0.0000
     0.0000   0.0000   0.0000   0.0000   0.0000   0.0000   0.0000   0.0000
     0.0000   0.0000   0.0000   0.0000   0.0000   0.0000   0.0000   0.0000
     0.0000   0.0000   0.0000   0.0000   0.0000   0.0000   0.0000   0.0000
     0.0000   0.0000   0.0000   0.0000   0.0000   0.0000   0.0000   0.0000
     0.0000   0.0000   0.0000   0.0000   0.0000   0.0000   0.0000   0.0000
     0.0000   0.0000   0.0000   0.0000   0.0000   0.0000   0.0000   0.0000
     0.0000   0.0000   0.0000   0.0000

          k = 0.0000 0.0000 0.0579 (  8247 PWs)   bands (ev):

   -13.6637 -13.6537 -13.6434 -13.6379 -13.6320 -13.6293 -13.6264 -13.6234
   -13.6128 -13.6123 -13.6039 -13.5963 -13.5953 -13.5937 -13.5752 -13.5712
   -13.5638 -13.5625 -13.5594 -13.5537  -6.0612  -5.8487  -4.8146  -4.4966
     0.4088   1.1145   2.3854   2.9597   2.9793   3.8469   4.3605   4.4048
     4.4057   4.6172   5.4547   5.5002   5.7813   6.2815   6.8354   7.2505
     9.0077  10.2308  10.3584  10.4929  10.8724  11.3836  11.4047  12.1654
    12.8400  12.8582  13.0150  13.6149  13.7918  14.3526  14.8038  15.1226
    15.2425  15.7921  15.9636  16.1075  16.4354  16.6319  16.6603  16.8110
    17.7332  17.8320  18.0168  18.3308  18.6728  18.6970  19.1635  19.5547
    20.1161  20.2762  21.0827  21.1682  21.5707  21.7188  22.2222  22.8536
    22.8609  23.6352  23.9267  24.1824  24.5432  24.8618  24.9031  25.1471
    25.1722  25.4156  25.7635  26.1816  26.8843  27.0122  27.1700  27.2831
    27.3046  27.7654  27.8462  28.0413

     occupation numbers 
     1.0000   1.0000   1.0000   1.0000   1.0000   1.0000   1.0000   1.0000
     1.0000   1.0000   1.0000   1.0000   1.0000   1.0000   1.0000   1.0000
     1.0000   1.0000   1.0000   1.0000   1.0000   1.0000   1.0000   1.0000
     1.0000   1.0000   1.0000   1.0000   1.0000   1.0000   1.0000   1.0000
     1.0000   1.0000   1.0000   1.0000   1.0000   1.0000   1.0000   1.0000
     0.0000   0.0000   0.0000   0.0000   0.0000   0.0000   0.0000   0.0000
     0.0000   0.0000   0.0000   0.0000   0.0000   0.0000   0.0000   0.0000
     0.0000   0.0000   0.0000   0.0000   0.0000   0.0000   0.0000   0.0000
     0.0000   0.0000   0.0000   0.0000   0.0000   0.0000   0.0000   0.0000
     0.0000   0.0000   0.0000   0.0000   0.0000   0.0000   0.0000   0.0000
     0.0000   0.0000   0.0000   0.0000   0.0000   0.0000   0.0000   0.0000
     0.0000   0.0000   0.0000   0.0000   0.0000   0.0000   0.0000   0.0000
     0.0000   0.0000   0.0000   0.0000

          k = 0.0000 0.0000 0.1158 (  8242 PWs)   bands (ev):

   -13.6620 -13.6564 -13.6418 -13.6388 -13.6317 -13.6302 -13.6254 -13.6238
   -13.6126 -13.6123 -13.6024 -13.5975 -13.5960 -13.5944 -13.5742 -13.5718
   -13.5628 -13.5603 -13.5603 -13.5553  -6.0237  -5.9029  -4.7382  -4.5566
     0.5095   0.8884   2.6341   2.9027   3.0898   3.5983   4.4043   4.5322
     4.5489   4.5612   5.4517   5.5377   5.7227   5.8415   6.9456   7.1778
     9.5764  10.1648  10.2568  10.4133  11.1017  11.4887  11.5697  11.8912
    12.4352  12.7717  13.1621  13.6506  13.6534  14.1523  14.8974  15.2425
    15.4038  15.5449  15.8949  16.0501  16.3413  16.3455  16.7412  16.8531
    17.9820  18.0330  18.2459  18.3581  18.3941  18.9704  19.3672  19.9518
    20.3641  20.5238  21.0333  21.2273  21.5163  21.6703  21.8787  22.4129
    22.7254  23.1655  23.2757  23.7387  24.2344  24.2823  25.0092  25.4531
    25.5760  25.7578  26.2749  26.3605  26.7236  27.1615  27.1761  27.1853
    27.7747  28.2602  28.2604  28.4102

     occupation numbers 
     1.0000   1.0000   1.0000   1.0000   1.0000   1.0000   1.0000   1.0000
     1.0000   1.0000   1.0000   1.0000   1.0000   1.0000   1.0000   1.0000
     1.0000   1.0000   1.0000   1.0000   1.0000   1.0000   1.0000   1.0000
     1.0000   1.0000   1.0000   1.0000   1.0000   1.0000   1.0000   1.0000
     1.0000   1.0000   1.0000   1.0000   1.0000   1.0000   1.0000   1.0000
     0.0000   0.0000   0.0000   0.0000   0.0000   0.0000   0.0000   0.0000
     0.0000   0.0000   0.0000   0.0000   0.0000   0.0000   0.0000   0.0000
     0.0000   0.0000   0.0000   0.0000   0.0000   0.0000   0.0000   0.0000
     0.0000   0.0000   0.0000   0.0000   0.0000   0.0000   0.0000   0.0000
     0.0000   0.0000   0.0000   0.0000   0.0000   0.0000   0.0000   0.0000
     0.0000   0.0000   0.0000   0.0000   0.0000   0.0000   0.0000   0.0000
     0.0000   0.0000   0.0000   0.0000   0.0000   0.0000   0.0000   0.0000
     0.0000   0.0000   0.0000   0.0000

          k = 0.0000 0.0000-0.1737 (  8224 PWs)   bands (ev):

   -13.6594 -13.6594 -13.6401 -13.6401 -13.6310 -13.6310 -13.6245 -13.6245
   -13.6124 -13.6124 -13.6000 -13.6000 -13.5953 -13.5953 -13.5729 -13.5729
   -13.5616 -13.5616 -13.5576 -13.5576  -5.9673  -5.9673  -4.6435  -4.6435
     0.6734   0.6734   2.8071   2.8071   3.3196   3.3196   4.4710   4.4710
     4.6258   4.6258   5.5223   5.5223   5.6358   5.6358   7.0684   7.0684
    10.0698  10.0698  10.2164  10.2164  11.4308  11.4308  11.6603  11.6603
    12.4199  12.4199  13.4344  13.4344  13.8810  13.8810  15.0587  15.0587
    15.6384  15.6384  15.8605  15.8605  16.2082  16.2082  16.8280  16.8280
    18.2170  18.2170  18.2397  18.2397  18.5812  18.5812  20.1868  20.1868
    20.4597  20.4597  20.8459  20.8459  21.7234  21.7234  21.9680  21.9680
    22.7659  22.7659  23.5326  23.5326  23.7064  23.7064  25.5042  25.5042
    25.9648  25.9648  26.3626  26.3626  26.7776  26.7776  27.2213  27.2213
    28.1448  28.1449  28.3445  28.3445

     occupation numbers 
     1.0000   1.0000   1.0000   1.0000   1.0000   1.0000   1.0000   1.0000
     1.0000   1.0000   1.0000   1.0000   1.0000   1.0000   1.0000   1.0000
     1.0000   1.0000   1.0000   1.0000   1.0000   1.0000   1.0000   1.0000
     1.0000   1.0000   1.0000   1.0000   1.0000   1.0000   1.0000   1.0000
     1.0000   1.0000   1.0000   1.0000   1.0000   1.0000   1.0000   1.0000
     0.0000   0.0000   0.0000   0.0000   0.0000   0.0000   0.0000   0.0000
     0.0000   0.0000   0.0000   0.0000   0.0000   0.0000   0.0000   0.0000
     0.0000   0.0000   0.0000   0.0000   0.0000   0.0000   0.0000   0.0000
     0.0000   0.0000   0.0000   0.0000   0.0000   0.0000   0.0000   0.0000
     0.0000   0.0000   0.0000   0.0000   0.0000   0.0000   0.0000   0.0000
     0.0000   0.0000   0.0000   0.0000   0.0000   0.0000   0.0000   0.0000
     0.0000   0.0000   0.0000   0.0000   0.0000   0.0000   0.0000   0.0000
     0.0000   0.0000   0.0000   0.0000

          k = 0.0000 0.1455 0.0000 (  8247 PWs)   bands (ev):

   -13.6626 -13.6514 -13.6451 -13.6382 -13.6330 -13.6287 -13.6287 -13.6239
   -13.6103 -13.6097 -13.6037 -13.5962 -13.5949 -13.5933 -13.5751 -13.5704
   -13.5649 -13.5626 -13.5606 -13.5538  -5.9639  -5.7232  -4.8636  -4.5323
     0.0794   1.0710   1.7297   2.3565   2.9641   4.2656   4.4790   4.7641
     4.7841   4.9621   5.4584   5.7993   5.9265   6.4099   6.9687   7.2302
     8.9244   9.6391  10.4324  10.5341  10.5345  10.8751  11.6390  12.0095
    12.0638  12.7948  13.0072  13.2314  14.0084  14.2675  14.5762  14.9582
    15.1881  15.6053  16.2445  16.5947  16.6095  17.1493  17.3061  17.7534
    18.1062  18.1361  18.4960  18.6313  18.8921  19.0544  19.5358  19.8986
    20.2061  20.7676  21.3111  21.3436  21.3465  21.7903  22.0625  22.2876
    22.6107  22.6852  23.4985  23.6340  23.9613  24.1954  24.2552  24.9142
    25.2174  25.6947  26.0110  26.1605  26.7578  26.7857  26.8206  26.8601
    27.7738  27.8094  28.1443  28.2584

     occupation numbers 
     1.0000   1.0000   1.0000   1.0000   1.0000   1.0000   1.0000   1.0000
     1.0000   1.0000   1.0000   1.0000   1.0000   1.0000   1.0000   1.0000
     1.0000   1.0000   1.0000   1.0000   1.0000   1.0000   1.0000   1.0000
     1.0000   1.0000   1.0000   1.0000   1.0000   1.0000   1.0000   1.0000
     1.0000   1.0000   1.0000   1.0000   1.0000   1.0000   1.0000   1.0000
     0.0000   0.0000   0.0000   0.0000   0.0000   0.0000   0.0000   0.0000
     0.0000   0.0000   0.0000   0.0000   0.0000   0.0000   0.0000   0.0000
     0.0000   0.0000   0.0000   0.0000   0.0000   0.0000   0.0000   0.0000
     0.0000   0.0000   0.0000   0.0000   0.0000   0.0000   0.0000   0.0000
     0.0000   0.0000   0.0000   0.0000   0.0000   0.0000   0.0000   0.0000
     0.0000   0.0000   0.0000   0.0000   0.0000   0.0000   0.0000   0.0000
     0.0000   0.0000   0.0000   0.0000   0.0000   0.0000   0.0000   0.0000
     0.0000   0.0000   0.0000   0.0000

          k = 0.0000 0.1455 0.0579 (  8252 PWs)   bands (ev):

   -13.6620 -13.6527 -13.6441 -13.6385 -13.6329 -13.6298 -13.6275 -13.6241
   -13.6102 -13.6096 -13.6032 -13.5961 -13.5957 -13.5936 -13.5747 -13.5706
   -13.5646 -13.5618 -13.5608 -13.5543  -5.9513  -5.7447  -4.8360  -4.5510
     0.1183   0.9258   1.8423   2.3463   3.0425   4.2070   4.4934   4.7369
     4.7510   4.9982   5.4893   5.7811   5.9087   6.4430   6.8285   7.1877
     9.1360   9.7326  10.3956  10.4932  10.5890  10.9129  11.6242  11.7279
    12.3453  12.7302  12.9078  13.1894  13.9972  14.1217  14.6063  15.0174
    15.2601  15.7588  16.0226  16.4559  16.5710  17.1570  17.3499  17.7558
    18.2588  18.3710  18.5501  18.7521  18.9989  19.0358  19.4065  19.7365
    20.2434  20.9465  21.0602  21.1575  21.3303  21.5392  22.2008  22.5177
    22.7410  22.9272  23.3794  23.7481  24.0236  24.0568  24.3332  24.5106
    25.2333  25.3541  25.5760  26.0843  26.4279  26.8306  27.0539  27.2054
    27.6656  27.9592  28.3798  28.6591

     occupation numbers 
     1.0000   1.0000   1.0000   1.0000   1.0000   1.0000   1.0000   1.0000
     1.0000   1.0000   1.0000   1.0000   1.0000   1.0000   1.0000   1.0000
     1.0000   1.0000   1.0000   1.0000   1.0000   1.0000   1.0000   1.0000
     1.0000   1.0000   1.0000   1.0000   1.0000   1.0000   1.0000   1.0000
     1.0000   1.0000   1.0000   1.0000   1.0000   1.0000   1.0000   1.0000
     0.0000   0.0000   0.0000   0.0000   0.0000   0.0000   0.0000   0.0000
     0.0000   0.0000   0.0000   0.0000   0.0000   0.0000   0.0000   0.0000
     0.0000   0.0000   0.0000   0.0000   0.0000   0.0000   0.0000   0.0000
     0.0000   0.0000   0.0000   0.0000   0.0000   0.0000   0.0000   0.0000
     0.0000   0.0000   0.0000   0.0000   0.0000   0.0000   0.0000   0.0000
     0.0000   0.0000   0.0000   0.0000   0.0000   0.0000   0.0000   0.0000
     0.0000   0.0000   0.0000   0.0000   0.0000   0.0000   0.0000   0.0000
     0.0000   0.0000   0.0000   0.0000

          k = 0.0000 0.1455 0.1158 (  8252 PWs)   bands (ev):

   -13.6604 -13.6553 -13.6424 -13.6394 -13.6325 -13.6309 -13.6264 -13.6246
   -13.6100 -13.6096 -13.6018 -13.5975 -13.5958 -13.5943 -13.5737 -13.5713
   -13.5638 -13.5616 -13.5600 -13.5557  -5.9150  -5.7977  -4.7664  -4.6039
     0.2335   0.6638   2.0205   2.2875   3.2895   3.9887   4.5349   4.6721
     4.7813   4.9872   5.5644   5.7294   5.9415   6.3465   6.7546   7.0606
     9.5320   9.9197  10.3254  10.4332  10.7455  11.0247  11.4447  11.5189
    12.5059  12.6301  12.7450  13.0672  13.9154  14.0003  14.7412  15.1278
    15.4680  15.6017  15.9377  16.1400  16.6224  17.1272  17.4507  17.7035
    18.5210  18.5741  18.8055  18.8940  19.0710  19.3041  19.4869  19.5036
    20.0732  20.3713  20.8834  21.1031  21.4746  21.8305  22.3302  22.4007
    22.8400  23.1687  23.2893  23.4071  24.0784  24.2866  24.3043  24.7605
    24.8873  25.0620  25.2681  25.5088  25.9711  26.4477  26.9958  27.4826
    28.3439  28.6546  28.7641  29.3381

     occupation numbers 
     1.0000   1.0000   1.0000   1.0000   1.0000   1.0000   1.0000   1.0000
     1.0000   1.0000   1.0000   1.0000   1.0000   1.0000   1.0000   1.0000
     1.0000   1.0000   1.0000   1.0000   1.0000   1.0000   1.0000   1.0000
     1.0000   1.0000   1.0000   1.0000   1.0000   1.0000   1.0000   1.0000
     1.0000   1.0000   1.0000   1.0000   1.0000   1.0000   1.0000   1.0000
     0.0000   0.0000   0.0000   0.0000   0.0000   0.0000   0.0000   0.0000
     0.0000   0.0000   0.0000   0.0000   0.0000   0.0000   0.0000   0.0000
     0.0000   0.0000   0.0000   0.0000   0.0000   0.0000   0.0000   0.0000
     0.0000   0.0000   0.0000   0.0000   0.0000   0.0000   0.0000   0.0000
     0.0000   0.0000   0.0000   0.0000   0.0000   0.0000   0.0000   0.0000
     0.0000   0.0000   0.0000   0.0000   0.0000   0.0000   0.0000   0.0000
     0.0000   0.0000   0.0000   0.0000   0.0000   0.0000   0.0000   0.0000
     0.0000   0.0000   0.0000   0.0000

          k = 0.0000 0.1455-0.1737 (  8236 PWs)   bands (ev):

   -13.6580 -13.6580 -13.6407 -13.6407 -13.6318 -13.6318 -13.6254 -13.6254
   -13.6097 -13.6097 -13.5997 -13.5997 -13.5952 -13.5952 -13.5725 -13.5725
   -13.5627 -13.5627 -13.5577 -13.5577  -5.8603  -5.8603  -4.6812  -4.6812
     0.4199   0.4199   2.1724   2.1724   3.6453   3.6453   4.5982   4.5982
     4.8885   4.8885   5.6522   5.6522   6.1043   6.1043   6.8947   6.8947
     9.8447   9.8447  10.3590  10.3590  11.1411  11.1411  11.2052  11.2052
    12.5261  12.5261  12.8758  12.8758  13.9323  13.9323  14.9773  14.9773
    15.6791  15.6791  15.7810  15.7810  16.9403  16.9403  17.5812  17.5812
    18.6022  18.6022  18.9378  18.9378  19.2326  19.2326  19.7936  19.7936
    19.8195  19.8195  21.0090  21.0090  21.6302  21.6302  22.6283  22.6283
    22.6879  22.6879  23.3038  23.3038  24.4944  24.4944  24.6191  24.6191
    24.6620  24.6620  25.3198  25.3198  25.8887  25.8887  27.3191  27.3191
    28.7221  28.7221  29.4106  29.4107

     occupation numbers 
     1.0000   1.0000   1.0000   1.0000   1.0000   1.0000   1.0000   1.0000
     1.0000   1.0000   1.0000   1.0000   1.0000   1.0000   1.0000   1.0000
     1.0000   1.0000   1.0000   1.0000   1.0000   1.0000   1.0000   1.0000
     1.0000   1.0000   1.0000   1.0000   1.0000   1.0000   1.0000   1.0000
     1.0000   1.0000   1.0000   1.0000   1.0000   1.0000   1.0000   1.0000
     0.0000   0.0000   0.0000   0.0000   0.0000   0.0000   0.0000   0.0000
     0.0000   0.0000   0.0000   0.0000   0.0000   0.0000   0.0000   0.0000
     0.0000   0.0000   0.0000   0.0000   0.0000   0.0000   0.0000   0.0000
     0.0000   0.0000   0.0000   0.0000   0.0000   0.0000   0.0000   0.0000
     0.0000   0.0000   0.0000   0.0000   0.0000   0.0000   0.0000   0.0000
     0.0000   0.0000   0.0000   0.0000   0.0000   0.0000   0.0000   0.0000
     0.0000   0.0000   0.0000   0.0000   0.0000   0.0000   0.0000   0.0000
     0.0000   0.0000   0.0000   0.0000

          k = 0.0000 0.2910 0.0000 (  8257 PWs)   bands (ev):

   -13.6579 -13.6485 -13.6476 -13.6405 -13.6344 -13.6320 -13.6286 -13.6258
   -13.6040 -13.6037 -13.6016 -13.5967 -13.5965 -13.5938 -13.5735 -13.5687
   -13.5671 -13.5637 -13.5606 -13.5556  -5.6643  -5.4402  -4.9836  -4.7289
    -0.2500   0.6612   0.8671   1.6279   3.3073   4.6103   4.8343   5.0756
     5.4438   5.4702   5.5116   5.7143   6.0723   6.9556   7.1586   7.4087
     8.9160   9.5434   9.5717  10.0299  10.2656  10.5167  11.0138  11.4908
    11.8483  12.2316  12.4216  13.3580  14.1900  14.7396  15.1681  15.4696
    15.5006  15.5239  16.3223  16.6684  17.0733  17.4270  18.1254  18.3866
    18.5514  18.9548  19.0205  19.1034  19.7004  19.8114  20.1739  20.4111
    20.5825  20.6240  20.7999  20.9880  21.1955  21.4312  21.8733  22.0600
    22.1815  22.7975  23.1454  23.1672  24.1695  24.3523  24.9964  25.1194
    25.2604  25.3553  25.6506  25.6885  26.4772  26.5299  26.6146  26.7796
    27.0564  27.5283  27.5364  28.3597

     occupation numbers 
     1.0000   1.0000   1.0000   1.0000   1.0000   1.0000   1.0000   1.0000
     1.0000   1.0000   1.0000   1.0000   1.0000   1.0000   1.0000   1.0000
     1.0000   1.0000   1.0000   1.0000   1.0000   1.0000   1.0000   1.0000
     1.0000   1.0000   1.0000   1.0000   1.0000   1.0000   1.0000   1.0000
     1.0000   1.0000   1.0000   1.0000   1.0000   1.0000   1.0000   1.0000
     0.0000   0.0000   0.0000   0.0000   0.0000   0.0000   0.0000   0.0000
     0.0000   0.0000   0.0000   0.0000   0.0000   0.0000   0.0000   0.0000
     0.0000   0.0000   0.0000   0.0000   0.0000   0.0000   0.0000   0.0000
     0.0000   0.0000   0.0000   0.0000   0.0000   0.0000   0.0000   0.0000
     0.0000   0.0000   0.0000   0.0000   0.0000   0.0000   0.0000   0.0000
     0.0000   0.0000   0.0000   0.0000   0.0000   0.0000   0.0000   0.0000
     0.0000   0.0000   0.0000   0.0000   0.0000   0.0000   0.0000   0.0000
     0.0000   0.0000   0.0000   0.0000

          k = 0.0000 0.2910 0.0579 (  8262 PWs)   bands (ev):

   -13.6575 -13.6503 -13.6460 -13.6408 -13.6342 -13.6321 -13.6285 -13.6260
   -13.6039 -13.6037 -13.6012 -13.5968 -13.5966 -13.5941 -13.5731 -13.5691
   -13.5668 -13.5639 -13.5602 -13.5559  -5.6532  -5.4623  -4.9595  -4.7422
    -0.2105   0.5265   0.9686   1.5799   3.4243   4.6605   4.8461   5.0510
     5.1962   5.4948   5.5877   5.7021   6.1315   6.9182   7.0810   7.4002
     8.9430   9.5189   9.8774  10.0005  10.3003  10.4609  10.9215  11.5753
    11.7866  12.1904  12.4240  13.2425  14.2129  14.6007  15.1889  15.4245
    15.5942  15.7964  16.2049  16.8433  17.0086  17.3129  17.9106  18.2990
    18.6765  18.8469  19.1028  19.4033  19.5141  19.8239  19.9877  20.2143
    20.6021  20.7057  20.8897  21.2465  21.3865  21.5084  21.7948  22.2404
    22.3645  22.7565  23.0296  23.1012  24.0038  24.3935  24.5784  24.7383
    25.0235  25.5523  25.6986  25.9500  26.1221  26.4892  26.9539  27.0631
    27.4210  27.5672  27.9730  28.2602

     occupation numbers 
     1.0000   1.0000   1.0000   1.0000   1.0000   1.0000   1.0000   1.0000
     1.0000   1.0000   1.0000   1.0000   1.0000   1.0000   1.0000   1.0000
     1.0000   1.0000   1.0000   1.0000   1.0000   1.0000   1.0000   1.0000
     1.0000   1.0000   1.0000   1.0000   1.0000   1.0000   1.0000   1.0000
     1.0000   1.0000   1.0000   1.0000   1.0000   1.0000   1.0000   1.0000
     0.0000   0.0000   0.0000   0.0000   0.0000   0.0000   0.0000   0.0000
     0.0000   0.0000   0.0000   0.0000   0.0000   0.0000   0.0000   0.0000
     0.0000   0.0000   0.0000   0.0000   0.0000   0.0000   0.0000   0.0000
     0.0000   0.0000   0.0000   0.0000   0.0000   0.0000   0.0000   0.0000
     0.0000   0.0000   0.0000   0.0000   0.0000   0.0000   0.0000   0.0000
     0.0000   0.0000   0.0000   0.0000   0.0000   0.0000   0.0000   0.0000
     0.0000   0.0000   0.0000   0.0000   0.0000   0.0000   0.0000   0.0000
     0.0000   0.0000   0.0000   0.0000

          k = 0.0000 0.2910 0.1158 (  8234 PWs)   bands (ev):

   -13.6564 -13.6526 -13.6442 -13.6415 -13.6338 -13.6325 -13.6280 -13.6266
   -13.6038 -13.6036 -13.6003 -13.5978 -13.5962 -13.5948 -13.5722 -13.5700
   -13.5661 -13.5645 -13.5592 -13.5567  -5.6211  -5.5141  -4.9023  -4.7800
    -0.0955   0.3033   1.1231   1.4539   3.7375   4.5741   4.8803   4.9948
     5.0621   5.4868   5.5514   5.6672   6.2805   6.7099   7.1036   7.3128
     9.1097   9.4975   9.9824  10.2622  10.4004  10.4947  10.7398  11.5442
    11.7413  12.0776  12.4856  12.9494  14.2497  14.4000  15.3013  15.6189
    15.8599  15.9580  15.9990  16.6955  17.0672  17.3554  17.9072  17.9753
    18.4032  18.7421  19.2951  19.3400  19.6940  19.8682  19.8958  20.0593
    20.7329  21.0263  21.0974  21.1853  21.5155  21.5946  22.2326  22.3380
    22.6305  22.6450  22.8892  23.0451  23.6729  23.9935  24.1841  24.5680
    24.6977  24.9178  25.9050  26.4293  26.6145  27.1122  27.1325  27.3168
    27.4647  27.5722  27.8079  27.8710

     occupation numbers 
     1.0000   1.0000   1.0000   1.0000   1.0000   1.0000   1.0000   1.0000
     1.0000   1.0000   1.0000   1.0000   1.0000   1.0000   1.0000   1.0000
     1.0000   1.0000   1.0000   1.0000   1.0000   1.0000   1.0000   1.0000
     1.0000   1.0000   1.0000   1.0000   1.0000   1.0000   1.0000   1.0000
     1.0000   1.0000   1.0000   1.0000   1.0000   1.0000   1.0000   1.0000
     0.0000   0.0000   0.0000   0.0000   0.0000   0.0000   0.0000   0.0000
     0.0000   0.0000   0.0000   0.0000   0.0000   0.0000   0.0000   0.0000
     0.0000   0.0000   0.0000   0.0000   0.0000   0.0000   0.0000   0.0000
     0.0000   0.0000   0.0000   0.0000   0.0000   0.0000   0.0000   0.0000
     0.0000   0.0000   0.0000   0.0000   0.0000   0.0000   0.0000   0.0000
     0.0000   0.0000   0.0000   0.0000   0.0000   0.0000   0.0000   0.0000
     0.0000   0.0000   0.0000   0.0000   0.0000   0.0000   0.0000   0.0000
     0.0000   0.0000   0.0000   0.0000

          k = 0.0000 0.2910-0.1737 (  8240 PWs)   bands (ev):

   -13.6547 -13.6547 -13.6427 -13.6427 -13.6332 -13.6332 -13.6273 -13.6273
   -13.6037 -13.6037 -13.5990 -13.5990 -13.5956 -13.5956 -13.5710 -13.5710
   -13.5653 -13.5653 -13.5579 -13.5579  -5.5721  -5.5721  -4.8368  -4.8368
     0.0832   0.0832   1.2900   1.2900   4.1617   4.1617   4.9327   4.9327
     5.2676   5.2676   5.6141   5.6141   6.4764   6.4764   7.1973   7.1973
     9.3404   9.3404  10.0979  10.0979  10.5539  10.5539  11.0778  11.0778
    11.9186  11.9186  12.6591  12.6591  14.2929  14.2929  15.5769  15.5769
    15.9066  15.9066  16.2539  16.2539  17.3510  17.3510  17.9077  17.9077
    18.3333  18.3333  19.4645  19.4645  19.5740  19.5740  20.2020  20.2020
    20.9344  20.9344  21.3513  21.3513  21.3987  21.3987  22.4276  22.4276
    22.7800  22.7800  22.8133  22.8133  23.7732  23.7732  24.0452  24.0452
    24.6884  24.6884  26.5292  26.5292  27.0731  27.0731  27.2708  27.2708
    27.5438  27.5440  27.5494  27.5495

     occupation numbers 
     1.0000   1.0000   1.0000   1.0000   1.0000   1.0000   1.0000   1.0000
     1.0000   1.0000   1.0000   1.0000   1.0000   1.0000   1.0000   1.0000
     1.0000   1.0000   1.0000   1.0000   1.0000   1.0000   1.0000   1.0000
     1.0000   1.0000   1.0000   1.0000   1.0000   1.0000   1.0000   1.0000
     1.0000   1.0000   1.0000   1.0000   1.0000   1.0000   1.0000   1.0000
     0.0000   0.0000   0.0000   0.0000   0.0000   0.0000   0.0000   0.0000
     0.0000   0.0000   0.0000   0.0000   0.0000   0.0000   0.0000   0.0000
     0.0000   0.0000   0.0000   0.0000   0.0000   0.0000   0.0000   0.0000
     0.0000   0.0000   0.0000   0.0000   0.0000   0.0000   0.0000   0.0000
     0.0000   0.0000   0.0000   0.0000   0.0000   0.0000   0.0000   0.0000
     0.0000   0.0000   0.0000   0.0000   0.0000   0.0000   0.0000   0.0000
     0.0000   0.0000   0.0000   0.0000   0.0000   0.0000   0.0000   0.0000
     0.0000   0.0000   0.0000   0.0000

          k = 0.0000-0.4365 0.0000 (  8212 PWs)   bands (ev):

   -13.6523 -13.6523 -13.6444 -13.6444 -13.6343 -13.6343 -13.6276 -13.6276
   -13.5991 -13.5991 -13.5988 -13.5988 -13.5972 -13.5972 -13.5705 -13.5705
   -13.5664 -13.5664 -13.5580 -13.5580  -5.2809  -5.2809  -5.0650  -5.0650
    -0.0743  -0.0743   1.0373   1.0373   3.9985   3.9985   5.2505   5.2505
     5.4479   5.4479   5.8283   5.8283   6.5504   6.5504   7.4697   7.4697
     9.1939   9.1939   9.6565   9.6565  10.2872  10.2872  10.6830  10.6830
    11.5397  11.5397  13.2270  13.2270  15.2315  15.2315  15.5036  15.5036
    16.2280  16.2280  16.4322  16.4322  17.1761  17.1761  17.7604  17.7604
    18.1624  18.1624  18.9606  18.9606  19.6172  19.6172  19.6939  19.6939
    21.2016  21.2016  21.5952  21.5952  22.4070  22.4070  22.6006  22.6006
    23.3814  23.3814  23.5172  23.5172  23.8527  23.8527  24.5242  24.5242
    24.8564  24.8564  25.4085  25.4085  25.8645  25.8645  26.6892  26.6892
    27.3184  27.3185  27.6708  27.6708

     occupation numbers 
     1.0000   1.0000   1.0000   1.0000   1.0000   1.0000   1.0000   1.0000
     1.0000   1.0000   1.0000   1.0000   1.0000   1.0000   1.0000   1.0000
     1.0000   1.0000   1.0000   1.0000   1.0000   1.0000   1.0000   1.0000
     1.0000   1.0000   1.0000   1.0000   1.0000   1.0000   1.0000   1.0000
     1.0000   1.0000   1.0000   1.0000   1.0000   1.0000   1.0000   1.0000
     0.0000   0.0000   0.0000   0.0000   0.0000   0.0000   0.0000   0.0000
     0.0000   0.0000   0.0000   0.0000   0.0000   0.0000   0.0000   0.0000
     0.0000   0.0000   0.0000   0.0000   0.0000   0.0000   0.0000   0.0000
     0.0000   0.0000   0.0000   0.0000   0.0000   0.0000   0.0000   0.0000
     0.0000   0.0000   0.0000   0.0000   0.0000   0.0000   0.0000   0.0000
     0.0000   0.0000   0.0000   0.0000   0.0000   0.0000   0.0000   0.0000
     0.0000   0.0000   0.0000   0.0000   0.0000   0.0000   0.0000   0.0000
     0.0000   0.0000   0.0000   0.0000

          k = 0.0000-0.4365 0.0579 (  8244 PWs)   bands (ev):

   -13.6522 -13.6522 -13.6445 -13.6445 -13.6342 -13.6342 -13.6278 -13.6278
   -13.5990 -13.5990 -13.5988 -13.5988 -13.5974 -13.5974 -13.5703 -13.5703
   -13.5666 -13.5666 -13.5581 -13.5581  -5.2801  -5.2801  -5.0660  -5.0660
    -0.0559  -0.0559   0.9967   0.9967   4.1075   4.1075   5.2519   5.2519
     5.4463   5.4463   5.6526   5.6526   6.6148   6.6148   7.4708   7.4708
     9.1930   9.1930   9.6563   9.6563  10.2963  10.2963  10.7832  10.7832
    11.5222  11.5222  13.0981  13.0981  15.2762  15.2762  15.5602  15.5602
    16.3201  16.3201  16.4563  16.4563  17.0399  17.0399  17.5554  17.5554
    18.4402  18.4402  18.5193  18.5193  19.8104  19.8104  20.0740  20.0740
    20.8966  20.8966  21.7591  21.7591  22.3064  22.3064  22.7239  22.7239
    23.4153  23.4153  23.5650  23.5650  23.8630  23.8630  24.3133  24.3133
    24.9150  24.9150  25.3924  25.3924  25.8581  25.8581  26.6578  26.6578
    27.2303  27.2303  27.2633  27.2633

     occupation numbers 
     1.0000   1.0000   1.0000   1.0000   1.0000   1.0000   1.0000   1.0000
     1.0000   1.0000   1.0000   1.0000   1.0000   1.0000   1.0000   1.0000
     1.0000   1.0000   1.0000   1.0000   1.0000   1.0000   1.0000   1.0000
     1.0000   1.0000   1.0000   1.0000   1.0000   1.0000   1.0000   1.0000
     1.0000   1.0000   1.0000   1.0000   1.0000   1.0000   1.0000   1.0000
     0.0000   0.0000   0.0000   0.0000   0.0000   0.0000   0.0000   0.0000
     0.0000   0.0000   0.0000   0.0000   0.0000   0.0000   0.0000   0.0000
     0.0000   0.0000   0.0000   0.0000   0.0000   0.0000   0.0000   0.0000
     0.0000   0.0000   0.0000   0.0000   0.0000   0.0000   0.0000   0.0000
     0.0000   0.0000   0.0000   0.0000   0.0000   0.0000   0.0000   0.0000
     0.0000   0.0000   0.0000   0.0000   0.0000   0.0000   0.0000   0.0000
     0.0000   0.0000   0.0000   0.0000   0.0000   0.0000   0.0000   0.0000
     0.0000   0.0000   0.0000   0.0000

          k = 0.0000-0.4365 0.1158 (  8248 PWs)   bands (ev):

   -13.6522 -13.6522 -13.6445 -13.6445 -13.6340 -13.6340 -13.6281 -13.6281
   -13.5988 -13.5988 -13.5987 -13.5987 -13.5977 -13.5977 -13.5699 -13.5699
   -13.5670 -13.5670 -13.5581 -13.5581  -5.2785  -5.2785  -5.0681  -5.0681
    -0.0156  -0.0156   0.9143   0.9143   4.3988   4.3988   5.2546   5.2546
     5.2708   5.2708   5.4430   5.4430   6.7002   6.7002   7.4714   7.4714
     9.2041   9.2041   9.6390   9.6390  10.3153  10.3153  11.0203  11.0203
    11.4869  11.4869  12.8169  12.8169  15.3307  15.3307  15.7455  15.7455
    16.4439  16.4439  16.5584  16.5584  16.9004  16.9004  17.2054  17.2054
    17.9469  17.9469  18.9528  18.9528  19.8263  19.8263  20.6105  20.6105
    20.6879  20.6879  21.8774  21.8774  22.0465  22.0465  23.0155  23.0155
    23.5028  23.5028  23.5680  23.5680  23.8502  23.8502  23.9205  23.9205
    25.2398  25.2398  25.3869  25.3869  25.6283  25.6283  26.4501  26.4501
    26.7550  26.7550  27.3359  27.3359

     occupation numbers 
     1.0000   1.0000   1.0000   1.0000   1.0000   1.0000   1.0000   1.0000
     1.0000   1.0000   1.0000   1.0000   1.0000   1.0000   1.0000   1.0000
     1.0000   1.0000   1.0000   1.0000   1.0000   1.0000   1.0000   1.0000
     1.0000   1.0000   1.0000   1.0000   1.0000   1.0000   1.0000   1.0000
     1.0000   1.0000   1.0000   1.0000   1.0000   1.0000   1.0000   1.0000
     0.0000   0.0000   0.0000   0.0000   0.0000   0.0000   0.0000   0.0000
     0.0000   0.0000   0.0000   0.0000   0.0000   0.0000   0.0000   0.0000
     0.0000   0.0000   0.0000   0.0000   0.0000   0.0000   0.0000   0.0000
     0.0000   0.0000   0.0000   0.0000   0.0000   0.0000   0.0000   0.0000
     0.0000   0.0000   0.0000   0.0000   0.0000   0.0000   0.0000   0.0000
     0.0000   0.0000   0.0000   0.0000   0.0000   0.0000   0.0000   0.0000
     0.0000   0.0000   0.0000   0.0000   0.0000   0.0000   0.0000   0.0000
     0.0000   0.0000   0.0000   0.0000

          k = 0.0000-0.4365-0.1737 (  8244 PWs)   bands (ev):

   -13.6521 -13.6521 -13.6446 -13.6446 -13.6338 -13.6338 -13.6283 -13.6283
   -13.5987 -13.5987 -13.5982 -13.5982 -13.5982 -13.5982 -13.5697 -13.5697
   -13.5672 -13.5672 -13.5581 -13.5581  -5.2776  -5.2776  -5.0692  -5.0692
     0.0068   0.0068   0.8718   0.8718   4.7244   4.7244   4.9111   4.9111
     5.2560   5.2560   5.4413   5.4413   6.7318   6.7318   7.4709   7.4709
     9.2158   9.2158   9.6232   9.6232  10.3252  10.3252  11.1671  11.1671
    11.4691  11.4691  12.6527  12.6527  15.3481  15.3481  15.8963  15.8963
    16.3685  16.3685  16.7410  16.7410  16.9209  16.9209  16.9989  16.9989
    17.6491  17.6491  19.4037  19.4037  19.5423  19.5423  20.5284  20.5284
    21.0271  21.0271  21.8351  21.8351  22.0286  22.0286  22.9640  22.9640
    23.5688  23.5688  23.7221  23.7221  23.7241  23.7241  23.8138  23.8138
    25.2664  25.2664  25.4041  25.4041  25.8458  25.8458  26.0544  26.0544
    26.5400  26.5400  27.4578  27.4578

     occupation numbers 
     1.0000   1.0000   1.0000   1.0000   1.0000   1.0000   1.0000   1.0000
     1.0000   1.0000   1.0000   1.0000   1.0000   1.0000   1.0000   1.0000
     1.0000   1.0000   1.0000   1.0000   1.0000   1.0000   1.0000   1.0000
     1.0000   1.0000   1.0000   1.0000   1.0000   1.0000   1.0000   1.0000
     1.0000   1.0000   1.0000   1.0000   1.0000   1.0000   1.0000   1.0000
     0.0000   0.0000   0.0000   0.0000   0.0000   0.0000   0.0000   0.0000
     0.0000   0.0000   0.0000   0.0000   0.0000   0.0000   0.0000   0.0000
     0.0000   0.0000   0.0000   0.0000   0.0000   0.0000   0.0000   0.0000
     0.0000   0.0000   0.0000   0.0000   0.0000   0.0000   0.0000   0.0000
     0.0000   0.0000   0.0000   0.0000   0.0000   0.0000   0.0000   0.0000
     0.0000   0.0000   0.0000   0.0000   0.0000   0.0000   0.0000   0.0000
     0.0000   0.0000   0.0000   0.0000   0.0000   0.0000   0.0000   0.0000
     0.0000   0.0000   0.0000   0.0000

          k = 0.1667 0.0000 0.0000 (  8233 PWs)   bands (ev):

   -13.6568 -13.6483 -13.6367 -13.6367 -13.6335 -13.6312 -13.6299 -13.6268
   -13.6108 -13.6106 -13.6050 -13.6008 -13.5941 -13.5924 -13.5775 -13.5694
   -13.5679 -13.5616 -13.5578 -13.5531  -5.9032  -5.6705  -4.7667  -4.4489
     0.2273   0.9728   2.1323   2.2831   2.9175   4.0769   4.1789   4.4344
     4.4378   4.6478   5.4836   5.5586   5.6944   6.7587   6.9488   7.1504
     8.9425   9.6583  10.5042  10.6028  10.9286  10.9478  11.5298  11.6392
    11.7375  13.1308  13.1338  13.1959  13.6776  13.9449  14.1982  14.3656
    14.4851  15.8448  16.4639  16.6022  16.7951  16.8181  17.3567  17.7736
    17.9462  18.6130  18.6715  18.8345  19.4354  19.7338  19.7844  19.8077
    20.2275  20.5328  20.8415  21.7469  21.8274  22.1029  22.7605  22.8712
    23.0306  23.4465  23.8727  24.3437  24.6471  25.2427  25.2555  25.3294
    25.7794  25.7841  26.5622  26.6415  26.7517  26.8216  27.0434  27.2609
    27.2775  27.4711  27.6159  27.9656

     occupation numbers 
     1.0000   1.0000   1.0000   1.0000   1.0000   1.0000   1.0000   1.0000
     1.0000   1.0000   1.0000   1.0000   1.0000   1.0000   1.0000   1.0000
     1.0000   1.0000   1.0000   1.0000   1.0000   1.0000   1.0000   1.0000
     1.0000   1.0000   1.0000   1.0000   1.0000   1.0000   1.0000   1.0000
     1.0000   1.0000   1.0000   1.0000   1.0000   1.0000   1.0000   1.0000
     0.0000   0.0000   0.0000   0.0000   0.0000   0.0000   0.0000   0.0000
     0.0000   0.0000   0.0000   0.0000   0.0000   0.0000   0.0000   0.0000
     0.0000   0.0000   0.0000   0.0000   0.0000   0.0000   0.0000   0.0000
     0.0000   0.0000   0.0000   0.0000   0.0000   0.0000   0.0000   0.0000
     0.0000   0.0000   0.0000   0.0000   0.0000   0.0000   0.0000   0.0000
     0.0000   0.0000   0.0000   0.0000   0.0000   0.0000   0.0000   0.0000
     0.0000   0.0000   0.0000   0.0000   0.0000   0.0000   0.0000   0.0000
     0.0000   0.0000   0.0000   0.0000

          k = 0.1667 0.0000 0.0579 (  8238 PWs)   bands (ev):

   -13.6563 -13.6490 -13.6366 -13.6365 -13.6336 -13.6315 -13.6295 -13.6269
   -13.6105 -13.6104 -13.6050 -13.6012 -13.5942 -13.5926 -13.5771 -13.5708
   -13.5663 -13.5613 -13.5579 -13.5536  -5.8908  -5.6909  -4.7404  -4.4668
     0.2594   0.8858   2.1844   2.2852   2.9833   4.0347   4.0973   4.3939
     4.5725   4.6932   5.4691   5.5356   5.6828   6.5384   6.9928   7.1547
     9.1927   9.7343  10.4274  10.6105  10.9042  10.9911  11.2744  11.7127
    11.9523  13.0229  13.0570  13.1877  13.6657  13.9096  14.1124  14.3757
    14.4677  15.8988  16.1836  16.4424  17.0521  17.0524  17.4244  17.9289
    18.0108  18.4614  18.6583  18.9438  19.4548  19.7827  19.8703  19.9755
    20.0198  20.4854  20.9453  21.3181  21.8477  22.2944  22.4140  22.9674
    23.0447  23.6353  23.9419  23.9544  24.6794  24.7316  25.1285  25.3914
    26.1393  26.2658  26.5003  26.5818  26.7117  26.8018  27.0669  27.0985
    27.4274  27.5366  27.7884  28.0564

     occupation numbers 
     1.0000   1.0000   1.0000   1.0000   1.0000   1.0000   1.0000   1.0000
     1.0000   1.0000   1.0000   1.0000   1.0000   1.0000   1.0000   1.0000
     1.0000   1.0000   1.0000   1.0000   1.0000   1.0000   1.0000   1.0000
     1.0000   1.0000   1.0000   1.0000   1.0000   1.0000   1.0000   1.0000
     1.0000   1.0000   1.0000   1.0000   1.0000   1.0000   1.0000   1.0000
     0.0000   0.0000   0.0000   0.0000   0.0000   0.0000   0.0000   0.0000
     0.0000   0.0000   0.0000   0.0000   0.0000   0.0000   0.0000   0.0000
     0.0000   0.0000   0.0000   0.0000   0.0000   0.0000   0.0000   0.0000
     0.0000   0.0000   0.0000   0.0000   0.0000   0.0000   0.0000   0.0000
     0.0000   0.0000   0.0000   0.0000   0.0000   0.0000   0.0000   0.0000
     0.0000   0.0000   0.0000   0.0000   0.0000   0.0000   0.0000   0.0000
     0.0000   0.0000   0.0000   0.0000   0.0000   0.0000   0.0000   0.0000
     0.0000   0.0000   0.0000   0.0000

          k = 0.1667 0.0000 0.1158 (  8246 PWs)   bands (ev):

   -13.6550 -13.6508 -13.6365 -13.6362 -13.6336 -13.6322 -13.6288 -13.6273
   -13.6100 -13.6100 -13.6046 -13.6024 -13.5942 -13.5933 -13.5760 -13.5727
   -13.5642 -13.5612 -13.5577 -13.5547  -5.8554  -5.7417  -4.6739  -4.5177
     0.3545   0.6986   2.2576   2.2895   3.1848   3.7753   4.1554   4.3292
     4.7359   4.7931   5.4478   5.4823   5.6867   6.1334   7.0665   7.1546
     9.6326  10.0252  10.2192  10.6269  10.8521  10.9847  11.1273  11.6741
    12.2467  12.8358  12.8377  13.1036  13.6383  13.8173  14.0910  14.3497
    14.5755  15.4497  16.3279  16.3852  17.2522  17.3568  17.5026  18.1000
    18.1819  18.3828  18.6726  18.8614  19.5385  19.9017  19.9318  20.1446
    20.3001  20.3896  20.6295  21.3214  21.7107  21.7853  22.3910  22.6749
    22.9333  23.6395  23.7771  24.1678  24.5756  24.8399  25.4493  25.4508
    25.9736  25.9844  26.2438  26.2977  26.7144  26.8646  27.0493  27.3140
    27.6756  27.8085  27.9869  28.2532

     occupation numbers 
     1.0000   1.0000   1.0000   1.0000   1.0000   1.0000   1.0000   1.0000
     1.0000   1.0000   1.0000   1.0000   1.0000   1.0000   1.0000   1.0000
     1.0000   1.0000   1.0000   1.0000   1.0000   1.0000   1.0000   1.0000
     1.0000   1.0000   1.0000   1.0000   1.0000   1.0000   1.0000   1.0000
     1.0000   1.0000   1.0000   1.0000   1.0000   1.0000   1.0000   1.0000
     0.0000   0.0000   0.0000   0.0000   0.0000   0.0000   0.0000   0.0000
     0.0000   0.0000   0.0000   0.0000   0.0000   0.0000   0.0000   0.0000
     0.0000   0.0000   0.0000   0.0000   0.0000   0.0000   0.0000   0.0000
     0.0000   0.0000   0.0000   0.0000   0.0000   0.0000   0.0000   0.0000
     0.0000   0.0000   0.0000   0.0000   0.0000   0.0000   0.0000   0.0000
     0.0000   0.0000   0.0000   0.0000   0.0000   0.0000   0.0000   0.0000
     0.0000   0.0000   0.0000   0.0000   0.0000   0.0000   0.0000   0.0000
     0.0000   0.0000   0.0000   0.0000

          k = 0.1667 0.0000-0.1737 (  8238 PWs)   bands (ev):

   -13.6530 -13.6530 -13.6363 -13.6363 -13.6330 -13.6330 -13.6280 -13.6280
   -13.6097 -13.6097 -13.6037 -13.6037 -13.5938 -13.5938 -13.5744 -13.5744
   -13.5624 -13.5624 -13.5563 -13.5563  -5.8022  -5.8022  -4.5921  -4.5921
     0.5066   0.5066   2.2871   2.2871   3.4757   3.4757   4.2403   4.2403
     4.8310   4.8310   5.4481   5.4481   5.8116   5.8116   7.1275   7.1275
     9.9476   9.9476  10.4716  10.4716  10.8176  10.8176  11.3947  11.3947
    12.5359  12.5359  12.9116  12.9116  13.7029  13.7029  14.2105  14.2105
    14.9470  14.9470  16.4051  16.4051  17.3845  17.3845  17.7794  17.7794
    18.4819  18.4819  18.6324  18.6324  19.8369  19.8369  19.9892  19.9892
    20.4685  20.4685  20.9172  20.9172  21.7245  21.7245  22.1994  22.1994
    23.1207  23.1207  24.2473  24.2473  24.9656  24.9656  25.5255  25.5255
    25.6468  25.6469  25.9596  25.9596  26.8971  26.8971  27.2386  27.2387
    27.8233  27.8234  28.2707  28.2707

     occupation numbers 
     1.0000   1.0000   1.0000   1.0000   1.0000   1.0000   1.0000   1.0000
     1.0000   1.0000   1.0000   1.0000   1.0000   1.0000   1.0000   1.0000
     1.0000   1.0000   1.0000   1.0000   1.0000   1.0000   1.0000   1.0000
     1.0000   1.0000   1.0000   1.0000   1.0000   1.0000   1.0000   1.0000
     1.0000   1.0000   1.0000   1.0000   1.0000   1.0000   1.0000   1.0000
     0.0000   0.0000   0.0000   0.0000   0.0000   0.0000   0.0000   0.0000
     0.0000   0.0000   0.0000   0.0000   0.0000   0.0000   0.0000   0.0000
     0.0000   0.0000   0.0000   0.0000   0.0000   0.0000   0.0000   0.0000
     0.0000   0.0000   0.0000   0.0000   0.0000   0.0000   0.0000   0.0000
     0.0000   0.0000   0.0000   0.0000   0.0000   0.0000   0.0000   0.0000
     0.0000   0.0000   0.0000   0.0000   0.0000   0.0000   0.0000   0.0000
     0.0000   0.0000   0.0000   0.0000   0.0000   0.0000   0.0000   0.0000
     0.0000   0.0000   0.0000   0.0000

          k = 0.1667 0.1455 0.0000 (  8254 PWs)   bands (ev):

   -13.6557 -13.6478 -13.6386 -13.6375 -13.6343 -13.6307 -13.6305 -13.6283
   -13.6097 -13.6074 -13.6037 -13.6009 -13.5952 -13.5914 -13.5769 -13.5698
   -13.5677 -13.5609 -13.5594 -13.5533  -5.7973  -5.5718  -4.7825  -4.4955
     0.0701   0.9508   1.6596   2.0756   3.0309   3.6105   3.8969   4.6335
     5.0162   5.0996   5.2835   5.4796   6.1988   6.4878   7.1391   7.2126
     9.1032   9.6542  10.0985  10.2283  10.7340  10.7734  11.6396  11.7801
    11.8848  12.4776  12.5015  13.5380  13.8204  14.6812  14.7754  14.9946
    15.0805  16.1072  16.1403  16.3724  16.5739  16.8095  17.4220  17.6042
    18.0338  18.8698  19.1877  19.3436  19.3817  19.4986  19.9732  20.1755
    20.5041  20.7153  21.5377  21.5692  22.2786  22.4838  22.5038  22.5317
    23.2274  23.2866  23.5542  23.8456  24.2656  24.3311  24.4823  25.2598
    25.3666  25.4748  25.5126  25.8757  26.2826  26.3041  26.6121  27.4332
    27.6716  27.6812  28.1584  28.4445

     occupation numbers 
     1.0000   1.0000   1.0000   1.0000   1.0000   1.0000   1.0000   1.0000
     1.0000   1.0000   1.0000   1.0000   1.0000   1.0000   1.0000   1.0000
     1.0000   1.0000   1.0000   1.0000   1.0000   1.0000   1.0000   1.0000
     1.0000   1.0000   1.0000   1.0000   1.0000   1.0000   1.0000   1.0000
     1.0000   1.0000   1.0000   1.0000   1.0000   1.0000   1.0000   1.0000
     0.0000   0.0000   0.0000   0.0000   0.0000   0.0000   0.0000   0.0000
     0.0000   0.0000   0.0000   0.0000   0.0000   0.0000   0.0000   0.0000
     0.0000   0.0000   0.0000   0.0000   0.0000   0.0000   0.0000   0.0000
     0.0000   0.0000   0.0000   0.0000   0.0000   0.0000   0.0000   0.0000
     0.0000   0.0000   0.0000   0.0000   0.0000   0.0000   0.0000   0.0000
     0.0000   0.0000   0.0000   0.0000   0.0000   0.0000   0.0000   0.0000
     0.0000   0.0000   0.0000   0.0000   0.0000   0.0000   0.0000   0.0000
     0.0000   0.0000   0.0000   0.0000

          k = 0.1667 0.1455 0.0579 (  8256 PWs)   bands (ev):

   -13.6553 -13.6485 -13.6385 -13.6375 -13.6342 -13.6311 -13.6300 -13.6283
   -13.6093 -13.6073 -13.6037 -13.6013 -13.5950 -13.5917 -13.5766 -13.5711
   -13.5664 -13.5609 -13.5592 -13.5537  -5.7854  -5.5918  -4.7583  -4.5114
     0.1074   0.8386   1.7279   2.0600   3.1178   3.6234   3.9174   4.5365
     4.9539   5.1414   5.3218   5.4497   6.1970   6.4842   7.0401   7.2195
     9.2916   9.6844  10.0717  10.3039  10.7082  10.7904  11.5620  11.8051
    11.8759  12.4122  12.4867  13.3314  13.9268  14.5889  14.8527  14.9832
    15.1470  16.0071  16.1484  16.2314  16.8127  16.9924  17.2538  17.8497
    18.0560  18.6456  18.8261  19.3117  19.4083  19.8383  19.9821  20.2897
    20.6205  20.9309  21.2571  21.6168  22.0963  22.3472  22.4172  22.6493
    23.2735  23.5630  23.6030  23.7858  24.0147  24.3143  24.3970  24.7232
    25.0444  25.5823  25.8713  25.9151  26.5650  26.6628  26.8706  27.2544
    27.5401  27.8475  28.0626  28.4957

     occupation numbers 
     1.0000   1.0000   1.0000   1.0000   1.0000   1.0000   1.0000   1.0000
     1.0000   1.0000   1.0000   1.0000   1.0000   1.0000   1.0000   1.0000
     1.0000   1.0000   1.0000   1.0000   1.0000   1.0000   1.0000   1.0000
     1.0000   1.0000   1.0000   1.0000   1.0000   1.0000   1.0000   1.0000
     1.0000   1.0000   1.0000   1.0000   1.0000   1.0000   1.0000   1.0000
     0.0000   0.0000   0.0000   0.0000   0.0000   0.0000   0.0000   0.0000
     0.0000   0.0000   0.0000   0.0000   0.0000   0.0000   0.0000   0.0000
     0.0000   0.0000   0.0000   0.0000   0.0000   0.0000   0.0000   0.0000
     0.0000   0.0000   0.0000   0.0000   0.0000   0.0000   0.0000   0.0000
     0.0000   0.0000   0.0000   0.0000   0.0000   0.0000   0.0000   0.0000
     0.0000   0.0000   0.0000   0.0000   0.0000   0.0000   0.0000   0.0000
     0.0000   0.0000   0.0000   0.0000   0.0000   0.0000   0.0000   0.0000
     0.0000   0.0000   0.0000   0.0000

          k = 0.1667 0.1455 0.1158 (  8251 PWs)   bands (ev):

   -13.6540 -13.6501 -13.6383 -13.6376 -13.6337 -13.6319 -13.6294 -13.6285
   -13.6085 -13.6072 -13.6036 -13.6021 -13.5945 -13.5926 -13.5757 -13.5728
   -13.5646 -13.5616 -13.5580 -13.5547  -5.7512  -5.6413  -4.6974  -4.5567
     0.2171   0.6142   1.8429   2.0134   3.3376   3.6360   3.9723   4.3155
     4.9166   5.1089   5.3793   5.4115   6.2184   6.4115   6.9971   7.1672
     9.5633   9.7353  10.1972  10.4651  10.6101  10.8578  11.4039  11.6137
    12.0189  12.3029  12.4627  12.9367  14.1286  14.4701  14.8820  14.9751
    15.3092  15.7711  16.1340  16.3551  17.0281  17.0779  17.3969  17.8704
    17.9214  18.3345  18.9228  19.3473  19.4293  19.7570  20.1694  20.4011
    20.8009  21.0374  21.3381  21.5364  21.9254  22.2028  22.4450  22.6445
    23.1086  23.4610  23.5963  23.7600  24.0249  24.1754  24.3509  24.4269
    24.6676  25.7695  25.9725  26.0554  26.7013  27.0916  27.3026  27.4396
    27.5909  27.7667  27.9377  28.2274

     occupation numbers 
     1.0000   1.0000   1.0000   1.0000   1.0000   1.0000   1.0000   1.0000
     1.0000   1.0000   1.0000   1.0000   1.0000   1.0000   1.0000   1.0000
     1.0000   1.0000   1.0000   1.0000   1.0000   1.0000   1.0000   1.0000
     1.0000   1.0000   1.0000   1.0000   1.0000   1.0000   1.0000   1.0000
     1.0000   1.0000   1.0000   1.0000   1.0000   1.0000   1.0000   1.0000
     0.0000   0.0000   0.0000   0.0000   0.0000   0.0000   0.0000   0.0000
     0.0000   0.0000   0.0000   0.0000   0.0000   0.0000   0.0000   0.0000
     0.0000   0.0000   0.0000   0.0000   0.0000   0.0000   0.0000   0.0000
     0.0000   0.0000   0.0000   0.0000   0.0000   0.0000   0.0000   0.0000
     0.0000   0.0000   0.0000   0.0000   0.0000   0.0000   0.0000   0.0000
     0.0000   0.0000   0.0000   0.0000   0.0000   0.0000   0.0000   0.0000
     0.0000   0.0000   0.0000   0.0000   0.0000   0.0000   0.0000   0.0000
     0.0000   0.0000   0.0000   0.0000

          k = 0.1667 0.1455-0.1737 (  8244 PWs)   bands (ev):

   -13.6522 -13.6522 -13.6379 -13.6379 -13.6328 -13.6328 -13.6289 -13.6289
   -13.6076 -13.6076 -13.6030 -13.6030 -13.5936 -13.5936 -13.5744 -13.5744
   -13.5629 -13.5629 -13.5563 -13.5563  -5.6999  -5.6999  -4.6233  -4.6233
     0.3920   0.3920   1.9400   1.9400   3.5570   3.5570   4.0928   4.0928
     4.9858   4.9858   5.4054   5.4054   6.2948   6.2948   7.0746   7.0746
     9.6862   9.6862  10.4389  10.4389  10.7814  10.7814  11.3581  11.3581
    12.1784  12.1784  12.6020  12.6020  14.3282  14.3282  14.9143  14.9143
    15.5270  15.5270  16.2975  16.2975  17.1678  17.1678  17.4645  17.4645
    18.1427  18.1427  19.2352  19.2352  19.6035  19.6035  20.1998  20.1998
    21.1269  21.1269  21.3551  21.3551  22.0752  22.0752  22.5160  22.5160
    23.2284  23.2284  23.5398  23.5398  24.0021  24.0021  24.3779  24.3779
    25.2180  25.2180  26.1218  26.1218  27.0107  27.0108  27.4105  27.4105
    27.7180  27.7180  28.1525  28.1526

     occupation numbers 
     1.0000   1.0000   1.0000   1.0000   1.0000   1.0000   1.0000   1.0000
     1.0000   1.0000   1.0000   1.0000   1.0000   1.0000   1.0000   1.0000
     1.0000   1.0000   1.0000   1.0000   1.0000   1.0000   1.0000   1.0000
     1.0000   1.0000   1.0000   1.0000   1.0000   1.0000   1.0000   1.0000
     1.0000   1.0000   1.0000   1.0000   1.0000   1.0000   1.0000   1.0000
     0.0000   0.0000   0.0000   0.0000   0.0000   0.0000   0.0000   0.0000
     0.0000   0.0000   0.0000   0.0000   0.0000   0.0000   0.0000   0.0000
     0.0000   0.0000   0.0000   0.0000   0.0000   0.0000   0.0000   0.0000
     0.0000   0.0000   0.0000   0.0000   0.0000   0.0000   0.0000   0.0000
     0.0000   0.0000   0.0000   0.0000   0.0000   0.0000   0.0000   0.0000
     0.0000   0.0000   0.0000   0.0000   0.0000   0.0000   0.0000   0.0000
     0.0000   0.0000   0.0000   0.0000   0.0000   0.0000   0.0000   0.0000
     0.0000   0.0000   0.0000   0.0000

          k = 0.1667 0.2910 0.0000 (  8232 PWs)   bands (ev):

   -13.6526 -13.6461 -13.6430 -13.6400 -13.6349 -13.6323 -13.6306 -13.6306
   -13.6066 -13.6020 -13.6017 -13.5994 -13.5958 -13.5915 -13.5751 -13.5710
   -13.5668 -13.5623 -13.5590 -13.5544  -5.5126  -5.3052  -4.8876  -4.6621
    -0.1132   0.7648   0.9229   1.5815   3.4533   3.6427   3.8916   4.6976
     4.7311   5.1470   5.4336   5.8018   6.4351   6.5023   7.0710   7.2613
     9.2536   9.7041   9.7689  10.1542  10.7015  10.8020  11.2097  11.6916
    12.2410  12.3141  12.4058  13.3209  13.8814  14.9805  15.1660  15.4396
    15.5358  16.1776  16.2538  17.0792  17.5069  17.5967  17.7907  17.9939
    18.6025  18.8286  18.9029  19.1259  19.5749  20.1115  20.1559  20.2422
    20.6106  20.8758  21.2105  21.3631  21.9754  22.1429  22.1682  22.6673
    23.0745  23.0981  23.3579  23.6671  23.7586  24.2010  24.3303  24.7698
    25.1317  25.3485  25.5899  26.0980  26.3539  26.5774  26.8774  26.9388
    27.3907  27.6614  27.7016  27.9350

     occupation numbers 
     1.0000   1.0000   1.0000   1.0000   1.0000   1.0000   1.0000   1.0000
     1.0000   1.0000   1.0000   1.0000   1.0000   1.0000   1.0000   1.0000
     1.0000   1.0000   1.0000   1.0000   1.0000   1.0000   1.0000   1.0000
     1.0000   1.0000   1.0000   1.0000   1.0000   1.0000   1.0000   1.0000
     1.0000   1.0000   1.0000   1.0000   1.0000   1.0000   1.0000   1.0000
     0.0000   0.0000   0.0000   0.0000   0.0000   0.0000   0.0000   0.0000
     0.0000   0.0000   0.0000   0.0000   0.0000   0.0000   0.0000   0.0000
     0.0000   0.0000   0.0000   0.0000   0.0000   0.0000   0.0000   0.0000
     0.0000   0.0000   0.0000   0.0000   0.0000   0.0000   0.0000   0.0000
     0.0000   0.0000   0.0000   0.0000   0.0000   0.0000   0.0000   0.0000
     0.0000   0.0000   0.0000   0.0000   0.0000   0.0000   0.0000   0.0000
     0.0000   0.0000   0.0000   0.0000   0.0000   0.0000   0.0000   0.0000
     0.0000   0.0000   0.0000   0.0000

          k = 0.1667 0.2910 0.0579 (  8226 PWs)   bands (ev):

   -13.6522 -13.6467 -13.6429 -13.6402 -13.6346 -13.6320 -13.6311 -13.6303
   -13.6063 -13.6026 -13.6013 -13.5997 -13.5953 -13.5918 -13.5751 -13.5718
   -13.5661 -13.5625 -13.5585 -13.5546  -5.5023  -5.3255  -4.8661  -4.6737
    -0.0753   0.6279   1.0277   1.5438   3.5158   3.6639   3.9433   4.6602
     4.6796   5.2405   5.3209   5.8023   6.4323   6.5040   7.0117   7.2186
     9.3930   9.7407   9.9077  10.1208  10.6538  10.8150  11.2112  11.5614
    12.1586  12.2798  12.4671  13.1748  14.0209  15.0743  15.1895  15.4218
    15.6880  16.1371  16.2866  16.9027  17.3070  17.4931  17.9057  18.0793
    18.3476  18.7343  19.1023  19.4371  19.6565  19.9487  20.2150  20.4137
    20.4910  20.8484  21.1365  21.5688  21.8018  22.0521  22.2129  22.6506
    22.9176  23.0942  23.4045  23.7482  23.9544  24.1945  24.3520  24.8982
    25.0613  25.2207  25.7042  25.9734  26.3751  26.4728  26.7344  26.9762
    27.3511  27.4752  27.5531  28.0832

     occupation numbers 
     1.0000   1.0000   1.0000   1.0000   1.0000   1.0000   1.0000   1.0000
     1.0000   1.0000   1.0000   1.0000   1.0000   1.0000   1.0000   1.0000
     1.0000   1.0000   1.0000   1.0000   1.0000   1.0000   1.0000   1.0000
     1.0000   1.0000   1.0000   1.0000   1.0000   1.0000   1.0000   1.0000
     1.0000   1.0000   1.0000   1.0000   1.0000   1.0000   1.0000   1.0000
     0.0000   0.0000   0.0000   0.0000   0.0000   0.0000   0.0000   0.0000
     0.0000   0.0000   0.0000   0.0000   0.0000   0.0000   0.0000   0.0000
     0.0000   0.0000   0.0000   0.0000   0.0000   0.0000   0.0000   0.0000
     0.0000   0.0000   0.0000   0.0000   0.0000   0.0000   0.0000   0.0000
     0.0000   0.0000   0.0000   0.0000   0.0000   0.0000   0.0000   0.0000
     0.0000   0.0000   0.0000   0.0000   0.0000   0.0000   0.0000   0.0000
     0.0000   0.0000   0.0000   0.0000   0.0000   0.0000   0.0000   0.0000
     0.0000   0.0000   0.0000   0.0000

          k = 0.1667 0.2910 0.1158 (  8233 PWs)   bands (ev):

   -13.6513 -13.6481 -13.6424 -13.6410 -13.6338 -13.6319 -13.6313 -13.6303
   -13.6056 -13.6036 -13.6009 -13.6001 -13.5943 -13.5924 -13.5749 -13.5732
   -13.5650 -13.5631 -13.5575 -13.5553  -5.4724  -5.3732  -4.8152  -4.7070
     0.0349   0.4145   1.1693   1.4442   3.6242   3.7048   4.1227   4.5767
     4.6262   5.0115   5.4508   5.7553   6.4417   6.4954   6.9495   7.1043
     9.6450   9.9169  10.0198  10.2062  10.5604  10.8294  11.1746  11.3203
    12.0447  12.1900  12.5356  12.8661  14.3802  15.0507  15.4081  15.5295
    15.8924  16.1534  16.3198  16.6209  16.8741  17.0117  18.0935  18.2184
    18.4099  18.7289  19.3010  19.5971  19.7014  19.9476  20.2739  20.3886
    20.5894  20.8318  21.1413  21.4908  21.6312  21.7941  22.2272  22.8397
    22.9435  23.1977  23.3783  23.8735  24.0070  24.1905  24.4156  24.7719
    25.2020  25.3495  25.6954  25.7728  26.1258  26.2110  26.6505  26.8230
    27.4067  27.5001  27.6833  28.0730

     occupation numbers 
     1.0000   1.0000   1.0000   1.0000   1.0000   1.0000   1.0000   1.0000
     1.0000   1.0000   1.0000   1.0000   1.0000   1.0000   1.0000   1.0000
     1.0000   1.0000   1.0000   1.0000   1.0000   1.0000   1.0000   1.0000
     1.0000   1.0000   1.0000   1.0000   1.0000   1.0000   1.0000   1.0000
     1.0000   1.0000   1.0000   1.0000   1.0000   1.0000   1.0000   1.0000
     0.0000   0.0000   0.0000   0.0000   0.0000   0.0000   0.0000   0.0000
     0.0000   0.0000   0.0000   0.0000   0.0000   0.0000   0.0000   0.0000
     0.0000   0.0000   0.0000   0.0000   0.0000   0.0000   0.0000   0.0000
     0.0000   0.0000   0.0000   0.0000   0.0000   0.0000   0.0000   0.0000
     0.0000   0.0000   0.0000   0.0000   0.0000   0.0000   0.0000   0.0000
     0.0000   0.0000   0.0000   0.0000   0.0000   0.0000   0.0000   0.0000
     0.0000   0.0000   0.0000   0.0000   0.0000   0.0000   0.0000   0.0000
     0.0000   0.0000   0.0000   0.0000

          k = 0.1667 0.2910-0.1737 (  8232 PWs)   bands (ev):

   -13.6498 -13.6498 -13.6418 -13.6418 -13.6328 -13.6328 -13.6307 -13.6307
   -13.6046 -13.6046 -13.6005 -13.6005 -13.5933 -13.5933 -13.5743 -13.5743
   -13.5640 -13.5640 -13.5563 -13.5563  -5.4269  -5.4269  -4.7571  -4.7571
     0.2055   0.2055   1.3113   1.3113   3.6943   3.6943   4.3946   4.3946
     4.7251   4.7251   5.6314   5.6314   6.4691   6.4691   6.9885   6.9885
     9.8434   9.8434  10.1976  10.1976  10.7123  10.7123  11.1534  11.1534
    12.0663  12.0663  12.6386  12.6386  14.7837  14.7837  15.5818  15.5818
    16.2043  16.2043  16.3528  16.3528  16.6327  16.6327  18.2378  18.2378
    18.6065  18.6065  19.4282  19.4282  19.9763  19.9763  20.3221  20.3221
    20.6968  20.6968  21.1212  21.1212  21.7532  21.7532  22.6079  22.6079
    23.0692  23.0692  23.6105  23.6105  24.2248  24.2248  24.5580  24.5580
    25.2583  25.2583  25.7041  25.7041  26.0841  26.0841  26.7576  26.7576
    27.2534  27.2534  28.1789  28.1789

     occupation numbers 
     1.0000   1.0000   1.0000   1.0000   1.0000   1.0000   1.0000   1.0000
     1.0000   1.0000   1.0000   1.0000   1.0000   1.0000   1.0000   1.0000
     1.0000   1.0000   1.0000   1.0000   1.0000   1.0000   1.0000   1.0000
     1.0000   1.0000   1.0000   1.0000   1.0000   1.0000   1.0000   1.0000
     1.0000   1.0000   1.0000   1.0000   1.0000   1.0000   1.0000   1.0000
     0.0000   0.0000   0.0000   0.0000   0.0000   0.0000   0.0000   0.0000
     0.0000   0.0000   0.0000   0.0000   0.0000   0.0000   0.0000   0.0000
     0.0000   0.0000   0.0000   0.0000   0.0000   0.0000   0.0000   0.0000
     0.0000   0.0000   0.0000   0.0000   0.0000   0.0000   0.0000   0.0000
     0.0000   0.0000   0.0000   0.0000   0.0000   0.0000   0.0000   0.0000
     0.0000   0.0000   0.0000   0.0000   0.0000   0.0000   0.0000   0.0000
     0.0000   0.0000   0.0000   0.0000   0.0000   0.0000   0.0000   0.0000
     0.0000   0.0000   0.0000   0.0000

          k = 0.1667-0.4365 0.0000 (  8252 PWs)   bands (ev):

   -13.6481 -13.6481 -13.6433 -13.6433 -13.6344 -13.6344 -13.6310 -13.6310
   -13.6040 -13.6040 -13.5975 -13.5975 -13.5944 -13.5944 -13.5729 -13.5729
   -13.5649 -13.5649 -13.5566 -13.5566  -5.1560  -5.1560  -4.9601  -4.9601
     0.0916   0.0916   1.1118   1.1118   3.9048   3.9048   4.2526   4.2526
     4.5973   4.5973   5.6769   5.6769   6.6662   6.6662   7.0824   7.0824
     9.2522   9.2522  10.1003  10.1003  11.0686  11.0686  11.4522  11.4522
    11.9283  11.9283  13.0028  13.0028  14.2058  14.2058  15.4899  15.4899
    16.6625  16.6625  16.7987  16.7987  17.3226  17.3226  18.5398  18.5398
    18.7244  18.7244  18.9977  18.9977  19.4858  19.4858  20.1933  20.1933
    20.6981  20.6981  21.1457  21.1457  22.0932  22.0932  22.9536  22.9536
    23.1415  23.1415  23.7272  23.7272  23.9237  23.9237  24.2851  24.2851
    24.7336  24.7336  25.0153  25.0153  26.8480  26.8480  27.0481  27.0481
    27.4240  27.4241  27.8285  27.8285

     occupation numbers 
     1.0000   1.0000   1.0000   1.0000   1.0000   1.0000   1.0000   1.0000
     1.0000   1.0000   1.0000   1.0000   1.0000   1.0000   1.0000   1.0000
     1.0000   1.0000   1.0000   1.0000   1.0000   1.0000   1.0000   1.0000
     1.0000   1.0000   1.0000   1.0000   1.0000   1.0000   1.0000   1.0000
     1.0000   1.0000   1.0000   1.0000   1.0000   1.0000   1.0000   1.0000
     0.0000   0.0000   0.0000   0.0000   0.0000   0.0000   0.0000   0.0000
     0.0000   0.0000   0.0000   0.0000   0.0000   0.0000   0.0000   0.0000
     0.0000   0.0000   0.0000   0.0000   0.0000   0.0000   0.0000   0.0000
     0.0000   0.0000   0.0000   0.0000   0.0000   0.0000   0.0000   0.0000
     0.0000   0.0000   0.0000   0.0000   0.0000   0.0000   0.0000   0.0000
     0.0000   0.0000   0.0000   0.0000   0.0000   0.0000   0.0000   0.0000
     0.0000   0.0000   0.0000   0.0000   0.0000   0.0000   0.0000   0.0000
     0.0000   0.0000   0.0000   0.0000

          k = 0.1667-0.4365 0.0579 (  8240 PWs)   bands (ev):

   -13.6479 -13.6479 -13.6438 -13.6438 -13.6340 -13.6340 -13.6311 -13.6311
   -13.6040 -13.6040 -13.5976 -13.5976 -13.5942 -13.5942 -13.5733 -13.5733
   -13.5648 -13.5648 -13.5565 -13.5565  -5.1553  -5.1553  -4.9610  -4.9610
     0.1075   0.1075   1.0792   1.0792   3.9409   3.9409   4.2504   4.2504
     4.6459   4.6459   5.6227   5.6227   6.6590   6.6590   7.0013   7.0013
     9.4102   9.4102  10.1425  10.1425  10.9360  10.9360  11.4478  11.4478
    11.9444  11.9444  12.8972  12.8972  14.3611  14.3611  15.5690  15.5690
    16.5441  16.5441  16.8814  16.8814  17.1740  17.1740  18.3299  18.3299
    18.6316  18.6316  19.2007  19.2007  19.5557  19.5557  20.3975  20.3975
    20.7152  20.7152  21.2171  21.2171  22.0779  22.0779  22.5920  22.5920
    23.2663  23.2663  23.4793  23.4793  24.0039  24.0039  24.3752  24.3752
    24.7070  24.7070  25.4626  25.4626  26.5915  26.5915  27.0439  27.0439
    27.3729  27.3729  27.6918  27.6918

     occupation numbers 
     1.0000   1.0000   1.0000   1.0000   1.0000   1.0000   1.0000   1.0000
     1.0000   1.0000   1.0000   1.0000   1.0000   1.0000   1.0000   1.0000
     1.0000   1.0000   1.0000   1.0000   1.0000   1.0000   1.0000   1.0000
     1.0000   1.0000   1.0000   1.0000   1.0000   1.0000   1.0000   1.0000
     1.0000   1.0000   1.0000   1.0000   1.0000   1.0000   1.0000   1.0000
     0.0000   0.0000   0.0000   0.0000   0.0000   0.0000   0.0000   0.0000
     0.0000   0.0000   0.0000   0.0000   0.0000   0.0000   0.0000   0.0000
     0.0000   0.0000   0.0000   0.0000   0.0000   0.0000   0.0000   0.0000
     0.0000   0.0000   0.0000   0.0000   0.0000   0.0000   0.0000   0.0000
     0.0000   0.0000   0.0000   0.0000   0.0000   0.0000   0.0000   0.0000
     0.0000   0.0000   0.0000   0.0000   0.0000   0.0000   0.0000   0.0000
     0.0000   0.0000   0.0000   0.0000   0.0000   0.0000   0.0000   0.0000
     0.0000   0.0000   0.0000   0.0000

          k = 0.1667-0.4365 0.1158 (  8240 PWs)   bands (ev):

   -13.6473 -13.6473 -13.6448 -13.6448 -13.6331 -13.6331 -13.6315 -13.6315
   -13.6040 -13.6040 -13.5979 -13.5979 -13.5937 -13.5937 -13.5739 -13.5739
   -13.5646 -13.5646 -13.5563 -13.5563  -5.1538  -5.1538  -4.9628  -4.9628
     0.1422   0.1422   1.0125   1.0125   4.0125   4.0125   4.2324   4.2324
     4.8047   4.8047   5.4543   5.4543   6.6552   6.6552   6.8614   6.8614
     9.7533   9.7533  10.2160  10.2160  10.7481  10.7481  11.3034  11.3034
    11.9963  11.9963  12.7043  12.7043  14.7840  14.7840  15.6655  15.6655
    16.1764  16.1764  16.9029  16.9029  17.1294  17.1294  18.1423  18.1423
    18.4193  18.4193  19.3511  19.3511  19.8167  19.8167  20.5974  20.5974
    20.8563  20.8563  21.2577  21.2577  22.0659  22.0659  22.4770  22.4770
    22.9316  22.9316  23.1680  23.1680  24.1267  24.1267  24.5460  24.5460
    24.9907  24.9907  25.9145  25.9145  26.2880  26.2880  26.6805  26.6805
    27.2465  27.2465  27.8056  27.8056

     occupation numbers 
     1.0000   1.0000   1.0000   1.0000   1.0000   1.0000   1.0000   1.0000
     1.0000   1.0000   1.0000   1.0000   1.0000   1.0000   1.0000   1.0000
     1.0000   1.0000   1.0000   1.0000   1.0000   1.0000   1.0000   1.0000
     1.0000   1.0000   1.0000   1.0000   1.0000   1.0000   1.0000   1.0000
     1.0000   1.0000   1.0000   1.0000   1.0000   1.0000   1.0000   1.0000
     0.0000   0.0000   0.0000   0.0000   0.0000   0.0000   0.0000   0.0000
     0.0000   0.0000   0.0000   0.0000   0.0000   0.0000   0.0000   0.0000
     0.0000   0.0000   0.0000   0.0000   0.0000   0.0000   0.0000   0.0000
     0.0000   0.0000   0.0000   0.0000   0.0000   0.0000   0.0000   0.0000
     0.0000   0.0000   0.0000   0.0000   0.0000   0.0000   0.0000   0.0000
     0.0000   0.0000   0.0000   0.0000   0.0000   0.0000   0.0000   0.0000
     0.0000   0.0000   0.0000   0.0000   0.0000   0.0000   0.0000   0.0000
     0.0000   0.0000   0.0000   0.0000

          k = 0.1667-0.4365-0.1737 (  8224 PWs)   bands (ev):

   -13.6466 -13.6466 -13.6457 -13.6457 -13.6324 -13.6324 -13.6320 -13.6320
   -13.6040 -13.6040 -13.5980 -13.5980 -13.5934 -13.5934 -13.5742 -13.5742
   -13.5645 -13.5645 -13.5562 -13.5562  -5.1531  -5.1531  -4.9637  -4.9637
     0.1612   0.1612   0.9781   0.9781   4.0513   4.0513   4.2142   4.2142
     4.9633   4.9633   5.2903   5.2903   6.6661   6.6661   6.7926   6.7926
    10.0427  10.0427  10.1168  10.1168  10.7507  10.7507  11.1389  11.1389
    12.0283  12.0283  12.6154  12.6154  15.2910  15.2910  15.4181  15.4181
    15.9409  15.9409  16.9046  16.9046  17.1828  17.1828  18.1048  18.1048
    18.2885  18.2885  19.3789  19.3789  20.0238  20.0238  20.5519  20.5519
    21.0540  21.0540  21.1316  21.1316  22.1292  22.1292  22.6038  22.6038
    22.7144  22.7144  22.9869  22.9869  24.0787  24.0787  24.7789  24.7789
    25.0847  25.0847  25.8879  25.8879  26.1678  26.1678  26.6934  26.6934
    27.2970  27.2970  27.6688  27.6688

     occupation numbers 
     1.0000   1.0000   1.0000   1.0000   1.0000   1.0000   1.0000   1.0000
     1.0000   1.0000   1.0000   1.0000   1.0000   1.0000   1.0000   1.0000
     1.0000   1.0000   1.0000   1.0000   1.0000   1.0000   1.0000   1.0000
     1.0000   1.0000   1.0000   1.0000   1.0000   1.0000   1.0000   1.0000
     1.0000   1.0000   1.0000   1.0000   1.0000   1.0000   1.0000   1.0000
     0.0000   0.0000   0.0000   0.0000   0.0000   0.0000   0.0000   0.0000
     0.0000   0.0000   0.0000   0.0000   0.0000   0.0000   0.0000   0.0000
     0.0000   0.0000   0.0000   0.0000   0.0000   0.0000   0.0000   0.0000
     0.0000   0.0000   0.0000   0.0000   0.0000   0.0000   0.0000   0.0000
     0.0000   0.0000   0.0000   0.0000   0.0000   0.0000   0.0000   0.0000
     0.0000   0.0000   0.0000   0.0000   0.0000   0.0000   0.0000   0.0000
     0.0000   0.0000   0.0000   0.0000   0.0000   0.0000   0.0000   0.0000
     0.0000   0.0000   0.0000   0.0000

          k = 0.3333 0.0000 0.0000 (  8225 PWs)   bands (ev):

   -13.6497 -13.6479 -13.6450 -13.6450 -13.6282 -13.6235 -13.6218 -13.6212
   -13.6098 -13.6092 -13.6069 -13.5989 -13.5976 -13.5896 -13.5828 -13.5813
   -13.5613 -13.5562 -13.5550 -13.5527  -5.4406  -5.2630  -4.6605  -4.5032
    -0.0535   0.5322   1.0274   1.3794   3.3562   4.1487   4.4147   4.7367
     4.7581   4.8895   5.4172   5.6412   5.9862   6.6590   6.7309   7.2337
     8.4477   9.4225   9.4912   9.6629  10.1237  10.4275  10.8263  11.2546
    11.7286  11.9687  12.3271  12.7155  14.1481  14.9901  14.9991  15.1904
    15.5457  15.9885  16.1102  16.3570  17.0371  17.2512  17.2735  17.9447
    19.3960  19.4358  19.5522  19.8624  19.9820  20.4923  20.5663  20.6894
    21.1333  21.9050  22.0702  22.7271  22.8039  22.8304  22.8471  23.3724
    23.3811  23.4103  24.4717  24.5361  24.6844  24.7595  24.9277  25.2954
    25.5643  25.6518  26.1020  26.3216  26.8083  27.2716  27.3563  27.5856
    27.6267  27.8003  27.9916  28.4871

     occupation numbers 
     1.0000   1.0000   1.0000   1.0000   1.0000   1.0000   1.0000   1.0000
     1.0000   1.0000   1.0000   1.0000   1.0000   1.0000   1.0000   1.0000
     1.0000   1.0000   1.0000   1.0000   1.0000   1.0000   1.0000   1.0000
     1.0000   1.0000   1.0000   1.0000   1.0000   1.0000   1.0000   1.0000
     1.0000   1.0000   1.0000   1.0000   1.0000   1.0000   1.0000   1.0000
     0.0000   0.0000   0.0000   0.0000   0.0000   0.0000   0.0000   0.0000
     0.0000   0.0000   0.0000   0.0000   0.0000   0.0000   0.0000   0.0000
     0.0000   0.0000   0.0000   0.0000   0.0000   0.0000   0.0000   0.0000
     0.0000   0.0000   0.0000   0.0000   0.0000   0.0000   0.0000   0.0000
     0.0000   0.0000   0.0000   0.0000   0.0000   0.0000   0.0000   0.0000
     0.0000   0.0000   0.0000   0.0000   0.0000   0.0000   0.0000   0.0000
     0.0000   0.0000   0.0000   0.0000   0.0000   0.0000   0.0000   0.0000
     0.0000   0.0000   0.0000   0.0000

          k = 0.3333 0.0000 0.0579 (  8223 PWs)   bands (ev):

   -13.6497 -13.6481 -13.6449 -13.6448 -13.6280 -13.6239 -13.6218 -13.6213
   -13.6092 -13.6089 -13.6069 -13.6009 -13.5958 -13.5900 -13.5827 -13.5815
   -13.5609 -13.5566 -13.5548 -13.5529  -5.4309  -5.2782  -4.6465  -4.5114
    -0.0238   0.4782   1.0498   1.3562   3.4407   4.1737   4.4018   4.5273
     4.9336   4.9381   5.4131   5.5979   5.9603   6.5417   6.7684   7.1727
     8.5230   9.3748   9.6059   9.7751  10.1897  10.4536  10.7663  11.2714
    11.6750  11.8993  12.2656  12.5814  14.1981  14.9531  15.0126  15.2379
    15.6294  15.8412  16.2323  16.4583  16.7908  17.2544  17.7734  18.0885
    18.9131  18.9511  19.4349  19.7919  20.1702  20.5577  20.8046  20.9838
    21.1421  21.9383  22.1225  22.4722  22.7720  22.8826  23.0232  23.1377
    23.4392  23.6959  24.1324  24.3808  24.6082  24.9309  25.0916  25.1662
    25.3134  26.1637  26.1856  26.1956  26.7915  27.2255  27.3534  27.5224
    27.5655  27.8705  27.8792  28.3489

     occupation numbers 
     1.0000   1.0000   1.0000   1.0000   1.0000   1.0000   1.0000   1.0000
     1.0000   1.0000   1.0000   1.0000   1.0000   1.0000   1.0000   1.0000
     1.0000   1.0000   1.0000   1.0000   1.0000   1.0000   1.0000   1.0000
     1.0000   1.0000   1.0000   1.0000   1.0000   1.0000   1.0000   1.0000
     1.0000   1.0000   1.0000   1.0000   1.0000   1.0000   1.0000   1.0000
     0.0000   0.0000   0.0000   0.0000   0.0000   0.0000   0.0000   0.0000
     0.0000   0.0000   0.0000   0.0000   0.0000   0.0000   0.0000   0.0000
     0.0000   0.0000   0.0000   0.0000   0.0000   0.0000   0.0000   0.0000
     0.0000   0.0000   0.0000   0.0000   0.0000   0.0000   0.0000   0.0000
     0.0000   0.0000   0.0000   0.0000   0.0000   0.0000   0.0000   0.0000
     0.0000   0.0000   0.0000   0.0000   0.0000   0.0000   0.0000   0.0000
     0.0000   0.0000   0.0000   0.0000   0.0000   0.0000   0.0000   0.0000
     0.0000   0.0000   0.0000   0.0000

          k = 0.3333 0.0000 0.1158 (  8247 PWs)   bands (ev):

   -13.6495 -13.6487 -13.6447 -13.6446 -13.6274 -13.6250 -13.6217 -13.6215
   -13.6083 -13.6079 -13.6070 -13.6033 -13.5938 -13.5909 -13.5826 -13.5819
   -13.5600 -13.5575 -13.5543 -13.5533  -5.4033  -5.3163  -4.6119  -4.5350
     0.0623   0.3466   1.1120   1.2904   3.6653   4.2346   4.2624   4.3661
     5.0596   5.0818   5.4009   5.4979   5.9380   6.2738   6.8534   7.0578
     8.7298   9.1938   9.8595   9.9032  10.4619  10.5645  10.6583  11.2902
    11.5467  11.6486  12.1606  12.3089  14.3922  14.9120  14.9180  15.3533
    15.5280  15.7675  16.4659  16.7493  17.0049  17.1249  18.0413  18.1630
    18.5557  18.7014  19.2159  19.3135  20.0151  20.4179  21.3520  21.5362
    21.6006  21.9875  22.0974  22.2193  22.5780  22.7914  23.0444  23.0900
    23.4013  23.5127  24.2805  24.4058  24.6974  24.8123  24.9338  25.3381
    25.4415  25.8704  26.0313  26.5779  26.6818  27.1231  27.3734  27.4171
    27.6735  27.6760  27.9673  28.4548

     occupation numbers 
     1.0000   1.0000   1.0000   1.0000   1.0000   1.0000   1.0000   1.0000
     1.0000   1.0000   1.0000   1.0000   1.0000   1.0000   1.0000   1.0000
     1.0000   1.0000   1.0000   1.0000   1.0000   1.0000   1.0000   1.0000
     1.0000   1.0000   1.0000   1.0000   1.0000   1.0000   1.0000   1.0000
     1.0000   1.0000   1.0000   1.0000   1.0000   1.0000   1.0000   1.0000
     0.0000   0.0000   0.0000   0.0000   0.0000   0.0000   0.0000   0.0000
     0.0000   0.0000   0.0000   0.0000   0.0000   0.0000   0.0000   0.0000
     0.0000   0.0000   0.0000   0.0000   0.0000   0.0000   0.0000   0.0000
     0.0000   0.0000   0.0000   0.0000   0.0000   0.0000   0.0000   0.0000
     0.0000   0.0000   0.0000   0.0000   0.0000   0.0000   0.0000   0.0000
     0.0000   0.0000   0.0000   0.0000   0.0000   0.0000   0.0000   0.0000
     0.0000   0.0000   0.0000   0.0000   0.0000   0.0000   0.0000   0.0000
     0.0000   0.0000   0.0000   0.0000

          k = 0.3333 0.0000-0.1737 (  8252 PWs)   bands (ev):

   -13.6492 -13.6492 -13.6446 -13.6446 -13.6263 -13.6263 -13.6216 -13.6216
   -13.6076 -13.6076 -13.6057 -13.6057 -13.5921 -13.5921 -13.5823 -13.5823
   -13.5587 -13.5587 -13.5538 -13.5538  -5.3623  -5.3623  -4.5708  -4.5708
     0.1937   0.1937   1.2000   1.2000   3.9625   3.9625   4.3054   4.3054
     5.1469   5.1469   5.4097   5.4097   6.0312   6.0312   6.9513   6.9513
     8.9763   8.9763   9.9410   9.9410  10.5702  10.5702  11.0730  11.0730
    11.4344  11.4344  12.1490  12.1490  14.7240  14.7240  14.9785  14.9785
    15.7460  15.7460  16.7858  16.7858  17.1230  17.1230  17.9068  17.9068
    18.6677  18.6677  19.2093  19.2093  20.0506  20.0506  21.7016  21.7016
    22.0272  22.0272  22.0825  22.0825  22.6063  22.6063  22.9417  22.9417
    23.3190  23.3190  24.5579  24.5579  24.6427  24.6427  25.3538  25.3538
    25.5460  25.5460  26.0074  26.0074  27.0512  27.0512  27.3317  27.3317
    27.8624  27.8624  28.1291  28.1291

     occupation numbers 
     1.0000   1.0000   1.0000   1.0000   1.0000   1.0000   1.0000   1.0000
     1.0000   1.0000   1.0000   1.0000   1.0000   1.0000   1.0000   1.0000
     1.0000   1.0000   1.0000   1.0000   1.0000   1.0000   1.0000   1.0000
     1.0000   1.0000   1.0000   1.0000   1.0000   1.0000   1.0000   1.0000
     1.0000   1.0000   1.0000   1.0000   1.0000   1.0000   1.0000   1.0000
     0.0000   0.0000   0.0000   0.0000   0.0000   0.0000   0.0000   0.0000
     0.0000   0.0000   0.0000   0.0000   0.0000   0.0000   0.0000   0.0000
     0.0000   0.0000   0.0000   0.0000   0.0000   0.0000   0.0000   0.0000
     0.0000   0.0000   0.0000   0.0000   0.0000   0.0000   0.0000   0.0000
     0.0000   0.0000   0.0000   0.0000   0.0000   0.0000   0.0000   0.0000
     0.0000   0.0000   0.0000   0.0000   0.0000   0.0000   0.0000   0.0000
     0.0000   0.0000   0.0000   0.0000   0.0000   0.0000   0.0000   0.0000
     0.0000   0.0000   0.0000   0.0000

          k = 0.3333 0.1455 0.0000 (  8223 PWs)   bands (ev):

   -13.6524 -13.6477 -13.6476 -13.6458 -13.6290 -13.6232 -13.6223 -13.6214
   -13.6092 -13.6069 -13.6062 -13.5978 -13.5972 -13.5899 -13.5817 -13.5801
   -13.5616 -13.5567 -13.5555 -13.5519  -5.3522  -5.1830  -4.6596  -4.5126
     0.0141   0.6361   1.0489   1.2937   3.3591   3.4689   3.7630   4.3943
     4.9324   5.1793   5.2296   5.5009   5.8610   6.6450   6.7190   6.8663
     9.0010   9.2009   9.4579   9.8171  10.6615  11.0083  11.3323  11.6751
    11.8349  11.9792  12.7319  13.0135  13.7289  14.6744  15.3550  15.3988
    15.5199  15.8624  16.3021  16.7019  17.0568  17.5284  18.0709  18.3294
    18.8130  19.1023  19.1045  19.3681  20.4634  20.6080  20.7490  21.0307
    21.1176  21.7872  21.9857  22.5297  22.7351  23.0833  23.2852  23.3190
    23.5528  23.6741  23.8167  24.1472  24.2612  24.3792  24.4349  24.8245
    24.9433  25.3262  25.8511  26.2589  26.3078  26.5053  26.8642  27.4524
    27.5332  27.6935  28.3099  28.4009

     occupation numbers 
     1.0000   1.0000   1.0000   1.0000   1.0000   1.0000   1.0000   1.0000
     1.0000   1.0000   1.0000   1.0000   1.0000   1.0000   1.0000   1.0000
     1.0000   1.0000   1.0000   1.0000   1.0000   1.0000   1.0000   1.0000
     1.0000   1.0000   1.0000   1.0000   1.0000   1.0000   1.0000   1.0000
     1.0000   1.0000   1.0000   1.0000   1.0000   1.0000   1.0000   1.0000
     0.0000   0.0000   0.0000   0.0000   0.0000   0.0000   0.0000   0.0000
     0.0000   0.0000   0.0000   0.0000   0.0000   0.0000   0.0000   0.0000
     0.0000   0.0000   0.0000   0.0000   0.0000   0.0000   0.0000   0.0000
     0.0000   0.0000   0.0000   0.0000   0.0000   0.0000   0.0000   0.0000
     0.0000   0.0000   0.0000   0.0000   0.0000   0.0000   0.0000   0.0000
     0.0000   0.0000   0.0000   0.0000   0.0000   0.0000   0.0000   0.0000
     0.0000   0.0000   0.0000   0.0000   0.0000   0.0000   0.0000   0.0000
     0.0000   0.0000   0.0000   0.0000

          k = 0.3333 0.1455 0.0579 (  8227 PWs)   bands (ev):

   -13.6522 -13.6484 -13.6473 -13.6457 -13.6287 -13.6240 -13.6220 -13.6214
   -13.6089 -13.6069 -13.6059 -13.6000 -13.5951 -13.5901 -13.5819 -13.5804
   -13.5611 -13.5570 -13.5552 -13.5522  -5.3430  -5.1976  -4.6464  -4.5202
     0.0457   0.5766   1.0693   1.2799   3.3722   3.4961   3.8252   4.3724
     4.8965   5.1442   5.2466   5.5220   5.8660   6.4915   6.7128   6.9007
     9.1130   9.2844   9.5175   9.8192  10.6248  11.0373  11.2949  11.4965
    11.7350  12.1035  12.6805  12.8929  13.8621  14.8346  15.3214  15.4351
    15.5842  15.8509  16.1909  16.8041  17.0186  17.5196  17.9336  18.3543
    18.6171  18.9462  19.3054  19.8402  20.1433  20.6473  20.7271  20.8588
    21.1886  21.7367  21.9320  22.7193  22.8268  22.9546  23.2966  23.3180
    23.4839  23.6392  23.7009  24.1869  24.3790  24.4725  24.6797  24.8942
    24.9724  25.3835  25.8818  26.2299  26.3501  26.4512  26.7494  27.0853
    27.4535  27.8889  28.0718  28.5121

     occupation numbers 
     1.0000   1.0000   1.0000   1.0000   1.0000   1.0000   1.0000   1.0000
     1.0000   1.0000   1.0000   1.0000   1.0000   1.0000   1.0000   1.0000
     1.0000   1.0000   1.0000   1.0000   1.0000   1.0000   1.0000   1.0000
     1.0000   1.0000   1.0000   1.0000   1.0000   1.0000   1.0000   1.0000
     1.0000   1.0000   1.0000   1.0000   1.0000   1.0000   1.0000   1.0000
     0.0000   0.0000   0.0000   0.0000   0.0000   0.0000   0.0000   0.0000
     0.0000   0.0000   0.0000   0.0000   0.0000   0.0000   0.0000   0.0000
     0.0000   0.0000   0.0000   0.0000   0.0000   0.0000   0.0000   0.0000
     0.0000   0.0000   0.0000   0.0000   0.0000   0.0000   0.0000   0.0000
     0.0000   0.0000   0.0000   0.0000   0.0000   0.0000   0.0000   0.0000
     0.0000   0.0000   0.0000   0.0000   0.0000   0.0000   0.0000   0.0000
     0.0000   0.0000   0.0000   0.0000   0.0000   0.0000   0.0000   0.0000
     0.0000   0.0000   0.0000   0.0000

          k = 0.3333 0.1455 0.1158 (  8231 PWs)   bands (ev):

   -13.6516 -13.6495 -13.6468 -13.6457 -13.6279 -13.6252 -13.6217 -13.6215
   -13.6080 -13.6069 -13.6053 -13.6023 -13.5930 -13.5906 -13.5821 -13.5812
   -13.5600 -13.5577 -13.5546 -13.5528  -5.3168  -5.2340  -4.6138  -4.5421
     0.1368   0.4359   1.1182   1.2390   3.4188   3.5154   3.9987   4.3174
     4.8494   4.9848   5.3665   5.5281   5.8918   6.1949   6.7677   6.8904
     9.3106   9.4348   9.6703   9.8338  10.5930  11.0212  11.1782  11.3551
    11.6166  12.0540  12.5834  12.7235  14.2156  15.1149  15.2241  15.4597
    15.6741  15.9392  16.1176  16.7135  16.9505  17.1898  18.1493  18.3944
    18.7326  18.8088  19.2191  19.9328  20.1116  20.4894  20.8133  20.8542
    21.3073  21.4370  21.8247  22.7396  22.9523  23.0478  23.2442  23.3506
    23.4749  23.5797  23.8244  24.2879  24.4372  24.5439  24.7270  24.9712
    25.2589  25.6199  25.8578  26.0583  26.3246  26.5152  26.6698  26.9980
    27.2985  27.6168  27.8309  28.1191

     occupation numbers 
     1.0000   1.0000   1.0000   1.0000   1.0000   1.0000   1.0000   1.0000
     1.0000   1.0000   1.0000   1.0000   1.0000   1.0000   1.0000   1.0000
     1.0000   1.0000   1.0000   1.0000   1.0000   1.0000   1.0000   1.0000
     1.0000   1.0000   1.0000   1.0000   1.0000   1.0000   1.0000   1.0000
     1.0000   1.0000   1.0000   1.0000   1.0000   1.0000   1.0000   1.0000
     0.0000   0.0000   0.0000   0.0000   0.0000   0.0000   0.0000   0.0000
     0.0000   0.0000   0.0000   0.0000   0.0000   0.0000   0.0000   0.0000
     0.0000   0.0000   0.0000   0.0000   0.0000   0.0000   0.0000   0.0000
     0.0000   0.0000   0.0000   0.0000   0.0000   0.0000   0.0000   0.0000
     0.0000   0.0000   0.0000   0.0000   0.0000   0.0000   0.0000   0.0000
     0.0000   0.0000   0.0000   0.0000   0.0000   0.0000   0.0000   0.0000
     0.0000   0.0000   0.0000   0.0000   0.0000   0.0000   0.0000   0.0000
     0.0000   0.0000   0.0000   0.0000

          k = 0.3333 0.1455-0.1737 (  8244 PWs)   bands (ev):

   -13.6507 -13.6507 -13.6462 -13.6462 -13.6266 -13.6266 -13.6215 -13.6215
   -13.6072 -13.6072 -13.6041 -13.6041 -13.5915 -13.5915 -13.5819 -13.5819
   -13.5587 -13.5587 -13.5537 -13.5537  -5.2779  -5.2779  -4.5754  -4.5754
     0.2751   0.2751   1.1797   1.1797   3.4806   3.4806   4.1977   4.1977
     4.8658   4.8658   5.4741   5.4741   5.9808   5.9808   6.8366   6.8366
     9.4540   9.4540   9.7919   9.7919  10.7601  10.7601  11.2450  11.2450
    11.7615  11.7615  12.6195  12.6195  14.6844  14.6844  15.4545  15.4545
    15.9165  15.9165  16.2402  16.2402  17.0379  17.0379  18.4815  18.4815
    18.6001  18.6001  19.5525  19.5525  20.2019  20.2019  21.0066  21.0066
    21.2695  21.2695  22.1791  22.1791  23.0910  23.0910  23.2617  23.2617
    23.6074  23.6074  24.2121  24.2121  24.4383  24.4383  24.8108  24.8108
    25.4834  25.4834  26.0104  26.0104  26.4362  26.4362  26.9376  26.9376
    27.2238  27.2238  27.9349  27.9350

     occupation numbers 
     1.0000   1.0000   1.0000   1.0000   1.0000   1.0000   1.0000   1.0000
     1.0000   1.0000   1.0000   1.0000   1.0000   1.0000   1.0000   1.0000
     1.0000   1.0000   1.0000   1.0000   1.0000   1.0000   1.0000   1.0000
     1.0000   1.0000   1.0000   1.0000   1.0000   1.0000   1.0000   1.0000
     1.0000   1.0000   1.0000   1.0000   1.0000   1.0000   1.0000   1.0000
     0.0000   0.0000   0.0000   0.0000   0.0000   0.0000   0.0000   0.0000
     0.0000   0.0000   0.0000   0.0000   0.0000   0.0000   0.0000   0.0000
     0.0000   0.0000   0.0000   0.0000   0.0000   0.0000   0.0000   0.0000
     0.0000   0.0000   0.0000   0.0000   0.0000   0.0000   0.0000   0.0000
     0.0000   0.0000   0.0000   0.0000   0.0000   0.0000   0.0000   0.0000
     0.0000   0.0000   0.0000   0.0000   0.0000   0.0000   0.0000   0.0000
     0.0000   0.0000   0.0000   0.0000   0.0000   0.0000   0.0000   0.0000
     0.0000   0.0000   0.0000   0.0000

          k = 0.3333 0.2910 0.0000 (  8223 PWs)   bands (ev):

   -13.6559 -13.6527 -13.6488 -13.6482 -13.6293 -13.6245 -13.6229 -13.6218
   -13.6073 -13.6066 -13.6018 -13.5967 -13.5947 -13.5907 -13.5793 -13.5780
   -13.5617 -13.5591 -13.5540 -13.5516  -5.1248  -4.9772  -4.7029  -4.5750
     0.1877   0.8594   0.8787   1.1931   2.8317   3.3168   3.6264   3.8348
     4.3154   4.6911   4.9253   5.4846   5.5227   6.1596   6.5695   6.7383
     8.8397  10.3054  10.4789  10.6522  11.1376  11.3794  11.9182  12.2402
    12.2870  12.3151  13.2068  13.4256  13.5828  13.7230  15.1854  15.5020
    16.4273  16.6669  17.0071  17.0736  17.7220  17.7602  18.2135  18.4280
    18.6697  18.7690  19.4217  19.6564  19.9426  20.4947  20.8316  21.0542
    21.2069  21.4808  21.7791  22.0008  22.1020  22.3216  22.8153  22.8715
    23.0026  23.3021  23.4020  23.6489  24.1609  24.2557  24.3881  24.5522
    24.7017  25.3805  25.5649  25.6008  25.9457  26.1775  26.3071  27.0582
    27.4019  27.8023  28.1184  28.1427

     occupation numbers 
     1.0000   1.0000   1.0000   1.0000   1.0000   1.0000   1.0000   1.0000
     1.0000   1.0000   1.0000   1.0000   1.0000   1.0000   1.0000   1.0000
     1.0000   1.0000   1.0000   1.0000   1.0000   1.0000   1.0000   1.0000
     1.0000   1.0000   1.0000   1.0000   1.0000   1.0000   1.0000   1.0000
     1.0000   1.0000   1.0000   1.0000   1.0000   1.0000   1.0000   1.0000
     0.0000   0.0000   0.0000   0.0000   0.0000   0.0000   0.0000   0.0000
     0.0000   0.0000   0.0000   0.0000   0.0000   0.0000   0.0000   0.0000
     0.0000   0.0000   0.0000   0.0000   0.0000   0.0000   0.0000   0.0000
     0.0000   0.0000   0.0000   0.0000   0.0000   0.0000   0.0000   0.0000
     0.0000   0.0000   0.0000   0.0000   0.0000   0.0000   0.0000   0.0000
     0.0000   0.0000   0.0000   0.0000   0.0000   0.0000   0.0000   0.0000
     0.0000   0.0000   0.0000   0.0000   0.0000   0.0000   0.0000   0.0000
     0.0000   0.0000   0.0000   0.0000

          k = 0.3333 0.2910 0.0579 (  8227 PWs)   bands (ev):

   -13.6556 -13.6526 -13.6494 -13.6482 -13.6289 -13.6249 -13.6227 -13.6218
   -13.6071 -13.6065 -13.6019 -13.5983 -13.5930 -13.5903 -13.5798 -13.5786
   -13.5611 -13.5588 -13.5540 -13.5519  -5.1172  -4.9913  -4.6902  -4.5813
     0.2177   0.7382   0.9693   1.1807   2.8587   3.2612   3.6669   3.9148
     4.2434   4.6601   4.9847   5.4783   5.5096   6.2314   6.4043   6.7498
     9.0340  10.3138  10.4825  10.6330  11.0082  11.3029  11.8608  12.1096
    12.2340  12.4169  13.2102  13.4382  13.6810  13.9451  15.2388  15.6120
    16.3653  16.6128  16.9887  17.0311  17.5871  17.7748  17.8895  18.4769
    18.7600  19.0348  19.4660  19.4876  19.8674  20.4553  20.8650  20.9447
    21.2543  21.5181  21.7999  21.9720  22.1885  22.4580  22.5250  22.8293
    22.9232  23.4900  23.5510  23.8977  24.1003  24.1535  24.5131  24.5972
    24.9500  25.3579  25.4712  25.6619  25.9026  26.2435  26.4141  27.0899
    27.4372  27.5161  27.6840  28.2013

     occupation numbers 
     1.0000   1.0000   1.0000   1.0000   1.0000   1.0000   1.0000   1.0000
     1.0000   1.0000   1.0000   1.0000   1.0000   1.0000   1.0000   1.0000
     1.0000   1.0000   1.0000   1.0000   1.0000   1.0000   1.0000   1.0000
     1.0000   1.0000   1.0000   1.0000   1.0000   1.0000   1.0000   1.0000
     1.0000   1.0000   1.0000   1.0000   1.0000   1.0000   1.0000   1.0000
     0.0000   0.0000   0.0000   0.0000   0.0000   0.0000   0.0000   0.0000
     0.0000   0.0000   0.0000   0.0000   0.0000   0.0000   0.0000   0.0000
     0.0000   0.0000   0.0000   0.0000   0.0000   0.0000   0.0000   0.0000
     0.0000   0.0000   0.0000   0.0000   0.0000   0.0000   0.0000   0.0000
     0.0000   0.0000   0.0000   0.0000   0.0000   0.0000   0.0000   0.0000
     0.0000   0.0000   0.0000   0.0000   0.0000   0.0000   0.0000   0.0000
     0.0000   0.0000   0.0000   0.0000   0.0000   0.0000   0.0000   0.0000
     0.0000   0.0000   0.0000   0.0000

          k = 0.3333 0.2910 0.1158 (  8219 PWs)   bands (ev):

   -13.6547 -13.6525 -13.6501 -13.6487 -13.6280 -13.6258 -13.6223 -13.6218
   -13.6068 -13.6064 -13.6020 -13.6001 -13.5909 -13.5897 -13.5807 -13.5800
   -13.5598 -13.5585 -13.5540 -13.5527  -5.0955  -5.0246  -4.6606  -4.5995
     0.3036   0.5860   1.0430   1.1474   2.9351   3.1589   3.7405   3.9792
     4.2318   4.5791   5.0791   5.3933   5.5841   6.0729   6.4187   6.7144
     9.4747  10.2511  10.4946  10.6514  10.7756  11.0683  11.7808  12.0535
    12.1813  12.2749  13.2923  13.4144  14.0762  14.4696  15.1110  15.6763
    16.2230  16.6644  16.9160  16.9388  17.4934  17.5675  17.7950  18.3327
    19.0698  19.1875  19.2883  19.5658  19.6673  20.0996  20.8932  21.2181
    21.3515  21.5416  21.7657  21.8895  22.0721  22.4404  22.5235  22.8964
    22.9160  23.6389  23.8048  23.8528  24.3368  24.4296  24.5298  24.6230
    25.1554  25.4234  25.5709  25.6710  26.0442  26.3413  26.5451  26.8798
    27.0000  27.3254  27.5356  27.7985

     occupation numbers 
     1.0000   1.0000   1.0000   1.0000   1.0000   1.0000   1.0000   1.0000
     1.0000   1.0000   1.0000   1.0000   1.0000   1.0000   1.0000   1.0000
     1.0000   1.0000   1.0000   1.0000   1.0000   1.0000   1.0000   1.0000
     1.0000   1.0000   1.0000   1.0000   1.0000   1.0000   1.0000   1.0000
     1.0000   1.0000   1.0000   1.0000   1.0000   1.0000   1.0000   1.0000
     0.0000   0.0000   0.0000   0.0000   0.0000   0.0000   0.0000   0.0000
     0.0000   0.0000   0.0000   0.0000   0.0000   0.0000   0.0000   0.0000
     0.0000   0.0000   0.0000   0.0000   0.0000   0.0000   0.0000   0.0000
     0.0000   0.0000   0.0000   0.0000   0.0000   0.0000   0.0000   0.0000
     0.0000   0.0000   0.0000   0.0000   0.0000   0.0000   0.0000   0.0000
     0.0000   0.0000   0.0000   0.0000   0.0000   0.0000   0.0000   0.0000
     0.0000   0.0000   0.0000   0.0000   0.0000   0.0000   0.0000   0.0000
     0.0000   0.0000   0.0000   0.0000

          k = 0.3333 0.2910-0.1737 (  8224 PWs)   bands (ev):

   -13.6535 -13.6535 -13.6496 -13.6496 -13.6269 -13.6269 -13.6220 -13.6220
   -13.6064 -13.6064 -13.6015 -13.6015 -13.5896 -13.5896 -13.5810 -13.5810
   -13.5587 -13.5587 -13.5536 -13.5536  -5.0627  -5.0627  -4.6274  -4.6274
     0.4330   0.4330   1.1006   1.1006   3.0439   3.0439   3.8523   3.8523
     4.4261   4.4261   5.2229   5.2229   5.7864   5.7864   6.5982   6.5982
     9.9410   9.9410  10.5910  10.5910  10.8075  10.8075  11.8695  11.8695
    12.1982  12.1982  13.3622  13.3622  14.6395  14.6395  15.1217  15.1217
    16.5702  16.5702  16.8529  16.8529  17.4413  17.4413  18.0450  18.0450
    19.2036  19.2036  19.4240  19.4240  19.7239  19.7239  21.1332  21.1332
    21.5387  21.5387  21.7660  21.7660  22.1182  22.1182  22.7481  22.7481
    23.3613  23.3613  23.8800  23.8800  24.5183  24.5183  24.6396  24.6396
    25.3087  25.3087  25.6550  25.6550  26.3171  26.3171  26.6590  26.6590
    27.0822  27.0823  27.3521  27.3522

     occupation numbers 
     1.0000   1.0000   1.0000   1.0000   1.0000   1.0000   1.0000   1.0000
     1.0000   1.0000   1.0000   1.0000   1.0000   1.0000   1.0000   1.0000
     1.0000   1.0000   1.0000   1.0000   1.0000   1.0000   1.0000   1.0000
     1.0000   1.0000   1.0000   1.0000   1.0000   1.0000   1.0000   1.0000
     1.0000   1.0000   1.0000   1.0000   1.0000   1.0000   1.0000   1.0000
     0.0000   0.0000   0.0000   0.0000   0.0000   0.0000   0.0000   0.0000
     0.0000   0.0000   0.0000   0.0000   0.0000   0.0000   0.0000   0.0000
     0.0000   0.0000   0.0000   0.0000   0.0000   0.0000   0.0000   0.0000
     0.0000   0.0000   0.0000   0.0000   0.0000   0.0000   0.0000   0.0000
     0.0000   0.0000   0.0000   0.0000   0.0000   0.0000   0.0000   0.0000
     0.0000   0.0000   0.0000   0.0000   0.0000   0.0000   0.0000   0.0000
     0.0000   0.0000   0.0000   0.0000   0.0000   0.0000   0.0000   0.0000
     0.0000   0.0000   0.0000   0.0000

          k = 0.3333-0.4365 0.0000 (  8206 PWs)   bands (ev):

   -13.6563 -13.6563 -13.6495 -13.6495 -13.6275 -13.6275 -13.6224 -13.6224
   -13.6064 -13.6064 -13.5983 -13.5983 -13.5918 -13.5918 -13.5776 -13.5776
   -13.5608 -13.5608 -13.5524 -13.5524  -4.8665  -4.8665  -4.7399  -4.7399
     0.4693   0.4693   1.0919   1.0919   3.0049   3.0049   3.5697   3.5697
     4.2810   4.2810   4.9893   4.9893   5.6558   5.6558   6.5681   6.5681
     9.6248   9.6248  11.0702  11.0702  11.9931  11.9931  12.1581  12.1581
    12.5723  12.5723  13.2918  13.2918  13.6281  13.6281  15.0489  15.0489
    16.9978  16.9978  17.5248  17.5248  17.8776  17.8776  18.2737  18.2737
    19.0736  19.0736  19.2967  19.2967  20.5137  20.5137  20.8745  20.8745
    21.1997  21.1997  21.3263  21.3263  22.1278  22.1278  22.5020  22.5020
    22.7199  22.7199  22.9756  22.9756  23.9852  23.9852  24.2114  24.2114
    24.9278  24.9278  25.5749  25.5749  26.5225  26.5226  26.8692  26.8692
    27.4540  27.4541  27.9110  27.9111

     occupation numbers 
     1.0000   1.0000   1.0000   1.0000   1.0000   1.0000   1.0000   1.0000
     1.0000   1.0000   1.0000   1.0000   1.0000   1.0000   1.0000   1.0000
     1.0000   1.0000   1.0000   1.0000   1.0000   1.0000   1.0000   1.0000
     1.0000   1.0000   1.0000   1.0000   1.0000   1.0000   1.0000   1.0000
     1.0000   1.0000   1.0000   1.0000   1.0000   1.0000   1.0000   1.0000
     0.0000   0.0000   0.0000   0.0000   0.0000   0.0000   0.0000   0.0000
     0.0000   0.0000   0.0000   0.0000   0.0000   0.0000   0.0000   0.0000
     0.0000   0.0000   0.0000   0.0000   0.0000   0.0000   0.0000   0.0000
     0.0000   0.0000   0.0000   0.0000   0.0000   0.0000   0.0000   0.0000
     0.0000   0.0000   0.0000   0.0000   0.0000   0.0000   0.0000   0.0000
     0.0000   0.0000   0.0000   0.0000   0.0000   0.0000   0.0000   0.0000
     0.0000   0.0000   0.0000   0.0000   0.0000   0.0000   0.0000   0.0000
     0.0000   0.0000   0.0000   0.0000

          k = 0.3333-0.4365 0.0579 (  8218 PWs)   bands (ev):

   -13.6560 -13.6560 -13.6499 -13.6499 -13.6273 -13.6273 -13.6224 -13.6224
   -13.6063 -13.6063 -13.5989 -13.5989 -13.5909 -13.5909 -13.5782 -13.5782
   -13.5603 -13.5603 -13.5526 -13.5526  -4.8661  -4.8661  -4.7404  -4.7404
     0.4763   0.4763   1.0815   1.0815   3.0302   3.0302   3.5139   3.5139
     4.3290   4.3290   4.9758   4.9758   5.6903   5.6903   6.5156   6.5156
     9.7184   9.7184  11.0629  11.0629  11.7702  11.7702  11.9919  11.9919
    12.8051  12.8051  13.2930  13.2930  13.7754  13.7754  15.1536  15.1536
    16.8351  16.8351  17.5025  17.5025  17.8063  17.8063  18.2668  18.2668
    19.0655  19.0655  19.3701  19.3701  20.5148  20.5148  20.7906  20.7906
    21.1025  21.1025  21.3411  21.3411  21.9282  21.9282  22.7081  22.7081
    22.8071  22.8071  23.3764  23.3764  23.8737  23.8737  24.2646  24.2646
    24.9794  24.9794  25.6339  25.6339  26.3071  26.3071  26.7778  26.7778
    27.3132  27.3133  27.7704  27.7704

     occupation numbers 
     1.0000   1.0000   1.0000   1.0000   1.0000   1.0000   1.0000   1.0000
     1.0000   1.0000   1.0000   1.0000   1.0000   1.0000   1.0000   1.0000
     1.0000   1.0000   1.0000   1.0000   1.0000   1.0000   1.0000   1.0000
     1.0000   1.0000   1.0000   1.0000   1.0000   1.0000   1.0000   1.0000
     1.0000   1.0000   1.0000   1.0000   1.0000   1.0000   1.0000   1.0000
     0.0000   0.0000   0.0000   0.0000   0.0000   0.0000   0.0000   0.0000
     0.0000   0.0000   0.0000   0.0000   0.0000   0.0000   0.0000   0.0000
     0.0000   0.0000   0.0000   0.0000   0.0000   0.0000   0.0000   0.0000
     0.0000   0.0000   0.0000   0.0000   0.0000   0.0000   0.0000   0.0000
     0.0000   0.0000   0.0000   0.0000   0.0000   0.0000   0.0000   0.0000
     0.0000   0.0000   0.0000   0.0000   0.0000   0.0000   0.0000   0.0000
     0.0000   0.0000   0.0000   0.0000   0.0000   0.0000   0.0000   0.0000
     0.0000   0.0000   0.0000   0.0000

          k = 0.3333-0.4365 0.1158 (  8228 PWs)   bands (ev):

   -13.6552 -13.6552 -13.6509 -13.6509 -13.6270 -13.6270 -13.6225 -13.6225
   -13.6062 -13.6062 -13.5999 -13.5999 -13.5893 -13.5893 -13.5797 -13.5797
   -13.5593 -13.5593 -13.5531 -13.5531  -4.8651  -4.8651  -4.7415  -4.7415
     0.4910   0.4910   1.0601   1.0601   3.1062   3.1062   3.3801   3.3801
     4.4688   4.4688   4.8715   4.8715   5.8353   5.8353   6.3650   6.3650
     9.9597   9.9597  10.9661  10.9661  11.5158  11.5158  11.7375  11.7375
    13.0056  13.0056  13.2946  13.2946  14.2225  14.2225  15.2150  15.2150
    16.5667  16.5667  17.4722  17.4722  17.6388  17.6388  18.2777  18.2777
    19.1172  19.1172  19.3850  19.3850  20.3821  20.3821  20.6697  20.6697
    21.0815  21.0815  21.3033  21.3033  21.8443  21.8443  22.8787  22.8787
    23.2317  23.2317  23.6661  23.6661  23.9680  23.9680  24.3083  24.3083
    25.1488  25.1488  25.6512  25.6512  25.9893  25.9893  26.5018  26.5018
    27.0542  27.0542  27.8086  27.8087

     occupation numbers 
     1.0000   1.0000   1.0000   1.0000   1.0000   1.0000   1.0000   1.0000
     1.0000   1.0000   1.0000   1.0000   1.0000   1.0000   1.0000   1.0000
     1.0000   1.0000   1.0000   1.0000   1.0000   1.0000   1.0000   1.0000
     1.0000   1.0000   1.0000   1.0000   1.0000   1.0000   1.0000   1.0000
     1.0000   1.0000   1.0000   1.0000   1.0000   1.0000   1.0000   1.0000
     0.0000   0.0000   0.0000   0.0000   0.0000   0.0000   0.0000   0.0000
     0.0000   0.0000   0.0000   0.0000   0.0000   0.0000   0.0000   0.0000
     0.0000   0.0000   0.0000   0.0000   0.0000   0.0000   0.0000   0.0000
     0.0000   0.0000   0.0000   0.0000   0.0000   0.0000   0.0000   0.0000
     0.0000   0.0000   0.0000   0.0000   0.0000   0.0000   0.0000   0.0000
     0.0000   0.0000   0.0000   0.0000   0.0000   0.0000   0.0000   0.0000
     0.0000   0.0000   0.0000   0.0000   0.0000   0.0000   0.0000   0.0000
     0.0000   0.0000   0.0000   0.0000

          k = 0.3333-0.4365-0.1737 (  8208 PWs)   bands (ev):

   -13.6547 -13.6547 -13.6515 -13.6515 -13.6268 -13.6268 -13.6225 -13.6225
   -13.6061 -13.6061 -13.6003 -13.6003 -13.5884 -13.5884 -13.5805 -13.5805
   -13.5588 -13.5588 -13.5534 -13.5534  -4.8646  -4.8646  -4.7421  -4.7421
     0.4987   0.4987   1.0490   1.0490   3.2155   3.2155   3.2435   3.2435
     4.6361   4.6361   4.7101   4.7101   5.9937   5.9937   6.2139   6.2139
    10.1467  10.1467  10.8084  10.8084  11.5408  11.5408  11.5443  11.5443
    13.0581  13.0581  13.2952  13.2952  14.7259  14.7259  14.9148  14.9148
    16.5244  16.5244  17.4551  17.4551  17.5303  17.5303  18.2936  18.2936
    19.2020  19.2020  19.2980  19.2980  20.3326  20.3326  20.5568  20.5568
    21.1518  21.1518  21.2863  21.2863  21.8226  21.8226  23.0027  23.0027
    23.4254  23.4254  23.5450  23.5450  24.3329  24.3329  24.4790  24.4790
    24.8399  24.8399  25.6662  25.6662  26.0181  26.0181  26.3842  26.3842
    27.0412  27.0412  27.4463  27.4463

     occupation numbers 
     1.0000   1.0000   1.0000   1.0000   1.0000   1.0000   1.0000   1.0000
     1.0000   1.0000   1.0000   1.0000   1.0000   1.0000   1.0000   1.0000
     1.0000   1.0000   1.0000   1.0000   1.0000   1.0000   1.0000   1.0000
     1.0000   1.0000   1.0000   1.0000   1.0000   1.0000   1.0000   1.0000
     1.0000   1.0000   1.0000   1.0000   1.0000   1.0000   1.0000   1.0000
     0.0000   0.0000   0.0000   0.0000   0.0000   0.0000   0.0000   0.0000
     0.0000   0.0000   0.0000   0.0000   0.0000   0.0000   0.0000   0.0000
     0.0000   0.0000   0.0000   0.0000   0.0000   0.0000   0.0000   0.0000
     0.0000   0.0000   0.0000   0.0000   0.0000   0.0000   0.0000   0.0000
     0.0000   0.0000   0.0000   0.0000   0.0000   0.0000   0.0000   0.0000
     0.0000   0.0000   0.0000   0.0000   0.0000   0.0000   0.0000   0.0000
     0.0000   0.0000   0.0000   0.0000   0.0000   0.0000   0.0000   0.0000
     0.0000   0.0000   0.0000   0.0000

          k =-0.5000 0.0000 0.0000 (  8236 PWs)   bands (ev):

   -13.6518 -13.6518 -13.6491 -13.6491 -13.6206 -13.6206 -13.6165 -13.6165
   -13.6098 -13.6098 -13.6040 -13.6040 -13.5908 -13.5908 -13.5868 -13.5868
   -13.5549 -13.5549 -13.5530 -13.5530  -4.8697  -4.8697  -4.8217  -4.8217
     0.1175   0.1175   0.6349   0.6349   4.0359   4.0359   4.7442   4.7442
     5.0660   5.0660   5.4935   5.4935   6.4388   6.4388   6.5572   6.5572
     8.9744   8.9744   9.0869   9.0869   9.9744   9.9744  10.6106  10.6106
    11.2766  11.2766  12.3302  12.3302  14.9420  14.9420  15.1627  15.1627
    16.6432  16.6432  17.0618  17.0618  18.3732  18.3732  18.4399  18.4399
    18.8303  18.8303  19.4017  19.4017  19.5163  19.5163  19.8204  19.8204
    21.9740  21.9740  22.4500  22.4500  23.2917  23.2917  23.6243  23.6243
    23.6402  23.6402  25.1510  25.1510  25.3034  25.3034  25.7171  25.7171
    26.0698  26.0698  26.4074  26.4074  27.1466  27.1466  27.2384  27.2384
    27.7891  27.7891  28.2158  28.2159

     occupation numbers 
     1.0000   1.0000   1.0000   1.0000   1.0000   1.0000   1.0000   1.0000
     1.0000   1.0000   1.0000   1.0000   1.0000   1.0000   1.0000   1.0000
     1.0000   1.0000   1.0000   1.0000   1.0000   1.0000   1.0000   1.0000
     1.0000   1.0000   1.0000   1.0000   1.0000   1.0000   1.0000   1.0000
     1.0000   1.0000   1.0000   1.0000   1.0000   1.0000   1.0000   1.0000
     0.0000   0.0000   0.0000   0.0000   0.0000   0.0000   0.0000   0.0000
     0.0000   0.0000   0.0000   0.0000   0.0000   0.0000   0.0000   0.0000
     0.0000   0.0000   0.0000   0.0000   0.0000   0.0000   0.0000   0.0000
     0.0000   0.0000   0.0000   0.0000   0.0000   0.0000   0.0000   0.0000
     0.0000   0.0000   0.0000   0.0000   0.0000   0.0000   0.0000   0.0000
     0.0000   0.0000   0.0000   0.0000   0.0000   0.0000   0.0000   0.0000
     0.0000   0.0000   0.0000   0.0000   0.0000   0.0000   0.0000   0.0000
     0.0000   0.0000   0.0000   0.0000

          k =-0.5000 0.0000 0.0579 (  8252 PWs)   bands (ev):

   -13.6516 -13.6516 -13.6493 -13.6493 -13.6204 -13.6204 -13.6169 -13.6169
   -13.6092 -13.6092 -13.6043 -13.6043 -13.5906 -13.5906 -13.5871 -13.5871
   -13.5548 -13.5548 -13.5532 -13.5532  -4.8666  -4.8666  -4.8250  -4.8250
     0.1471   0.1471   0.5935   0.5935   4.1031   4.1031   4.7176   4.7176
     5.0839   5.0839   5.4621   5.4621   6.4235   6.4235   6.5047   6.5047
     9.0173   9.0173   9.1398   9.1398  10.0317  10.0317  10.5665  10.5665
    11.2607  11.2607  12.2037  12.2037  15.0257  15.0257  15.3225  15.3225
    16.7565  16.7565  16.8441  16.8441  18.1287  18.1287  18.1754  18.1754
    19.2003  19.2003  19.2452  19.2452  19.6542  19.6542  20.0933  20.0933
    22.0018  22.0018  22.1442  22.1442  22.8767  22.8767  23.9801  23.9801
    24.0393  24.0393  24.9410  24.9410  25.3591  25.3591  25.7861  25.7861
    26.0066  26.0066  26.4152  26.4152  27.1391  27.1391  27.1598  27.1598
    27.7521  27.7521  28.4080  28.4081

     occupation numbers 
     1.0000   1.0000   1.0000   1.0000   1.0000   1.0000   1.0000   1.0000
     1.0000   1.0000   1.0000   1.0000   1.0000   1.0000   1.0000   1.0000
     1.0000   1.0000   1.0000   1.0000   1.0000   1.0000   1.0000   1.0000
     1.0000   1.0000   1.0000   1.0000   1.0000   1.0000   1.0000   1.0000
     1.0000   1.0000   1.0000   1.0000   1.0000   1.0000   1.0000   1.0000
     0.0000   0.0000   0.0000   0.0000   0.0000   0.0000   0.0000   0.0000
     0.0000   0.0000   0.0000   0.0000   0.0000   0.0000   0.0000   0.0000
     0.0000   0.0000   0.0000   0.0000   0.0000   0.0000   0.0000   0.0000
     0.0000   0.0000   0.0000   0.0000   0.0000   0.0000   0.0000   0.0000
     0.0000   0.0000   0.0000   0.0000   0.0000   0.0000   0.0000   0.0000
     0.0000   0.0000   0.0000   0.0000   0.0000   0.0000   0.0000   0.0000
     0.0000   0.0000   0.0000   0.0000   0.0000   0.0000   0.0000   0.0000
     0.0000   0.0000   0.0000   0.0000

          k =-0.5000 0.0000 0.1158 (  8250 PWs)   bands (ev):

   -13.6512 -13.6512 -13.6499 -13.6499 -13.6198 -13.6198 -13.6179 -13.6179
   -13.6079 -13.6079 -13.6051 -13.6051 -13.5899 -13.5899 -13.5879 -13.5879
   -13.5545 -13.5545 -13.5535 -13.5535  -4.8580  -4.8580  -4.8339  -4.8339
     0.2308   0.2308   0.4866   0.4866   4.2746   4.2746   4.6313   4.6313
     5.1407   5.1407   5.3676   5.3676   6.3911   6.3911   6.4148   6.4148
     9.1201   9.1201   9.2185   9.2185  10.1730  10.1730  10.4568  10.4568
    11.2984  11.2984  11.8834  11.8834  15.2875  15.2875  15.7112  15.7112
    16.4057  16.4057  16.8893  16.8893  17.6508  17.6508  17.9060  17.9060
    19.2867  19.2867  19.4051  19.4051  20.2349  20.2349  20.3586  20.3586
    21.3329  21.3329  21.9011  21.9011  23.0246  23.0246  24.2984  24.2984
    24.3529  24.3529  24.7785  24.7785  25.2458  25.2458  25.8008  25.8008
    26.0699  26.0699  26.4465  26.4465  27.0193  27.0193  27.0556  27.0556
    27.8443  27.8443  28.5234  28.5235

     occupation numbers 
     1.0000   1.0000   1.0000   1.0000   1.0000   1.0000   1.0000   1.0000
     1.0000   1.0000   1.0000   1.0000   1.0000   1.0000   1.0000   1.0000
     1.0000   1.0000   1.0000   1.0000   1.0000   1.0000   1.0000   1.0000
     1.0000   1.0000   1.0000   1.0000   1.0000   1.0000   1.0000   1.0000
     1.0000   1.0000   1.0000   1.0000   1.0000   1.0000   1.0000   1.0000
     0.0000   0.0000   0.0000   0.0000   0.0000   0.0000   0.0000   0.0000
     0.0000   0.0000   0.0000   0.0000   0.0000   0.0000   0.0000   0.0000
     0.0000   0.0000   0.0000   0.0000   0.0000   0.0000   0.0000   0.0000
     0.0000   0.0000   0.0000   0.0000   0.0000   0.0000   0.0000   0.0000
     0.0000   0.0000   0.0000   0.0000   0.0000   0.0000   0.0000   0.0000
     0.0000   0.0000   0.0000   0.0000   0.0000   0.0000   0.0000   0.0000
     0.0000   0.0000   0.0000   0.0000   0.0000   0.0000   0.0000   0.0000
     0.0000   0.0000   0.0000   0.0000

          k =-0.5000 0.0000-0.1737 (  8252 PWs)   bands (ev):

   -13.6505 -13.6505 -13.6505 -13.6505 -13.6189 -13.6189 -13.6189 -13.6189
   -13.6064 -13.6064 -13.6064 -13.6064 -13.5889 -13.5889 -13.5889 -13.5889
   -13.5540 -13.5540 -13.5540 -13.5540  -4.8460  -4.8460  -4.8460  -4.8460
     0.3531   0.3531   0.3531   0.3531   4.4755   4.4755   4.4755   4.4755
     5.2416   5.2416   5.2416   5.2416   6.3757   6.3757   6.3757   6.3757
     9.2126   9.2126   9.2126   9.2126  10.3225  10.3225  10.3225  10.3225
    11.5224  11.5224  11.5224  11.5224  15.6794  15.6794  15.6794  15.6794
    16.5108  16.5108  16.5108  16.5108  17.6649  17.6649  17.6649  17.6649
    19.4035  19.4035  19.4035  19.4035  20.6032  20.6032  20.6032  20.6032
    21.2131  21.2131  21.2131  21.2131  23.7419  23.7419  23.7419  23.7419
    24.6470  24.6470  24.6470  24.6470  25.4829  25.4829  25.4829  25.4829
    26.3637  26.3637  26.3637  26.3637  26.9612  26.9612  26.9612  26.9612
    28.1367  28.1368  28.1368  28.1368

     occupation numbers 
     1.0000   1.0000   1.0000   1.0000   1.0000   1.0000   1.0000   1.0000
     1.0000   1.0000   1.0000   1.0000   1.0000   1.0000   1.0000   1.0000
     1.0000   1.0000   1.0000   1.0000   1.0000   1.0000   1.0000   1.0000
     1.0000   1.0000   1.0000   1.0000   1.0000   1.0000   1.0000   1.0000
     1.0000   1.0000   1.0000   1.0000   1.0000   1.0000   1.0000   1.0000
     0.0000   0.0000   0.0000   0.0000   0.0000   0.0000   0.0000   0.0000
     0.0000   0.0000   0.0000   0.0000   0.0000   0.0000   0.0000   0.0000
     0.0000   0.0000   0.0000   0.0000   0.0000   0.0000   0.0000   0.0000
     0.0000   0.0000   0.0000   0.0000   0.0000   0.0000   0.0000   0.0000
     0.0000   0.0000   0.0000   0.0000   0.0000   0.0000   0.0000   0.0000
     0.0000   0.0000   0.0000   0.0000   0.0000   0.0000   0.0000   0.0000
     0.0000   0.0000   0.0000   0.0000   0.0000   0.0000   0.0000   0.0000
     0.0000   0.0000   0.0000   0.0000

          k =-0.5000 0.1455 0.0000 (  8224 PWs)   bands (ev):

   -13.6544 -13.6544 -13.6505 -13.6505 -13.6216 -13.6216 -13.6165 -13.6165
   -13.6087 -13.6087 -13.6026 -13.6026 -13.5914 -13.5914 -13.5844 -13.5844
   -13.5561 -13.5561 -13.5520 -13.5520  -4.8222  -4.8222  -4.7801  -4.7801
     0.2406   0.2406   0.6944   0.6944   3.7811   3.7811   4.2210   4.2210
     4.6803   4.6803   5.4221   5.4221   5.8888   5.8888   6.8085   6.8085
     8.7327   8.7327   9.7531   9.7531  10.7479  10.7479  11.5375  11.5375
    11.8132  11.8132  12.1283  12.1283  13.9155  13.9155  15.6875  15.6875
    16.7563  16.7563  17.2769  17.2769  17.9646  17.9646  18.8446  18.8446
    19.1675  19.1675  19.5499  19.5499  19.6676  19.6676  20.5727  20.5727
    21.5759  21.5759  22.0570  22.0570  22.2899  22.2899  23.0340  23.0340
    23.9860  23.9860  24.1947  24.1947  24.9028  24.9028  25.6240  25.6240
    26.3288  26.3288  26.5540  26.5540  26.7193  26.7193  27.0795  27.0795
    28.1417  28.1417  28.5025  28.5026

     occupation numbers 
     1.0000   1.0000   1.0000   1.0000   1.0000   1.0000   1.0000   1.0000
     1.0000   1.0000   1.0000   1.0000   1.0000   1.0000   1.0000   1.0000
     1.0000   1.0000   1.0000   1.0000   1.0000   1.0000   1.0000   1.0000
     1.0000   1.0000   1.0000   1.0000   1.0000   1.0000   1.0000   1.0000
     1.0000   1.0000   1.0000   1.0000   1.0000   1.0000   1.0000   1.0000
     0.0000   0.0000   0.0000   0.0000   0.0000   0.0000   0.0000   0.0000
     0.0000   0.0000   0.0000   0.0000   0.0000   0.0000   0.0000   0.0000
     0.0000   0.0000   0.0000   0.0000   0.0000   0.0000   0.0000   0.0000
     0.0000   0.0000   0.0000   0.0000   0.0000   0.0000   0.0000   0.0000
     0.0000   0.0000   0.0000   0.0000   0.0000   0.0000   0.0000   0.0000
     0.0000   0.0000   0.0000   0.0000   0.0000   0.0000   0.0000   0.0000
     0.0000   0.0000   0.0000   0.0000   0.0000   0.0000   0.0000   0.0000
     0.0000   0.0000   0.0000   0.0000

          k =-0.5000 0.1455 0.0579 (  8210 PWs)   bands (ev):

   -13.6541 -13.6541 -13.6508 -13.6508 -13.6213 -13.6213 -13.6170 -13.6170
   -13.6082 -13.6082 -13.6031 -13.6031 -13.5909 -13.5909 -13.5848 -13.5848
   -13.5558 -13.5558 -13.5522 -13.5522  -4.8195  -4.8195  -4.7830  -4.7830
     0.2670   0.2670   0.6587   0.6587   3.8164   3.8164   4.2003   4.2003
     4.7147   4.7147   5.3793   5.3793   5.9301   5.9301   6.7025   6.7025
     8.8737   8.8737   9.7387   9.7387  10.7627  10.7627  11.4296  11.4296
    11.8072  11.8072  12.0662  12.0662  14.0610  14.0610  15.7879  15.7879
    16.6486  16.6486  17.3079  17.3079  17.8096  17.8096  18.8599  18.8599
    19.2716  19.2716  19.4085  19.4085  19.7757  19.7757  20.5556  20.5556
    21.3589  21.3589  22.0125  22.0125  22.4618  22.4618  23.2368  23.2368
    24.0092  24.0092  24.2919  24.2919  24.9834  24.9834  25.5328  25.5328
    26.2091  26.2091  26.4637  26.4637  26.6522  26.6522  27.1551  27.1551
    28.0270  28.0271  28.4617  28.4617

     occupation numbers 
     1.0000   1.0000   1.0000   1.0000   1.0000   1.0000   1.0000   1.0000
     1.0000   1.0000   1.0000   1.0000   1.0000   1.0000   1.0000   1.0000
     1.0000   1.0000   1.0000   1.0000   1.0000   1.0000   1.0000   1.0000
     1.0000   1.0000   1.0000   1.0000   1.0000   1.0000   1.0000   1.0000
     1.0000   1.0000   1.0000   1.0000   1.0000   1.0000   1.0000   1.0000
     0.0000   0.0000   0.0000   0.0000   0.0000   0.0000   0.0000   0.0000
     0.0000   0.0000   0.0000   0.0000   0.0000   0.0000   0.0000   0.0000
     0.0000   0.0000   0.0000   0.0000   0.0000   0.0000   0.0000   0.0000
     0.0000   0.0000   0.0000   0.0000   0.0000   0.0000   0.0000   0.0000
     0.0000   0.0000   0.0000   0.0000   0.0000   0.0000   0.0000   0.0000
     0.0000   0.0000   0.0000   0.0000   0.0000   0.0000   0.0000   0.0000
     0.0000   0.0000   0.0000   0.0000   0.0000   0.0000   0.0000   0.0000
     0.0000   0.0000   0.0000   0.0000

          k =-0.5000 0.1455 0.1158 (  8228 PWs)   bands (ev):

   -13.6535 -13.6535 -13.6516 -13.6516 -13.6205 -13.6205 -13.6181 -13.6181
   -13.6070 -13.6070 -13.6041 -13.6041 -13.5895 -13.5895 -13.5861 -13.5861
   -13.5550 -13.5550 -13.5529 -13.5529  -4.8119  -4.8119  -4.7908  -4.7908
     0.3415   0.3415   0.5663   0.5663   3.9068   3.9068   4.1297   4.1297
     4.8369   4.8369   5.2407   5.2407   6.0556   6.0556   6.4769   6.4769
     9.1812   9.1812   9.6656   9.6656  10.8300  10.8300  11.2302  11.2302
    11.7653  11.7653  11.9125  11.9125  14.4910  14.4910  15.6715  15.6715
    16.6359  16.6359  17.3283  17.3283  17.7323  17.7323  18.6006  18.6006
    19.2698  19.2698  19.4110  19.4110  20.0349  20.0349  20.5374  20.5374
    21.0574  21.0574  21.7525  21.7525  23.0592  23.0592  23.4270  23.4270
    24.0419  24.0419  24.4849  24.4849  25.1042  25.1042  25.3728  25.3728
    26.0253  26.0253  26.3778  26.3778  26.4434  26.4434  27.0952  27.0952
    27.9663  27.9663  28.4074  28.4075

     occupation numbers 
     1.0000   1.0000   1.0000   1.0000   1.0000   1.0000   1.0000   1.0000
     1.0000   1.0000   1.0000   1.0000   1.0000   1.0000   1.0000   1.0000
     1.0000   1.0000   1.0000   1.0000   1.0000   1.0000   1.0000   1.0000
     1.0000   1.0000   1.0000   1.0000   1.0000   1.0000   1.0000   1.0000
     1.0000   1.0000   1.0000   1.0000   1.0000   1.0000   1.0000   1.0000
     0.0000   0.0000   0.0000   0.0000   0.0000   0.0000   0.0000   0.0000
     0.0000   0.0000   0.0000   0.0000   0.0000   0.0000   0.0000   0.0000
     0.0000   0.0000   0.0000   0.0000   0.0000   0.0000   0.0000   0.0000
     0.0000   0.0000   0.0000   0.0000   0.0000   0.0000   0.0000   0.0000
     0.0000   0.0000   0.0000   0.0000   0.0000   0.0000   0.0000   0.0000
     0.0000   0.0000   0.0000   0.0000   0.0000   0.0000   0.0000   0.0000
     0.0000   0.0000   0.0000   0.0000   0.0000   0.0000   0.0000   0.0000
     0.0000   0.0000   0.0000   0.0000

          k =-0.5000 0.1455-0.1737 (  8228 PWs)   bands (ev):

   -13.6525 -13.6525 -13.6525 -13.6525 -13.6193 -13.6193 -13.6193 -13.6193
   -13.6056 -13.6056 -13.6056 -13.6056 -13.5878 -13.5878 -13.5878 -13.5878
   -13.5539 -13.5539 -13.5539 -13.5539  -4.8014  -4.8014  -4.8014  -4.8014
     0.4494   0.4494   0.4494   0.4494   4.0214   4.0214   4.0214   4.0214
     5.0349   5.0349   5.0349   5.0349   6.2465   6.2465   6.2465   6.2465
     9.4781   9.4781   9.4781   9.4781  11.0008  11.0008  11.0008  11.0008
    11.7874  11.7874  11.7874  11.7874  15.0963  15.0963  15.0963  15.0963
    16.9959  16.9959  16.9959  16.9959  18.1146  18.1146  18.1146  18.1146
    19.3757  19.3757  19.3757  19.3757  20.2638  20.2638  20.2638  20.2638
    21.3560  21.3560  21.3560  21.3560  23.4380  23.4380  23.4380  23.4380
    24.3011  24.3011  24.3011  24.3011  25.1703  25.1703  25.1703  25.1703
    26.1904  26.1904  26.1904  26.1904  26.6486  26.6486  26.6486  26.6486
    28.2429  28.2429  28.2429  28.2429

     occupation numbers 
     1.0000   1.0000   1.0000   1.0000   1.0000   1.0000   1.0000   1.0000
     1.0000   1.0000   1.0000   1.0000   1.0000   1.0000   1.0000   1.0000
     1.0000   1.0000   1.0000   1.0000   1.0000   1.0000   1.0000   1.0000
     1.0000   1.0000   1.0000   1.0000   1.0000   1.0000   1.0000   1.0000
     1.0000   1.0000   1.0000   1.0000   1.0000   1.0000   1.0000   1.0000
     0.0000   0.0000   0.0000   0.0000   0.0000   0.0000   0.0000   0.0000
     0.0000   0.0000   0.0000   0.0000   0.0000   0.0000   0.0000   0.0000
     0.0000   0.0000   0.0000   0.0000   0.0000   0.0000   0.0000   0.0000
     0.0000   0.0000   0.0000   0.0000   0.0000   0.0000   0.0000   0.0000
     0.0000   0.0000   0.0000   0.0000   0.0000   0.0000   0.0000   0.0000
     0.0000   0.0000   0.0000   0.0000   0.0000   0.0000   0.0000   0.0000
     0.0000   0.0000   0.0000   0.0000   0.0000   0.0000   0.0000   0.0000
     0.0000   0.0000   0.0000   0.0000

          k =-0.5000 0.2910 0.0000 (  8198 PWs)   bands (ev):

   -13.6594 -13.6594 -13.6535 -13.6535 -13.6233 -13.6233 -13.6166 -13.6166
   -13.6068 -13.6068 -13.6008 -13.6008 -13.5907 -13.5907 -13.5806 -13.5806
   -13.5574 -13.5574 -13.5508 -13.5508  -4.7210  -4.7210  -4.6957  -4.6957
     0.5392   0.5392   0.8014   0.8014   3.1334   3.1334   3.7565   3.7565
     4.1296   4.1296   4.8280   4.8280   5.4401   5.4401   6.5224   6.5224
     9.5084   9.5084  10.8574  10.8574  11.6105  11.6105  11.8658  11.8658
    12.5557  12.5557  13.3432  13.3432  13.6182  13.6182  15.0350  15.0350
    16.7369  16.7369  17.9113  17.9113  18.7062  18.7062  18.8655  18.8655
    19.4233  19.4233  19.6999  19.6999  19.9261  19.9261  20.3967  20.3967
    20.7212  20.7212  21.2683  21.2683  22.2946  22.2946  22.7887  22.7887
    23.6710  23.6710  23.8119  23.8119  24.2211  24.2211  24.7759  24.7759
    25.6334  25.6334  26.1140  26.1140  26.6692  26.6692  26.8120  26.8120
    27.0999  27.0999  27.3750  27.3750

     occupation numbers 
     1.0000   1.0000   1.0000   1.0000   1.0000   1.0000   1.0000   1.0000
     1.0000   1.0000   1.0000   1.0000   1.0000   1.0000   1.0000   1.0000
     1.0000   1.0000   1.0000   1.0000   1.0000   1.0000   1.0000   1.0000
     1.0000   1.0000   1.0000   1.0000   1.0000   1.0000   1.0000   1.0000
     1.0000   1.0000   1.0000   1.0000   1.0000   1.0000   1.0000   1.0000
     0.0000   0.0000   0.0000   0.0000   0.0000   0.0000   0.0000   0.0000
     0.0000   0.0000   0.0000   0.0000   0.0000   0.0000   0.0000   0.0000
     0.0000   0.0000   0.0000   0.0000   0.0000   0.0000   0.0000   0.0000
     0.0000   0.0000   0.0000   0.0000   0.0000   0.0000   0.0000   0.0000
     0.0000   0.0000   0.0000   0.0000   0.0000   0.0000   0.0000   0.0000
     0.0000   0.0000   0.0000   0.0000   0.0000   0.0000   0.0000   0.0000
     0.0000   0.0000   0.0000   0.0000   0.0000   0.0000   0.0000   0.0000
     0.0000   0.0000   0.0000   0.0000

          k =-0.5000 0.2910 0.0579 (  8202 PWs)   bands (ev):

   -13.6590 -13.6590 -13.6539 -13.6539 -13.6229 -13.6229 -13.6172 -13.6172
   -13.6064 -13.6064 -13.6013 -13.6013 -13.5899 -13.5899 -13.5813 -13.5813
   -13.5569 -13.5569 -13.5512 -13.5512  -4.7193  -4.7193  -4.6974  -4.6974
     0.5548   0.5548   0.7815   0.7815   3.1690   3.1690   3.7323   3.7323
     4.1177   4.1177   4.7631   4.7631   5.5495   5.5495   6.4782   6.4782
     9.5976   9.5976  10.8301  10.8301  11.3947  11.3947  11.7794  11.7794
    12.7209  12.7209  13.3196  13.3196  13.7880  13.7880  15.1639  15.1639
    16.5985  16.5985  17.7143  17.7143  18.7356  18.7356  18.9475  18.9475
    19.4420  19.4420  19.5795  19.5795  20.0303  20.0303  20.3925  20.3925
    20.5096  20.5096  21.2884  21.2884  22.4178  22.4178  22.9329  22.9329
    23.6378  23.6378  23.9813  23.9813  24.3638  24.3638  24.8275  24.8275
    25.6444  25.6444  25.9376  25.9376  26.4775  26.4775  26.7513  26.7513
    27.0418  27.0418  27.3787  27.3787

     occupation numbers 
     1.0000   1.0000   1.0000   1.0000   1.0000   1.0000   1.0000   1.0000
     1.0000   1.0000   1.0000   1.0000   1.0000   1.0000   1.0000   1.0000
     1.0000   1.0000   1.0000   1.0000   1.0000   1.0000   1.0000   1.0000
     1.0000   1.0000   1.0000   1.0000   1.0000   1.0000   1.0000   1.0000
     1.0000   1.0000   1.0000   1.0000   1.0000   1.0000   1.0000   1.0000
     0.0000   0.0000   0.0000   0.0000   0.0000   0.0000   0.0000   0.0000
     0.0000   0.0000   0.0000   0.0000   0.0000   0.0000   0.0000   0.0000
     0.0000   0.0000   0.0000   0.0000   0.0000   0.0000   0.0000   0.0000
     0.0000   0.0000   0.0000   0.0000   0.0000   0.0000   0.0000   0.0000
     0.0000   0.0000   0.0000   0.0000   0.0000   0.0000   0.0000   0.0000
     0.0000   0.0000   0.0000   0.0000   0.0000   0.0000   0.0000   0.0000
     0.0000   0.0000   0.0000   0.0000   0.0000   0.0000   0.0000   0.0000
     0.0000   0.0000   0.0000   0.0000

          k =-0.5000 0.2910 0.1158 (  8208 PWs)   bands (ev):

   -13.6580 -13.6580 -13.6550 -13.6550 -13.6219 -13.6219 -13.6186 -13.6186
   -13.6053 -13.6053 -13.6025 -13.6025 -13.5879 -13.5879 -13.5831 -13.5831
   -13.5555 -13.5555 -13.5522 -13.5522  -4.7147  -4.7147  -4.7021  -4.7021
     0.5988   0.5988   0.7292   0.7292   3.2723   3.2723   3.6090   3.6090
     4.1929   4.1929   4.5907   4.5907   5.8075   5.8075   6.3357   6.3357
     9.8525   9.8525  10.6219  10.6219  11.2251  11.2251  11.5352  11.5352
    12.9617  12.9617  13.2515  13.2515  14.2532  14.2532  15.2659  15.2659
    16.4485  16.4485  17.2834  17.2834  18.8172  18.8172  19.0939  19.0939
    19.2683  19.2683  19.5986  19.5986  20.0727  20.0727  20.1645  20.1645
    20.5557  20.5557  21.1213  21.1213  22.7761  22.7761  23.1338  23.1338
    23.6990  23.6990  24.2158  24.2158  24.7081  24.7081  24.9852  24.9852
    25.5057  25.5058  25.8077  25.8077  26.1153  26.1153  26.5538  26.5538
    26.7888  26.7888  27.2557  27.2557

     occupation numbers 
     1.0000   1.0000   1.0000   1.0000   1.0000   1.0000   1.0000   1.0000
     1.0000   1.0000   1.0000   1.0000   1.0000   1.0000   1.0000   1.0000
     1.0000   1.0000   1.0000   1.0000   1.0000   1.0000   1.0000   1.0000
     1.0000   1.0000   1.0000   1.0000   1.0000   1.0000   1.0000   1.0000
     1.0000   1.0000   1.0000   1.0000   1.0000   1.0000   1.0000   1.0000
     0.0000   0.0000   0.0000   0.0000   0.0000   0.0000   0.0000   0.0000
     0.0000   0.0000   0.0000   0.0000   0.0000   0.0000   0.0000   0.0000
     0.0000   0.0000   0.0000   0.0000   0.0000   0.0000   0.0000   0.0000
     0.0000   0.0000   0.0000   0.0000   0.0000   0.0000   0.0000   0.0000
     0.0000   0.0000   0.0000   0.0000   0.0000   0.0000   0.0000   0.0000
     0.0000   0.0000   0.0000   0.0000   0.0000   0.0000   0.0000   0.0000
     0.0000   0.0000   0.0000   0.0000   0.0000   0.0000   0.0000   0.0000
     0.0000   0.0000   0.0000   0.0000

          k =-0.5000 0.2910-0.1737 (  8196 PWs)   bands (ev):

   -13.6565 -13.6565 -13.6565 -13.6565 -13.6203 -13.6203 -13.6203 -13.6203
   -13.6039 -13.6039 -13.6039 -13.6039 -13.5854 -13.5854 -13.5854 -13.5854
   -13.5538 -13.5538 -13.5538 -13.5538  -4.7084  -4.7084  -4.7084  -4.7084
     0.6619   0.6619   0.6619   0.6619   3.4300   3.4300   3.4300   3.4300
     4.3760   4.3760   4.3760   4.3760   6.0974   6.0974   6.0974   6.0974
    10.2270  10.2270  10.2270  10.2270  11.3153  11.3153  11.3153  11.3153
    13.1335  13.1335  13.1335  13.1335  14.8552  14.8552  14.8552  14.8552
    16.7745  16.7745  16.7745  16.7745  18.9721  18.9721  18.9721  18.9721
    19.4086  19.4086  19.4086  19.4086  20.0838  20.0838  20.0838  20.0838
    20.8202  20.8202  20.8202  20.8202  23.0662  23.0662  23.0662  23.0662
    24.0667  24.0667  24.0667  24.0667  24.9963  24.9963  24.9963  24.9963
    25.5099  25.5099  25.5099  25.5099  26.2857  26.2857  26.2857  26.2857
    26.8460  26.8460  26.8460  26.8461

     occupation numbers 
     1.0000   1.0000   1.0000   1.0000   1.0000   1.0000   1.0000   1.0000
     1.0000   1.0000   1.0000   1.0000   1.0000   1.0000   1.0000   1.0000
     1.0000   1.0000   1.0000   1.0000   1.0000   1.0000   1.0000   1.0000
     1.0000   1.0000   1.0000   1.0000   1.0000   1.0000   1.0000   1.0000
     1.0000   1.0000   1.0000   1.0000   1.0000   1.0000   1.0000   1.0000
     0.0000   0.0000   0.0000   0.0000   0.0000   0.0000   0.0000   0.0000
     0.0000   0.0000   0.0000   0.0000   0.0000   0.0000   0.0000   0.0000
     0.0000   0.0000   0.0000   0.0000   0.0000   0.0000   0.0000   0.0000
     0.0000   0.0000   0.0000   0.0000   0.0000   0.0000   0.0000   0.0000
     0.0000   0.0000   0.0000   0.0000   0.0000   0.0000   0.0000   0.0000
     0.0000   0.0000   0.0000   0.0000   0.0000   0.0000   0.0000   0.0000
     0.0000   0.0000   0.0000   0.0000   0.0000   0.0000   0.0000   0.0000
     0.0000   0.0000   0.0000   0.0000

          k =-0.5000-0.4365 0.0000 (  8208 PWs)   bands (ev):

   -13.6618 -13.6618 -13.6550 -13.6550 -13.6240 -13.6240 -13.6167 -13.6167
   -13.6060 -13.6060 -13.6003 -13.6003 -13.5899 -13.5899 -13.5790 -13.5790
   -13.5579 -13.5579 -13.5504 -13.5504  -4.6626  -4.6626  -4.6571  -4.6571
     0.7437   0.7437   0.8267   0.8267   2.9048   2.9048   3.4411   3.4411
     4.0075   4.0075   4.3388   4.3388   5.4709   5.4709   6.2942   6.2942
    10.4117  10.4117  10.4597  10.4597  12.0448  12.0448  12.0528  12.0528
    13.0397  13.0397  14.0055  14.0055  14.0159  14.0159  15.0962  15.0962
    16.7471  16.7471  17.2652  17.2652  17.8472  17.8472  19.3230  19.3230
    19.8087  19.8087  19.8765  19.8765  20.3072  20.3072  20.3876  20.3876
    21.2166  21.2166  21.2183  21.2183  21.9421  21.9421  22.3731  22.3731
    22.7563  22.7563  23.1121  23.1121  24.5751  24.5751  24.8133  24.8133
    25.0822  25.0822  25.6778  25.6778  25.7589  25.7589  26.7311  26.7311
    27.2318  27.2318  27.6130  27.6131

     occupation numbers 
     1.0000   1.0000   1.0000   1.0000   1.0000   1.0000   1.0000   1.0000
     1.0000   1.0000   1.0000   1.0000   1.0000   1.0000   1.0000   1.0000
     1.0000   1.0000   1.0000   1.0000   1.0000   1.0000   1.0000   1.0000
     1.0000   1.0000   1.0000   1.0000   1.0000   1.0000   1.0000   1.0000
     1.0000   1.0000   1.0000   1.0000   1.0000   1.0000   1.0000   1.0000
     0.0000   0.0000   0.0000   0.0000   0.0000   0.0000   0.0000   0.0000
     0.0000   0.0000   0.0000   0.0000   0.0000   0.0000   0.0000   0.0000
     0.0000   0.0000   0.0000   0.0000   0.0000   0.0000   0.0000   0.0000
     0.0000   0.0000   0.0000   0.0000   0.0000   0.0000   0.0000   0.0000
     0.0000   0.0000   0.0000   0.0000   0.0000   0.0000   0.0000   0.0000
     0.0000   0.0000   0.0000   0.0000   0.0000   0.0000   0.0000   0.0000
     0.0000   0.0000   0.0000   0.0000   0.0000   0.0000   0.0000   0.0000
     0.0000   0.0000   0.0000   0.0000

          k =-0.5000-0.4365 0.0579 (  8204 PWs)   bands (ev):

   -13.6614 -13.6614 -13.6555 -13.6555 -13.6236 -13.6236 -13.6173 -13.6173
   -13.6055 -13.6055 -13.6007 -13.6007 -13.5890 -13.5890 -13.5797 -13.5797
   -13.5573 -13.5573 -13.5508 -13.5508  -4.6622  -4.6622  -4.6575  -4.6575
     0.7474   0.7474   0.8191   0.8191   2.9524   2.9524   3.4715   3.4715
     3.9104   3.9104   4.2709   4.2709   5.5942   5.5942   6.2946   6.2946
    10.3626  10.3626  10.4249  10.4249  11.9501  11.9501  11.9938  11.9938
    13.2951  13.2951  14.0152  14.0152  14.0456  14.0456  15.1697  15.1697
    16.6453  16.6453  17.2380  17.2380  17.8959  17.8959  19.1194  19.1194
    19.6917  19.6917  19.7490  19.7490  20.2371  20.2371  20.3132  20.3132
    21.4321  21.4321  21.4553  21.4553  21.9417  21.9417  22.2769  22.2769
    22.9357  22.9357  23.4583  23.4583  24.5546  24.5546  24.8151  24.8151
    24.8905  24.8905  25.6648  25.6648  26.0286  26.0287  26.7901  26.7902
    27.0473  27.0474  27.3800  27.3801

     occupation numbers 
     1.0000   1.0000   1.0000   1.0000   1.0000   1.0000   1.0000   1.0000
     1.0000   1.0000   1.0000   1.0000   1.0000   1.0000   1.0000   1.0000
     1.0000   1.0000   1.0000   1.0000   1.0000   1.0000   1.0000   1.0000
     1.0000   1.0000   1.0000   1.0000   1.0000   1.0000   1.0000   1.0000
     1.0000   1.0000   1.0000   1.0000   1.0000   1.0000   1.0000   1.0000
     0.0000   0.0000   0.0000   0.0000   0.0000   0.0000   0.0000   0.0000
     0.0000   0.0000   0.0000   0.0000   0.0000   0.0000   0.0000   0.0000
     0.0000   0.0000   0.0000   0.0000   0.0000   0.0000   0.0000   0.0000
     0.0000   0.0000   0.0000   0.0000   0.0000   0.0000   0.0000   0.0000
     0.0000   0.0000   0.0000   0.0000   0.0000   0.0000   0.0000   0.0000
     0.0000   0.0000   0.0000   0.0000   0.0000   0.0000   0.0000   0.0000
     0.0000   0.0000   0.0000   0.0000   0.0000   0.0000   0.0000   0.0000
     0.0000   0.0000   0.0000   0.0000

          k =-0.5000-0.4365 0.1158 (  8200 PWs)   bands (ev):

   -13.6602 -13.6602 -13.6568 -13.6568 -13.6225 -13.6225 -13.6190 -13.6190
   -13.6044 -13.6044 -13.6018 -13.6018 -13.5869 -13.5869 -13.5816 -13.5816
   -13.5557 -13.5557 -13.5519 -13.5519  -4.6612  -4.6612  -4.6585  -4.6585
     0.7588   0.7588   0.8000   0.8000   3.0887   3.0887   3.4744   3.4744
     3.7917   3.7917   4.1020   4.1020   5.8574   5.8574   6.2534   6.2534
    10.2807  10.2807  10.3403  10.3403  11.8427  11.8427  11.8851  11.8851
    13.7239  13.7239  13.9908  13.9908  14.2509  14.2509  15.1558  15.1558
    16.5859  16.5859  17.1202  17.1202  18.0106  18.0106  18.6242  18.6242
    19.5228  19.5228  19.5769  19.5769  20.2170  20.2170  20.2569  20.2569
    21.6549  21.6549  21.6777  21.6777  22.0540  22.0540  22.2201  22.2201
    23.3727  23.3727  23.9727  23.9727  24.4680  24.4680  24.8566  24.8566
    25.0290  25.0290  25.5169  25.5169  26.4177  26.4178  26.5532  26.5532
    26.7630  26.7630  26.8002  26.8003

     occupation numbers 
     1.0000   1.0000   1.0000   1.0000   1.0000   1.0000   1.0000   1.0000
     1.0000   1.0000   1.0000   1.0000   1.0000   1.0000   1.0000   1.0000
     1.0000   1.0000   1.0000   1.0000   1.0000   1.0000   1.0000   1.0000
     1.0000   1.0000   1.0000   1.0000   1.0000   1.0000   1.0000   1.0000
     1.0000   1.0000   1.0000   1.0000   1.0000   1.0000   1.0000   1.0000
     0.0000   0.0000   0.0000   0.0000   0.0000   0.0000   0.0000   0.0000
     0.0000   0.0000   0.0000   0.0000   0.0000   0.0000   0.0000   0.0000
     0.0000   0.0000   0.0000   0.0000   0.0000   0.0000   0.0000   0.0000
     0.0000   0.0000   0.0000   0.0000   0.0000   0.0000   0.0000   0.0000
     0.0000   0.0000   0.0000   0.0000   0.0000   0.0000   0.0000   0.0000
     0.0000   0.0000   0.0000   0.0000   0.0000   0.0000   0.0000   0.0000
     0.0000   0.0000   0.0000   0.0000   0.0000   0.0000   0.0000   0.0000
     0.0000   0.0000   0.0000   0.0000

          k =-0.5000-0.4365-0.1737 (  8160 PWs)   bands (ev):

   -13.6585 -13.6585 -13.6585 -13.6585 -13.6209 -13.6209 -13.6209 -13.6209
   -13.6031 -13.6031 -13.6031 -13.6031 -13.5842 -13.5842 -13.5842 -13.5842
   -13.5537 -13.5537 -13.5537 -13.5537  -4.6598  -4.6598  -4.6598  -4.6598
     0.7775   0.7775   0.7775   0.7775   3.2900   3.2900   3.2900   3.2900
     3.9058   3.9058   3.9058   3.9058   6.1065   6.1065   6.1065   6.1065
    10.2693  10.2693  10.2693  10.2693  11.8220  11.8220  11.8220  11.8220
    13.9190  13.9190  13.9190  13.9190  14.7479  14.7479  14.7479  14.7479
    16.8466  16.8466  16.8466  16.8466  18.2165  18.2165  18.2165  18.2165
    19.4868  19.4868  19.4868  19.4868  20.2305  20.2305  20.2305  20.2305
    21.7067  21.7067  21.7067  21.7067  22.1978  22.1978  22.1978  22.1978
    23.7837  23.7837  23.7837  23.7837  24.8326  24.8326  24.8326  24.8326
    25.4800  25.4800  25.4800  25.4800  25.9933  25.9933  25.9933  25.9933
    26.7448  26.7448  26.7448  26.7449

     occupation numbers 
     1.0000   1.0000   1.0000   1.0000   1.0000   1.0000   1.0000   1.0000
     1.0000   1.0000   1.0000   1.0000   1.0000   1.0000   1.0000   1.0000
     1.0000   1.0000   1.0000   1.0000   1.0000   1.0000   1.0000   1.0000
     1.0000   1.0000   1.0000   1.0000   1.0000   1.0000   1.0000   1.0000
     1.0000   1.0000   1.0000   1.0000   1.0000   1.0000   1.0000   1.0000
     0.0000   0.0000   0.0000   0.0000   0.0000   0.0000   0.0000   0.0000
     0.0000   0.0000   0.0000   0.0000   0.0000   0.0000   0.0000   0.0000
     0.0000   0.0000   0.0000   0.0000   0.0000   0.0000   0.0000   0.0000
     0.0000   0.0000   0.0000   0.0000   0.0000   0.0000   0.0000   0.0000
     0.0000   0.0000   0.0000   0.0000   0.0000   0.0000   0.0000   0.0000
     0.0000   0.0000   0.0000   0.0000   0.0000   0.0000   0.0000   0.0000
     0.0000   0.0000   0.0000   0.0000   0.0000   0.0000   0.0000   0.0000
     0.0000   0.0000   0.0000   0.0000

     highest occupied, lowest unoccupied level (ev):     7.4714    8.4477

!    total energy              =   -2033.63873304 Ry

     total all-electron energy =    -52612.554361 Ry
     estimated scf accuracy    <          8.0E-09 Ry

     The total energy is the sum of the following terms:
     one-electron contribution =    -249.21617479 Ry
     hartree contribution      =     178.41741222 Ry
     xc contribution           =    -212.81673193 Ry
     ewald contribution        =    -441.71794539 Ry
     one-center paw contrib.   =   -1308.30529315 Ry
      -> PAW hartree energy AE =     109.33922240 Ry
      -> PAW hartree energy PS =    -108.58367485 Ry
      -> PAW xc energy AE      =    -329.01784660 Ry
      -> PAW xc energy PS      =      47.32031398 Ry
      -> total E_H with PAW    =     179.17295977 Ry
      -> total E_XC with PAW   =    -494.51426456 Ry

     convergence has been achieved in   9 iterations

     Forces acting on atoms (cartesian axes, Ry/au):

     atom    1 type  1   force =     0.00000000    0.00505104   -0.00695517
     atom    2 type  1   force =     0.00000000   -0.00505104    0.00695517
     atom    3 type  1   force =     0.00000000    0.00505104    0.00695517
     atom    4 type  1   force =     0.00000000   -0.00505104   -0.00695517
     atom    5 type  2   force =     0.00000000    0.00598539    0.00554073
     atom    6 type  2   force =     0.00000000   -0.00598539   -0.00554073
     atom    7 type  2   force =     0.00000000    0.00598539   -0.00554073
     atom    8 type  2   force =     0.00000000   -0.00598539    0.00554073
     The non-local contrib.  to forces
     atom    1 type  1   force =    -0.00000000   -0.31637986    0.37394885
     atom    2 type  1   force =    -0.00000000    0.31637986   -0.37394885
     atom    3 type  1   force =     0.00000000   -0.31637986   -0.37394885
     atom    4 type  1   force =     0.00000000    0.31637986    0.37394885
     atom    5 type  2   force =     0.00000000   -0.09067753   -0.08560711
     atom    6 type  2   force =     0.00000000    0.09067753    0.08560711
     atom    7 type  2   force =     0.00000000   -0.09067753    0.08560711
     atom    8 type  2   force =     0.00000000    0.09067753   -0.08560711
     The ionic contribution  to forces
     atom    1 type  1   force =     0.00000000    1.33253571   -3.10334997
     atom    2 type  1   force =     0.00000000   -1.33253571    3.10334997
     atom    3 type  1   force =     0.00000000    1.33253571    3.10334997
     atom    4 type  1   force =    -0.00000000   -1.33253571   -3.10334997
     atom    5 type  2   force =    -0.00000000    1.93270411    2.18441844
     atom    6 type  2   force =    -0.00000000   -1.93270411   -2.18441844
     atom    7 type  2   force =     0.00000000    1.93270411   -2.18441844
     atom    8 type  2   force =    -0.00000000   -1.93270411    2.18441844
     The local contribution  to forces
     atom    1 type  1   force =    -0.00000000   -1.01079278    2.72185178
     atom    2 type  1   force =    -0.00000000    1.01079278   -2.72185178
     atom    3 type  1   force =    -0.00000000   -1.01079278   -2.72185178
     atom    4 type  1   force =    -0.00000000    1.01079278    2.72185178
     atom    5 type  2   force =    -0.00000000   -1.83723322   -2.09460259
     atom    6 type  2   force =     0.00000000    1.83723322    2.09460259
     atom    7 type  2   force =    -0.00000000   -1.83723322    2.09460259
     atom    8 type  2   force =     0.00000000    1.83723322   -2.09460259
     The core correction contribution to forces
     atom    1 type  1   force =    -0.00000000   -0.00034100    0.00053735
     atom    2 type  1   force =    -0.00000000    0.00034100   -0.00053735
     atom    3 type  1   force =    -0.00000000   -0.00034100   -0.00053735
     atom    4 type  1   force =    -0.00000000    0.00034100    0.00053735
     atom    5 type  2   force =     0.00000000    0.00118628    0.00132046
     atom    6 type  2   force =    -0.00000000   -0.00118628   -0.00132046
     atom    7 type  2   force =     0.00000000    0.00118628   -0.00132046
     atom    8 type  2   force =     0.00000000   -0.00118628    0.00132046
     The Hubbard contrib.    to forces
     atom    1 type  1   force =     0.00000000    0.00000000    0.00000000
     atom    2 type  1   force =     0.00000000    0.00000000    0.00000000
     atom    3 type  1   force =     0.00000000    0.00000000    0.00000000
     atom    4 type  1   force =     0.00000000    0.00000000    0.00000000
     atom    5 type  2   force =     0.00000000    0.00000000    0.00000000
     atom    6 type  2   force =     0.00000000    0.00000000    0.00000000
     atom    7 type  2   force =     0.00000000    0.00000000    0.00000000
     atom    8 type  2   force =     0.00000000    0.00000000    0.00000000
     The SCF correction term to forces
     atom    1 type  1   force =    -0.00000000    0.00002898    0.00005682
     atom    2 type  1   force =     0.00000000   -0.00002898   -0.00005682
     atom    3 type  1   force =    -0.00000000    0.00002898   -0.00005682
     atom    4 type  1   force =    -0.00000000   -0.00002898    0.00005682
     atom    5 type  2   force =     0.00000000    0.00000575    0.00001153
     atom    6 type  2   force =    -0.00000000   -0.00000575   -0.00001153
     atom    7 type  2   force =    -0.00000000    0.00000575   -0.00001153
     atom    8 type  2   force =     0.00000000   -0.00000575    0.00001153

     Total force =     0.023699     Total SCF correction =     0.000130


     Computing stress (Cartesian axis) and pressure

          total   stress  (Ry/bohr**3)                   (kbar)     P=       12.15
   0.00010177   0.00000000   0.00000000           14.97        0.00        0.00
   0.00000000   0.00006095   0.00000000            0.00        8.97        0.00
   0.00000000   0.00000000   0.00008508            0.00        0.00       12.52

     kinetic stress (kbar)  18134.81      0.00      0.00
                                0.00  18200.95      0.00
                                0.00      0.00  18207.25

     local   stress (kbar)  -3293.83      0.00      0.00
                                0.00    724.17      0.00
                                0.00      0.00  -1543.55

     nonloc. stress (kbar)  -3060.95      0.00      0.00
                                0.00  -3072.00      0.00
                                0.00      0.00  -3044.74

     hartree stress (kbar)   7103.16      0.00     -0.00
                                0.00   5509.58     -0.00
                               -0.00     -0.00   6422.13

     exc-cor stress (kbar)   8581.23     -0.00      0.00
                               -0.00   8579.81     -0.00
                                0.00     -0.00   8581.55

     corecor stress (kbar) -12955.58      0.00      0.00
                                0.00 -12955.38      0.00
                                0.00      0.00 -12956.48

     ewald   stress (kbar) -14493.87     -0.00     -0.00
                               -0.00 -16978.18      0.00
                               -0.00      0.00 -15653.64

     hubbard stress (kbar)      0.00      0.00      0.00
                                0.00      0.00      0.00
                                0.00      0.00      0.00

     DFT-D   stress (kbar)      0.00      0.00      0.00
                                0.00      0.00      0.00
                                0.00      0.00      0.00

     XDM     stress (kbar)      0.00      0.00      0.00
                                0.00      0.00      0.00
                                0.00      0.00      0.00

     dft-nl  stress (kbar)      0.00      0.00      0.00
                                0.00      0.00      0.00
                                0.00      0.00      0.00

     TS-vdW  stress (kbar)      0.00      0.00      0.00
                                0.00      0.00      0.00
                                0.00      0.00      0.00


                                0.00      0.00      0.00
                                0.00      0.00      0.00


                                0.00      0.00      0.00


     Writing all to output data dir ./bulk/sns.save/

     init_run     :     18.42s CPU      9.96s WALL (       1 calls)
     electrons    :    925.70s CPU    489.98s WALL (       1 calls)
     forces       :     15.87s CPU      8.68s WALL (       1 calls)
     stress       :     19.10s CPU     10.66s WALL (       1 calls)

     Called by init_run:
     wfcinit      :     16.14s CPU      8.44s WALL (       1 calls)
     wfcinit:atom :      0.18s CPU      0.09s WALL (      64 calls)
     wfcinit:wfcr :     15.45s CPU      8.08s WALL (      64 calls)
     potinit      :      0.76s CPU      0.50s WALL (       1 calls)
     hinit0       :      0.81s CPU      0.64s WALL (       1 calls)

     Called by electrons:
     c_bands      :    801.53s CPU    423.14s WALL (      10 calls)
     sum_band     :    119.12s CPU     63.98s WALL (      10 calls)
     v_of_rho     :      0.49s CPU      0.28s WALL (      10 calls)
     v_h          :      0.03s CPU      0.02s WALL (      10 calls)
     v_xc         :      0.55s CPU      0.31s WALL (      12 calls)
     newd         :      3.71s CPU      2.05s WALL (      10 calls)
     PAW_pot      :      1.37s CPU      0.83s WALL (      10 calls)
     mix_rho      :      0.07s CPU      0.04s WALL (      10 calls)

     Called by c_bands:
     init_us_2    :      4.12s CPU      2.13s WALL (    1472 calls)
     init_us_2:cp :      4.11s CPU      2.13s WALL (    1472 calls)
     cegterg      :    788.14s CPU    416.26s WALL (     640 calls)

     Called by sum_band:
     sum_band:wei :      0.00s CPU      0.00s WALL (      10 calls)
     sum_band:loo :    113.30s CPU     59.98s WALL (      10 calls)
     sum_band:buf :      0.57s CPU      0.40s WALL (     640 calls)
     sum_band:ini :      1.68s CPU      0.86s WALL (     640 calls)
     sum_band:cal :     10.94s CPU      5.65s WALL (     640 calls)
     sum_band:bec :      8.43s CPU      4.27s WALL (     640 calls)
     addusdens    :      4.58s CPU      3.15s WALL (      10 calls)
     addusd:skk   :      0.08s CPU      0.05s WALL (      20 calls)
     addusd:dgemm :      1.32s CPU      1.38s WALL (      20 calls)
     addusd:qvan2 :      3.03s CPU      1.63s WALL (      20 calls)

     Called by *egterg:
     cdiaghg      :     40.14s CPU     21.01s WALL (    2975 calls)
     cegterg:over :     60.65s CPU     31.71s WALL (    2399 calls)
     cegterg:upda :     49.95s CPU     25.65s WALL (    2399 calls)
     cegterg:last :     61.46s CPU     31.94s WALL (    1371 calls)
     cdiaghg:chol :      3.02s CPU      1.53s WALL (    2975 calls)
     cdiaghg:inve :      0.55s CPU      0.29s WALL (    2975 calls)
     cdiaghg:para :      8.42s CPU      4.54s WALL (    5950 calls)
     h_psi        :    490.00s CPU    261.09s WALL (    3103 calls)
     s_psi        :     21.43s CPU     11.33s WALL (    3103 calls)
     g_psi        :      7.42s CPU      3.92s WALL (    2399 calls)

     Called by h_psi:
     h_psi:calbec :     50.62s CPU     26.25s WALL (    3103 calls)
     vloc_psi     :    410.78s CPU    219.73s WALL (    3103 calls)
     add_vuspsi   :     17.32s CPU      8.99s WALL (    3103 calls)

     General routines
     calbec       :     80.56s CPU     42.41s WALL (    4063 calls)
     fft          :      0.58s CPU      0.44s WALL (     154 calls)
     ffts         :      0.76s CPU      0.45s WALL (      20 calls)
     fftw         :    449.49s CPU    240.31s WALL (  373408 calls)
     interpolate  :      0.16s CPU      0.14s WALL (      10 calls)

     Parallel routines

     PAW routines
     PAW_pot      :      1.37s CPU      0.83s WALL (      10 calls)
     PAW_symme    :      0.11s CPU      0.06s WALL (      20 calls)

     PWSCF        :  16m19.92s CPU   8m40.48s WALL


   This run was terminated on:   3:15:35   3Jul2025            

=------------------------------------------------------------------------------=
   JOB DONE.
=------------------------------------------------------------------------------=
