
     Program PWSCF v.7.0 starts on  3Jul2025 at  6:14:18 

     This program is part of the open-source Quantum ESPRESSO suite
     for quantum simulation of materials; please cite
         "P. Giannozzi et al., J. Phys.:Condens. Matter 21 395502 (2009);
         "P. Giannozzi et al., J. Phys.:Condens. Matter 29 465901 (2017);
         "P. Giannozzi et al., J. Chem. Phys. 152 154105 (2020);
          URL http://www.quantum-espresso.org", 
     in publications or presentations arising from this work. More details at
     http://www.quantum-espresso.org/quote

     Parallel version (MPI & OpenMP), running on      16 processor cores
     Number of MPI processes:                 8
     Threads/MPI process:                     2

     MPI processes distributed on     1 nodes
     R & G space division:  proc/nbgrp/npool/nimage =       8
     1396 MiB available memory on the printing compute node when the environment starts

     Waiting for input...
     Reading input from standard input

     Current dimensions of program PWSCF are:
     Max number of different atomic species (ntypx) = 10
     Max number of k-points (npk) =  40000
     Max angular momentum in pseudopotentials (lmaxx) =  4

     Atomic positions and unit cell read from directory:
     ./bulk/sns.save/
     Atomic positions from file used, from input discarded

     file Sn.pbe-dn-kjpaw_psl.1.0.0.UPF: wavefunction(s)  5S 5P 4D renormalized
     file S.pbe-n-kjpaw_psl.1.0.0.UPF: wavefunction(s)  3S 3P renormalized

     IMPORTANT: XC functional enforced from input :
     Exchange-correlation= PBE
                           (   1   4   3   4   0   0   0)
     Any further DFT definition will be discarded
     Please, verify this is what you really want

     Message from routine setup:
     using ibrav=0 with symmetry is DISCOURAGED, use correct ibrav instead

     Subspace diagonalization in iterative solution of the eigenvalue problem:
     one sub-group per band group will be used
     scalapack distributed-memory algorithm (size of sub-group:  2*  2 procs)


     Parallelization info
     --------------------
     sticks:   dense  smooth     PW     G-vecs:    dense   smooth      PW
     Min         255     126     36                23291     8218    1294
     Max         256     127     37                23296     8227    1299
     Sum        2045    1015    295               186345    65775   10383

     Using Slab Decomposition



     bravais-lattice index     =            0
     lattice parameter (alat)  =       7.4774  a.u.
     unit-cell volume          =    1378.8436 (a.u.)^3
     number of atoms/cell      =            8
     number of atomic types    =            2
     number of electrons       =        80.00
     number of Kohn-Sham states=          100
     kinetic-energy cutoff     =      50.0000  Ry
     charge density cutoff     =     400.0000  Ry
     Exchange-correlation= PBE
                           (   1   4   3   4   0   0   0)

     celldm(1)=   7.477373  celldm(2)=   0.000000  celldm(3)=   0.000000
     celldm(4)=   0.000000  celldm(5)=   0.000000  celldm(6)=   0.000000

     crystal axes: (cart. coord. in units of alat)
               a(1) = (   1.000000   0.000000   0.000000 )  
               a(2) = (   0.000000   1.145559   0.000000 )  
               a(3) = (   0.000000   0.000000   2.879059 )  

     reciprocal axes: (cart. coord. in units 2 pi/alat)
               b(1) = (  1.000000  0.000000  0.000000 )  
               b(2) = (  0.000000  0.872936  0.000000 )  
               b(3) = (  0.000000  0.000000  0.347336 )  


     PseudoPot. # 1 for Sn read from file:
     ./Sn.pbe-dn-kjpaw_psl.1.0.0.UPF
     MD5 check sum: 2f92149585f6306fdaeeb1c6304ac66c
     Pseudo is Projector augmented-wave + core cor, Zval = 14.0
     Generated using &quot;atomic&quot; code by A. Dal Corso  v.6.3
     Shape of augmentation charge: PSQ
     Using radial grid of 1243 points,  6 beta functions with: 
                l(1) =   0
                l(2) =   0
                l(3) =   1
                l(4) =   1
                l(5) =   2
                l(6) =   2
     Q(r) pseudized with 0 coefficients 


     PseudoPot. # 2 for S  read from file:
     ./S.pbe-n-kjpaw_psl.1.0.0.UPF
     MD5 check sum: 3ec093b2a8bef16a6eea98fa2dbb72c3
     Pseudo is Projector augmented-wave + core cor, Zval =  6.0
     Generated using &quot;atomic&quot; code by A. Dal Corso  v.6.3
     Shape of augmentation charge: PSQ
     Using radial grid of 1151 points,  6 beta functions with: 
                l(1) =   0
                l(2) =   0
                l(3) =   1
                l(4) =   1
                l(5) =   2
                l(6) =   2
     Q(r) pseudized with 0 coefficients 


     atomic species   valence    mass     pseudopotential
        Sn            14.00   118.71000     Sn( 1.00)
        S              6.00    32.06500     S ( 1.00)

      8 Sym. Ops., with inversion, found ( 6 have fractional translation)


                                    s                        frac. trans.

      isym =  1     identity                                     

 cryst.   s( 1) = (     1          0          0      )
                  (     0          1          0      )
                  (     0          0          1      )

 cart.    s( 1) = (  1.0000000  0.0000000  0.0000000 )
                  (  0.0000000  1.0000000  0.0000000 )
                  (  0.0000000  0.0000000  1.0000000 )


      isym =  2     180 deg rotation - cart. axis [0,0,1]        

 cryst.   s( 2) = (    -1          0          0      )    f =(  0.5000000 )
                  (     0         -1          0      )       (  0.5000000 )
                  (     0          0          1      )       (  0.5000000 )

 cart.    s( 2) = ( -1.0000000  0.0000000  0.0000000 )    f =(  0.5000000 )
                  (  0.0000000 -1.0000000  0.0000000 )       (  0.5727794 )
                  (  0.0000000  0.0000000  1.0000000 )       (  1.4395294 )


      isym =  3     180 deg rotation - cart. axis [0,1,0]        

 cryst.   s( 3) = (    -1          0          0      )    f =(  0.0000000 )
                  (     0          1          0      )       (  0.5000000 )
                  (     0          0         -1      )       (  0.5000000 )

 cart.    s( 3) = ( -1.0000000  0.0000000  0.0000000 )    f =(  0.0000000 )
                  (  0.0000000  1.0000000  0.0000000 )       (  0.5727794 )
                  (  0.0000000  0.0000000 -1.0000000 )       (  1.4395294 )


      isym =  4     180 deg rotation - cart. axis [1,0,0]        

 cryst.   s( 4) = (     1          0          0      )    f =( -0.5000000 )
                  (     0         -1          0      )       ( -0.0000000 )
                  (     0          0         -1      )       (  0.0000000 )

 cart.    s( 4) = (  1.0000000  0.0000000  0.0000000 )    f =( -0.5000000 )
                  (  0.0000000 -1.0000000  0.0000000 )       ( -0.0000000 )
                  (  0.0000000  0.0000000 -1.0000000 )       (  0.0000000 )


      isym =  5     inversion                                    

 cryst.   s( 5) = (    -1          0          0      )
                  (     0         -1          0      )
                  (     0          0         -1      )

 cart.    s( 5) = ( -1.0000000  0.0000000  0.0000000 )
                  (  0.0000000 -1.0000000  0.0000000 )
                  (  0.0000000  0.0000000 -1.0000000 )


      isym =  6     inv. 180 deg rotation - cart. axis [0,0,1]   

 cryst.   s( 6) = (     1          0          0      )    f =( -0.5000000 )
                  (     0          1          0      )       (  0.5000000 )
                  (     0          0         -1      )       (  0.5000000 )

 cart.    s( 6) = (  1.0000000  0.0000000  0.0000000 )    f =( -0.5000000 )
                  (  0.0000000  1.0000000  0.0000000 )       (  0.5727794 )
                  (  0.0000000  0.0000000 -1.0000000 )       (  1.4395294 )


      isym =  7     inv. 180 deg rotation - cart. axis [0,1,0]   

 cryst.   s( 7) = (     1          0          0      )    f =(  0.0000000 )
                  (     0         -1          0      )       (  0.5000000 )
                  (     0          0          1      )       (  0.5000000 )

 cart.    s( 7) = (  1.0000000  0.0000000  0.0000000 )    f =(  0.0000000 )
                  (  0.0000000 -1.0000000  0.0000000 )       (  0.5727794 )
                  (  0.0000000  0.0000000  1.0000000 )       (  1.4395294 )


      isym =  8     inv. 180 deg rotation - cart. axis [1,0,0]   

 cryst.   s( 8) = (    -1          0          0      )    f =(  0.5000000 )
                  (     0          1          0      )       (  0.0000000 )
                  (     0          0          1      )       (  0.0000000 )

 cart.    s( 8) = ( -1.0000000  0.0000000  0.0000000 )    f =(  0.5000000 )
                  (  0.0000000  1.0000000  0.0000000 )       (  0.0000000 )
                  (  0.0000000  0.0000000  1.0000000 )       (  0.0000000 )


   Cartesian axes

     site n.     atom                  positions (alat units)
         1           Sn  tau(   1) = (   0.2500000   0.4233297   1.7897172  )
         2           Sn  tau(   2) = (   0.7500000   0.7222292   1.0893415  )
         3           Sn  tau(   3) = (   0.7500000   0.9961091   2.5288709  )
         4           Sn  tau(   4) = (   0.2500000   0.1494498   0.3501878  )
         5           S   tau(   5) = (   0.2500000   0.0121393   1.0004656  )
         6           S   tau(   6) = (   0.7500000   1.1334196   1.8785931  )
         7           S   tau(   7) = (   0.7500000   0.5849187   0.4390638  )
         8           S   tau(   8) = (   0.2500000   0.5606402   2.4399950  )

   Crystallographic axes

     site n.     atom                  positions (cryst. coord.)
         1           Sn  tau(   1) = (  0.2500000  0.3695398  0.6216328  )
         2           Sn  tau(   2) = (  0.7500000  0.6304602  0.3783673  )
         3           Sn  tau(   3) = (  0.7500000  0.8695398  0.8783673  )
         4           Sn  tau(   4) = (  0.2500000  0.1304602  0.1216328  )
         5           S   tau(   5) = (  0.2500000  0.0105968  0.3474975  )
         6           S   tau(   6) = (  0.7500000  0.9894032  0.6525025  )
         7           S   tau(   7) = (  0.7500000  0.5105968  0.1525025  )
         8           S   tau(   8) = (  0.2500000  0.4894032  0.8474975  )

     number of k points=   101
                       cart. coord. in units 2pi/alat
        k(    1) = (   0.0000000   0.0000000   0.0000000), wk =   0.0198020
        k(    2) = (   0.0250000   0.0000000   0.0000000), wk =   0.0198020
        k(    3) = (   0.0500000   0.0000000   0.0000000), wk =   0.0198020
        k(    4) = (   0.0750000   0.0000000   0.0000000), wk =   0.0198020
        k(    5) = (   0.1000000   0.0000000   0.0000000), wk =   0.0198020
        k(    6) = (   0.1250000   0.0000000   0.0000000), wk =   0.0198020
        k(    7) = (   0.1500000   0.0000000   0.0000000), wk =   0.0198020
        k(    8) = (   0.1750000   0.0000000   0.0000000), wk =   0.0198020
        k(    9) = (   0.2000000   0.0000000   0.0000000), wk =   0.0198020
        k(   10) = (   0.2250000   0.0000000   0.0000000), wk =   0.0198020
        k(   11) = (   0.2500000   0.0000000   0.0000000), wk =   0.0198020
        k(   12) = (   0.2750000   0.0000000   0.0000000), wk =   0.0198020
        k(   13) = (   0.3000000   0.0000000   0.0000000), wk =   0.0198020
        k(   14) = (   0.3250000   0.0000000   0.0000000), wk =   0.0198020
        k(   15) = (   0.3500000   0.0000000   0.0000000), wk =   0.0198020
        k(   16) = (   0.3750000   0.0000000   0.0000000), wk =   0.0198020
        k(   17) = (   0.4000000   0.0000000   0.0000000), wk =   0.0198020
        k(   18) = (   0.4250000   0.0000000   0.0000000), wk =   0.0198020
        k(   19) = (   0.4500000   0.0000000   0.0000000), wk =   0.0198020
        k(   20) = (   0.4750000   0.0000000   0.0000000), wk =   0.0198020
        k(   21) = (   0.5000000   0.0000000   0.0000000), wk =   0.0198020
        k(   22) = (   0.5000000   0.0218234   0.0000000), wk =   0.0198020
        k(   23) = (   0.5000000   0.0436468   0.0000000), wk =   0.0198020
        k(   24) = (   0.5000000   0.0654702   0.0000000), wk =   0.0198020
        k(   25) = (   0.5000000   0.0872936   0.0000000), wk =   0.0198020
        k(   26) = (   0.5000000   0.1091170   0.0000000), wk =   0.0198020
        k(   27) = (   0.5000000   0.1309405   0.0000000), wk =   0.0198020
        k(   28) = (   0.5000000   0.1527639   0.0000000), wk =   0.0198020
        k(   29) = (   0.5000000   0.1745873   0.0000000), wk =   0.0198020
        k(   30) = (   0.5000000   0.1964107   0.0000000), wk =   0.0198020
        k(   31) = (   0.5000000   0.2182341   0.0000000), wk =   0.0198020
        k(   32) = (   0.5000000   0.2400575   0.0000000), wk =   0.0198020
        k(   33) = (   0.5000000   0.2618809   0.0000000), wk =   0.0198020
        k(   34) = (   0.5000000   0.2837043   0.0000000), wk =   0.0198020
        k(   35) = (   0.5000000   0.3055277   0.0000000), wk =   0.0198020
        k(   36) = (   0.5000000   0.3273511   0.0000000), wk =   0.0198020
        k(   37) = (   0.5000000   0.3491745   0.0000000), wk =   0.0198020
        k(   38) = (   0.5000000   0.3709979   0.0000000), wk =   0.0198020
        k(   39) = (   0.5000000   0.3928214   0.0000000), wk =   0.0198020
        k(   40) = (   0.5000000   0.4146448   0.0000000), wk =   0.0198020
        k(   41) = (   0.5000000   0.4364682   0.0000000), wk =   0.0198020
        k(   42) = (   0.5000000   0.4364682   0.0086834), wk =   0.0198020
        k(   43) = (   0.5000000   0.4364682   0.0173668), wk =   0.0198020
        k(   44) = (   0.5000000   0.4364682   0.0260502), wk =   0.0198020
        k(   45) = (   0.5000000   0.4364682   0.0347336), wk =   0.0198020
        k(   46) = (   0.5000000   0.4364682   0.0434170), wk =   0.0198020
        k(   47) = (   0.5000000   0.4364682   0.0521004), wk =   0.0198020
        k(   48) = (   0.5000000   0.4364682   0.0607838), wk =   0.0198020
        k(   49) = (   0.5000000   0.4364682   0.0694671), wk =   0.0198020
        k(   50) = (   0.5000000   0.4364682   0.0781505), wk =   0.0198020
        k(   51) = (   0.5000000   0.4364682   0.0868339), wk =   0.0198020
        k(   52) = (   0.5000000   0.4364682   0.0955173), wk =   0.0198020
        k(   53) = (   0.5000000   0.4364682   0.1042007), wk =   0.0198020
        k(   54) = (   0.5000000   0.4364682   0.1128841), wk =   0.0198020
        k(   55) = (   0.5000000   0.4364682   0.1215675), wk =   0.0198020
        k(   56) = (   0.5000000   0.4364682   0.1302509), wk =   0.0198020
        k(   57) = (   0.5000000   0.4364682   0.1389343), wk =   0.0198020
        k(   58) = (   0.5000000   0.4364682   0.1476177), wk =   0.0198020
        k(   59) = (   0.5000000   0.4364682   0.1563011), wk =   0.0198020
        k(   60) = (   0.5000000   0.4364682   0.1649845), wk =   0.0198020
        k(   61) = (   0.5000000   0.4364682   0.1736679), wk =   0.0198020
        k(   62) = (   0.4750000   0.4146448   0.1736679), wk =   0.0198020
        k(   63) = (   0.4500000   0.3928214   0.1736679), wk =   0.0198020
        k(   64) = (   0.4250000   0.3709979   0.1736679), wk =   0.0198020
        k(   65) = (   0.4000000   0.3491745   0.1736679), wk =   0.0198020
        k(   66) = (   0.3750000   0.3273511   0.1736679), wk =   0.0198020
        k(   67) = (   0.3500000   0.3055277   0.1736679), wk =   0.0198020
        k(   68) = (   0.3250000   0.2837043   0.1736679), wk =   0.0198020
        k(   69) = (   0.3000000   0.2618809   0.1736679), wk =   0.0198020
        k(   70) = (   0.2750000   0.2400575   0.1736679), wk =   0.0198020
        k(   71) = (   0.2500000   0.2182341   0.1736679), wk =   0.0198020
        k(   72) = (   0.2250000   0.1964107   0.1736679), wk =   0.0198020
        k(   73) = (   0.2000000   0.1745873   0.1736679), wk =   0.0198020
        k(   74) = (   0.1750000   0.1527639   0.1736679), wk =   0.0198020
        k(   75) = (   0.1500000   0.1309405   0.1736679), wk =   0.0198020
        k(   76) = (   0.1250000   0.1091170   0.1736679), wk =   0.0198020
        k(   77) = (   0.1000000   0.0872936   0.1736679), wk =   0.0198020
        k(   78) = (   0.0750000   0.0654702   0.1736679), wk =   0.0198020
        k(   79) = (   0.0500000   0.0436468   0.1736679), wk =   0.0198020
        k(   80) = (   0.0250000   0.0218234   0.1736679), wk =   0.0198020
        k(   81) = (   0.0000000   0.0000000   0.1736679), wk =   0.0198020
        k(   82) = (   0.0000000   0.0000000   0.1649845), wk =   0.0198020
        k(   83) = (   0.0000000   0.0000000   0.1563011), wk =   0.0198020
        k(   84) = (   0.0000000   0.0000000   0.1476177), wk =   0.0198020
        k(   85) = (   0.0000000   0.0000000   0.1389343), wk =   0.0198020
        k(   86) = (   0.0000000   0.0000000   0.1302509), wk =   0.0198020
        k(   87) = (   0.0000000   0.0000000   0.1215675), wk =   0.0198020
        k(   88) = (   0.0000000   0.0000000   0.1128841), wk =   0.0198020
        k(   89) = (   0.0000000   0.0000000   0.1042007), wk =   0.0198020
        k(   90) = (   0.0000000   0.0000000   0.0955173), wk =   0.0198020
        k(   91) = (   0.0000000   0.0000000   0.0868339), wk =   0.0198020
        k(   92) = (   0.0000000   0.0000000   0.0781505), wk =   0.0198020
        k(   93) = (   0.0000000   0.0000000   0.0694671), wk =   0.0198020
        k(   94) = (   0.0000000   0.0000000   0.0607838), wk =   0.0198020
        k(   95) = (   0.0000000   0.0000000   0.0521004), wk =   0.0198020
        k(   96) = (   0.0000000   0.0000000   0.0434170), wk =   0.0198020
        k(   97) = (   0.0000000   0.0000000   0.0347336), wk =   0.0198020
        k(   98) = (   0.0000000   0.0000000   0.0260502), wk =   0.0198020
        k(   99) = (   0.0000000   0.0000000   0.0173668), wk =   0.0198020
        k(  100) = (   0.0000000   0.0000000   0.0086834), wk =   0.0198020
        k(  101) = (   0.0000000   0.0000000   0.0000000), wk =   0.0198020

                       cryst. coord.
        k(    1) = (   0.0000000   0.0000000   0.0000000), wk =   0.0198020
        k(    2) = (   0.0250000   0.0000000   0.0000000), wk =   0.0198020
        k(    3) = (   0.0500000   0.0000000   0.0000000), wk =   0.0198020
        k(    4) = (   0.0750000   0.0000000   0.0000000), wk =   0.0198020
        k(    5) = (   0.1000000   0.0000000   0.0000000), wk =   0.0198020
        k(    6) = (   0.1250000   0.0000000   0.0000000), wk =   0.0198020
        k(    7) = (   0.1500000   0.0000000   0.0000000), wk =   0.0198020
        k(    8) = (   0.1750000   0.0000000   0.0000000), wk =   0.0198020
        k(    9) = (   0.2000000   0.0000000   0.0000000), wk =   0.0198020
        k(   10) = (   0.2250000   0.0000000   0.0000000), wk =   0.0198020
        k(   11) = (   0.2500000   0.0000000   0.0000000), wk =   0.0198020
        k(   12) = (   0.2750000   0.0000000   0.0000000), wk =   0.0198020
        k(   13) = (   0.3000000   0.0000000   0.0000000), wk =   0.0198020
        k(   14) = (   0.3250000   0.0000000   0.0000000), wk =   0.0198020
        k(   15) = (   0.3500000   0.0000000   0.0000000), wk =   0.0198020
        k(   16) = (   0.3750000   0.0000000   0.0000000), wk =   0.0198020
        k(   17) = (   0.4000000   0.0000000   0.0000000), wk =   0.0198020
        k(   18) = (   0.4250000   0.0000000   0.0000000), wk =   0.0198020
        k(   19) = (   0.4500000   0.0000000   0.0000000), wk =   0.0198020
        k(   20) = (   0.4750000   0.0000000   0.0000000), wk =   0.0198020
        k(   21) = (   0.5000000   0.0000000   0.0000000), wk =   0.0198020
        k(   22) = (   0.5000000   0.0250000   0.0000000), wk =   0.0198020
        k(   23) = (   0.5000000   0.0500000   0.0000000), wk =   0.0198020
        k(   24) = (   0.5000000   0.0750000   0.0000000), wk =   0.0198020
        k(   25) = (   0.5000000   0.1000000   0.0000000), wk =   0.0198020
        k(   26) = (   0.5000000   0.1250000   0.0000000), wk =   0.0198020
        k(   27) = (   0.5000000   0.1500000   0.0000000), wk =   0.0198020
        k(   28) = (   0.5000000   0.1750000   0.0000000), wk =   0.0198020
        k(   29) = (   0.5000000   0.2000000   0.0000000), wk =   0.0198020
        k(   30) = (   0.5000000   0.2250000   0.0000000), wk =   0.0198020
        k(   31) = (   0.5000000   0.2500000   0.0000000), wk =   0.0198020
        k(   32) = (   0.5000000   0.2750000   0.0000000), wk =   0.0198020
        k(   33) = (   0.5000000   0.3000000   0.0000000), wk =   0.0198020
        k(   34) = (   0.5000000   0.3250000   0.0000000), wk =   0.0198020
        k(   35) = (   0.5000000   0.3500000   0.0000000), wk =   0.0198020
        k(   36) = (   0.5000000   0.3750000   0.0000000), wk =   0.0198020
        k(   37) = (   0.5000000   0.4000000   0.0000000), wk =   0.0198020
        k(   38) = (   0.5000000   0.4250000   0.0000000), wk =   0.0198020
        k(   39) = (   0.5000000   0.4500000   0.0000000), wk =   0.0198020
        k(   40) = (   0.5000000   0.4750000   0.0000000), wk =   0.0198020
        k(   41) = (   0.5000000   0.5000000   0.0000000), wk =   0.0198020
        k(   42) = (   0.5000000   0.5000000   0.0250000), wk =   0.0198020
        k(   43) = (   0.5000000   0.5000000   0.0500000), wk =   0.0198020
        k(   44) = (   0.5000000   0.5000000   0.0750000), wk =   0.0198020
        k(   45) = (   0.5000000   0.5000000   0.1000000), wk =   0.0198020
        k(   46) = (   0.5000000   0.5000000   0.1250000), wk =   0.0198020
        k(   47) = (   0.5000000   0.5000000   0.1500000), wk =   0.0198020
        k(   48) = (   0.5000000   0.5000000   0.1750000), wk =   0.0198020
        k(   49) = (   0.5000000   0.5000000   0.2000000), wk =   0.0198020
        k(   50) = (   0.5000000   0.5000000   0.2250000), wk =   0.0198020
        k(   51) = (   0.5000000   0.5000000   0.2500000), wk =   0.0198020
        k(   52) = (   0.5000000   0.5000000   0.2750000), wk =   0.0198020
        k(   53) = (   0.5000000   0.5000000   0.3000000), wk =   0.0198020
        k(   54) = (   0.5000000   0.5000000   0.3250000), wk =   0.0198020
        k(   55) = (   0.5000000   0.5000000   0.3500000), wk =   0.0198020
        k(   56) = (   0.5000000   0.5000000   0.3750000), wk =   0.0198020
        k(   57) = (   0.5000000   0.5000000   0.4000000), wk =   0.0198020
        k(   58) = (   0.5000000   0.5000000   0.4250000), wk =   0.0198020
        k(   59) = (   0.5000000   0.5000000   0.4500000), wk =   0.0198020
        k(   60) = (   0.5000000   0.5000000   0.4750000), wk =   0.0198020
        k(   61) = (   0.5000000   0.5000000   0.5000000), wk =   0.0198020
        k(   62) = (   0.4750000   0.4750000   0.5000000), wk =   0.0198020
        k(   63) = (   0.4500000   0.4500000   0.5000000), wk =   0.0198020
        k(   64) = (   0.4250000   0.4250000   0.5000000), wk =   0.0198020
        k(   65) = (   0.4000000   0.4000000   0.5000000), wk =   0.0198020
        k(   66) = (   0.3750000   0.3750000   0.5000000), wk =   0.0198020
        k(   67) = (   0.3500000   0.3500000   0.5000000), wk =   0.0198020
        k(   68) = (   0.3250000   0.3250000   0.5000000), wk =   0.0198020
        k(   69) = (   0.3000000   0.3000000   0.5000000), wk =   0.0198020
        k(   70) = (   0.2750000   0.2750000   0.5000000), wk =   0.0198020
        k(   71) = (   0.2500000   0.2500000   0.5000000), wk =   0.0198020
        k(   72) = (   0.2250000   0.2250000   0.5000000), wk =   0.0198020
        k(   73) = (   0.2000000   0.2000000   0.5000000), wk =   0.0198020
        k(   74) = (   0.1750000   0.1750000   0.5000000), wk =   0.0198020
        k(   75) = (   0.1500000   0.1500000   0.5000000), wk =   0.0198020
        k(   76) = (   0.1250000   0.1250000   0.5000000), wk =   0.0198020
        k(   77) = (   0.1000000   0.1000000   0.5000000), wk =   0.0198020
        k(   78) = (   0.0750000   0.0750000   0.5000000), wk =   0.0198020
        k(   79) = (   0.0500000   0.0500000   0.5000000), wk =   0.0198020
        k(   80) = (   0.0250000   0.0250000   0.5000000), wk =   0.0198020
        k(   81) = (   0.0000000   0.0000000   0.5000000), wk =   0.0198020
        k(   82) = (   0.0000000   0.0000000   0.4750000), wk =   0.0198020
        k(   83) = (   0.0000000   0.0000000   0.4500000), wk =   0.0198020
        k(   84) = (   0.0000000   0.0000000   0.4250000), wk =   0.0198020
        k(   85) = (   0.0000000   0.0000000   0.4000000), wk =   0.0198020
        k(   86) = (   0.0000000   0.0000000   0.3750000), wk =   0.0198020
        k(   87) = (   0.0000000   0.0000000   0.3500000), wk =   0.0198020
        k(   88) = (   0.0000000   0.0000000   0.3250000), wk =   0.0198020
        k(   89) = (   0.0000000   0.0000000   0.3000000), wk =   0.0198020
        k(   90) = (   0.0000000   0.0000000   0.2750000), wk =   0.0198020
        k(   91) = (   0.0000000   0.0000000   0.2500000), wk =   0.0198020
        k(   92) = (   0.0000000   0.0000000   0.2250000), wk =   0.0198020
        k(   93) = (   0.0000000   0.0000000   0.2000000), wk =   0.0198020
        k(   94) = (   0.0000000   0.0000000   0.1750000), wk =   0.0198020
        k(   95) = (   0.0000000   0.0000000   0.1500000), wk =   0.0198020
        k(   96) = (   0.0000000   0.0000000   0.1250000), wk =   0.0198020
        k(   97) = (   0.0000000   0.0000000   0.1000000), wk =   0.0198020
        k(   98) = (   0.0000000   0.0000000   0.0750000), wk =   0.0198020
        k(   99) = (   0.0000000   0.0000000   0.0500000), wk =   0.0198020
        k(  100) = (   0.0000000   0.0000000   0.0250000), wk =   0.0198020
        k(  101) = (   0.0000000   0.0000000   0.0000000), wk =   0.0198020

     Dense  grid:   186345 G-vectors     FFT dimensions: (  48,  60, 144)

     Smooth grid:    65775 G-vectors     FFT dimensions: (  36,  40, 100)

     Dynamical RAM for                 wfc:       1.57 MB

     Dynamical RAM for     wfc (w. buffer):       1.57 MB

     Dynamical RAM for           str. fact:       0.71 MB

     Dynamical RAM for           local pot:       0.00 MB

     Dynamical RAM for          nlocal pot:       2.26 MB

     Dynamical RAM for                qrad:       3.21 MB

     Dynamical RAM for          rho,v,vnew:       2.25 MB

     Dynamical RAM for           G-vectors:       1.40 MB

     Dynamical RAM for          h,s,v(r/c):       0.46 MB

     Dynamical RAM for          <psi|beta>:       0.22 MB

     Dynamical RAM for                 psi:       3.14 MB

     Dynamical RAM for                hpsi:       3.14 MB

     Dynamical RAM for                spsi:       3.14 MB

     Dynamical RAM for      wfcinit/wfcrot:       3.37 MB

     Dynamical RAM for           addusdens:      67.53 MB

     Estimated static dynamical RAM per process >      14.44 MB

     Estimated max dynamical RAM per process >      81.98 MB

     Estimated total dynamical RAM >     655.80 MB

     The potential is recalculated from file :
     ./bulk/sns.save/charge-density

     Starting wfcs are   52 randomized atomic wfcs +   48 random wfcs
     Checking if some PAW data can be deallocated... 
       PAW data deallocated on    4 nodes for type:  1
       PAW data deallocated on    4 nodes for type:  2

     Band Structure Calculation
     Davidson diagonalization with overlap

     Computing kpt #:     1  of   101
     total cpu time spent up to now is       11.7 secs

     Computing kpt #:     2  of   101
     total cpu time spent up to now is       26.4 secs

     Computing kpt #:     3  of   101
     total cpu time spent up to now is       37.0 secs

     Computing kpt #:     4  of   101
     total cpu time spent up to now is       45.0 secs

     Computing kpt #:     5  of   101
     total cpu time spent up to now is       53.8 secs

     Computing kpt #:     6  of   101
     total cpu time spent up to now is       60.9 secs

     Computing kpt #:     7  of   101
     total cpu time spent up to now is       69.2 secs

     Computing kpt #:     8  of   101
     c_bands:  1 eigenvalues not converged
     total cpu time spent up to now is       90.7 secs

     Computing kpt #:     9  of   101
     total cpu time spent up to now is      126.5 secs

     Computing kpt #:    10  of   101
     total cpu time spent up to now is      135.3 secs

     Computing kpt #:    11  of   101
     total cpu time spent up to now is      146.0 secs

     Computing kpt #:    12  of   101
     total cpu time spent up to now is      167.5 secs

     Computing kpt #:    13  of   101
     total cpu time spent up to now is      177.0 secs

     Computing kpt #:    14  of   101
     total cpu time spent up to now is      200.0 secs

     Computing kpt #:    15  of   101
     total cpu time spent up to now is      210.4 secs

     Computing kpt #:    16  of   101
     total cpu time spent up to now is      218.7 secs

     Computing kpt #:    17  of   101
     total cpu time spent up to now is      230.7 secs

     Computing kpt #:    18  of   101
     total cpu time spent up to now is      242.3 secs

     Computing kpt #:    19  of   101
     total cpu time spent up to now is      252.3 secs

     Computing kpt #:    20  of   101
     total cpu time spent up to now is      262.9 secs

     Computing kpt #:    21  of   101
     total cpu time spent up to now is      277.6 secs

     Computing kpt #:    22  of   101
     total cpu time spent up to now is      286.3 secs

     Computing kpt #:    23  of   101
     total cpu time spent up to now is      294.9 secs

     Computing kpt #:    24  of   101
     total cpu time spent up to now is      303.6 secs

     Computing kpt #:    25  of   101
     total cpu time spent up to now is      314.7 secs

     Computing kpt #:    26  of   101
     total cpu time spent up to now is      325.5 secs

     Computing kpt #:    27  of   101
     total cpu time spent up to now is      335.3 secs

     Computing kpt #:    28  of   101
     total cpu time spent up to now is      347.4 secs

     Computing kpt #:    29  of   101
     total cpu time spent up to now is      364.0 secs

     Computing kpt #:    30  of   101
     total cpu time spent up to now is      375.4 secs

     Computing kpt #:    31  of   101
     total cpu time spent up to now is      385.4 secs

     Computing kpt #:    32  of   101
     total cpu time spent up to now is      394.7 secs

     Computing kpt #:    33  of   101
     total cpu time spent up to now is      403.4 secs

     Computing kpt #:    34  of   101
     total cpu time spent up to now is      411.8 secs

     Computing kpt #:    35  of   101
     total cpu time spent up to now is      420.1 secs

     Computing kpt #:    36  of   101
     total cpu time spent up to now is      427.6 secs

     Computing kpt #:    37  of   101
     total cpu time spent up to now is      436.7 secs

     Computing kpt #:    38  of   101
     total cpu time spent up to now is      451.5 secs

     Computing kpt #:    39  of   101
     total cpu time spent up to now is      499.8 secs

     Computing kpt #:    40  of   101
     total cpu time spent up to now is      593.1 secs

     Computing kpt #:    41  of   101
     total cpu time spent up to now is      606.2 secs

     Computing kpt #:    42  of   101
     total cpu time spent up to now is      639.4 secs

     Computing kpt #:    43  of   101
     total cpu time spent up to now is      647.5 secs

     Computing kpt #:    44  of   101
     total cpu time spent up to now is      653.7 secs

     Computing kpt #:    45  of   101
     total cpu time spent up to now is      659.7 secs

     Computing kpt #:    46  of   101
     total cpu time spent up to now is      666.1 secs

     Computing kpt #:    47  of   101
     total cpu time spent up to now is      672.4 secs

     Computing kpt #:    48  of   101
     total cpu time spent up to now is      715.7 secs

     Computing kpt #:    49  of   101
     total cpu time spent up to now is      723.2 secs

     Computing kpt #:    50  of   101
     total cpu time spent up to now is      731.1 secs

     Computing kpt #:    51  of   101
     total cpu time spent up to now is      739.4 secs

     Computing kpt #:    52  of   101
     total cpu time spent up to now is      747.6 secs

     Computing kpt #:    53  of   101
     total cpu time spent up to now is      755.8 secs

     Computing kpt #:    54  of   101
     total cpu time spent up to now is      763.6 secs

     Computing kpt #:    55  of   101
     total cpu time spent up to now is      771.3 secs

     Computing kpt #:    56  of   101
     total cpu time spent up to now is      779.3 secs

     Computing kpt #:    57  of   101
     total cpu time spent up to now is      787.0 secs

     Computing kpt #:    58  of   101
     total cpu time spent up to now is      795.1 secs

     Computing kpt #:    59  of   101
     total cpu time spent up to now is      805.1 secs

     Computing kpt #:    60  of   101
     total cpu time spent up to now is      819.5 secs

     Computing kpt #:    61  of   101
     total cpu time spent up to now is      827.6 secs

     Computing kpt #:    62  of   101
     total cpu time spent up to now is      836.1 secs

     Computing kpt #:    63  of   101
     total cpu time spent up to now is      843.8 secs

     Computing kpt #:    64  of   101
     total cpu time spent up to now is      851.4 secs

     Computing kpt #:    65  of   101
     total cpu time spent up to now is      859.7 secs

     Computing kpt #:    66  of   101
     total cpu time spent up to now is      867.8 secs

     Computing kpt #:    67  of   101
     total cpu time spent up to now is      875.6 secs

     Computing kpt #:    68  of   101
     total cpu time spent up to now is      882.9 secs

     Computing kpt #:    69  of   101
     total cpu time spent up to now is      889.8 secs

     Computing kpt #:    70  of   101
     total cpu time spent up to now is      897.0 secs

     Computing kpt #:    71  of   101
     total cpu time spent up to now is      906.0 secs

     Computing kpt #:    72  of   101
     total cpu time spent up to now is      921.3 secs

     Computing kpt #:    73  of   101
     total cpu time spent up to now is      928.9 secs

     Computing kpt #:    74  of   101
     total cpu time spent up to now is      935.6 secs

     Computing kpt #:    75  of   101
     total cpu time spent up to now is      943.1 secs

     Computing kpt #:    76  of   101
     total cpu time spent up to now is      951.7 secs

     Computing kpt #:    77  of   101
     total cpu time spent up to now is      960.9 secs

     Computing kpt #:    78  of   101
     total cpu time spent up to now is      970.3 secs

     Computing kpt #:    79  of   101
     total cpu time spent up to now is      978.0 secs

     Computing kpt #:    80  of   101
     total cpu time spent up to now is      985.3 secs

     Computing kpt #:    81  of   101
     total cpu time spent up to now is      993.7 secs

     Computing kpt #:    82  of   101
     total cpu time spent up to now is     1004.6 secs

     Computing kpt #:    83  of   101
     total cpu time spent up to now is     1019.6 secs

     Computing kpt #:    84  of   101
     total cpu time spent up to now is     1034.0 secs

     Computing kpt #:    85  of   101
     total cpu time spent up to now is     1050.5 secs

     Computing kpt #:    86  of   101
     total cpu time spent up to now is     1069.6 secs

     Computing kpt #:    87  of   101
     c_bands:  1 eigenvalues not converged
     total cpu time spent up to now is     1085.2 secs

     Computing kpt #:    88  of   101
     c_bands:  1 eigenvalues not converged
     total cpu time spent up to now is     1097.6 secs

     Computing kpt #:    89  of   101
     total cpu time spent up to now is     1106.0 secs

     Computing kpt #:    90  of   101
     total cpu time spent up to now is     1113.5 secs

     Computing kpt #:    91  of   101
     total cpu time spent up to now is     1122.7 secs

     Computing kpt #:    92  of   101
     total cpu time spent up to now is     1131.8 secs

     Computing kpt #:    93  of   101
     total cpu time spent up to now is     1140.6 secs

     Computing kpt #:    94  of   101
     total cpu time spent up to now is     1148.1 secs

     Computing kpt #:    95  of   101
     total cpu time spent up to now is     1156.5 secs

     Computing kpt #:    96  of   101
     total cpu time spent up to now is     1163.5 secs

     Computing kpt #:    97  of   101
     total cpu time spent up to now is     1171.7 secs

     Computing kpt #:    98  of   101
     total cpu time spent up to now is     1179.4 secs

     Computing kpt #:    99  of   101
     total cpu time spent up to now is     1185.4 secs

     Computing kpt #:   100  of   101
     total cpu time spent up to now is     1192.6 secs

     Computing kpt #:   101  of   101
     total cpu time spent up to now is     1199.5 secs

     ethr =  1.25E-11,  avg # of iterations = 58.2

     total cpu time spent up to now is     1199.5 secs

     End of band structure calculation

          k = 0.0000 0.0000 0.0000 (  8239 PWs)   bands (ev):

   -13.6643 -13.6525 -13.6443 -13.6376 -13.6322 -13.6287 -13.6270 -13.6233
   -13.6130 -13.6123 -13.6045 -13.5964 -13.5945 -13.5934 -13.5756 -13.5710
   -13.5641 -13.5633 -13.5591 -13.5531  -6.0742  -5.8267  -4.8444  -4.4752
     0.3750   1.2313   2.2489   2.9508   2.9799   3.9809   4.2973   4.3454
     4.3544   4.6458   5.4209   5.5292   5.8020   6.5435   6.7598   7.2756
     8.7317  10.2936  10.4245  10.4691  10.7733  11.3291  11.3482  12.3834
    12.6291  13.0363  13.0515  13.6816  13.8413  14.4221  14.7731  15.0498
    15.1856  15.9277  16.0835  16.1960  16.3967  16.6294  16.6621  16.7784
    17.6273  17.7048  17.9401  18.3716  18.4835  18.9240  18.9909  19.3335
    20.1834  20.3621  20.6781  20.8694  21.8264  21.8824  22.7386  22.8245
    22.8862  24.0604  24.0952  24.4141  24.5284  24.5357  25.1088  25.1646
    25.3185  25.4569  25.8499  25.9435  26.7063  26.8057  26.8889  27.1591
    27.1829  27.3643  27.7117  27.9098

          k = 0.0250 0.0000 0.0000 (  8253 PWs)   bands (ev):

   -13.6642 -13.6523 -13.6441 -13.6375 -13.6323 -13.6288 -13.6271 -13.6234
   -13.6129 -13.6123 -13.6045 -13.5966 -13.5944 -13.5934 -13.5756 -13.5709
   -13.5642 -13.5633 -13.5591 -13.5531  -6.0703  -5.8231  -4.8424  -4.4744
     0.3716   1.2250   2.2488   2.9476   2.9613   3.9855   4.3006   4.3023
     4.3962   4.6384   5.4219   5.5309   5.7963   6.5554   6.7601   7.2740
     8.7369  10.3075  10.4431  10.4792  10.7478  11.3252  11.3357  12.3334
    12.5935  13.0665  13.0691  13.6876  13.8168  14.4152  14.7311  14.9913
    15.1527  15.9157  16.1010  16.2199  16.4134  16.6635  16.6920  16.8307
    17.6509  17.7371  17.9070  18.4096  18.5243  18.9240  18.9746  19.4314
    20.1416  20.1961  20.7214  21.0541  21.6106  22.0993  22.7680  22.7962
    22.8588  24.0026  24.1096  24.4107  24.4447  24.5704  25.1140  25.2457
    25.2926  25.4530  25.9408  25.9496  26.7023  26.8041  26.9205  27.1416
    27.2016  27.3074  27.7118  27.9038

          k = 0.0500 0.0000 0.0000 (  8257 PWs)   bands (ev):

   -13.6636 -13.6520 -13.6435 -13.6370 -13.6326 -13.6292 -13.6275 -13.6236
   -13.6127 -13.6121 -13.6046 -13.5970 -13.5941 -13.5934 -13.5757 -13.5707
   -13.5646 -13.5632 -13.5590 -13.5531  -6.0585  -5.8123  -4.8366  -4.4719
     0.3613   1.2063   2.2476   2.9064   2.9388   3.9991   4.2544   4.3105
     4.4409   4.6172   5.4253   5.5356   5.7802   6.5898   6.7610   7.2687
     8.7521  10.3473  10.4969  10.5066  10.6659  11.2705  11.3559  12.2088
    12.4934  13.1091  13.1328  13.7108  13.7481  14.3894  14.6114  14.8454
    15.0641  15.8976  16.1506  16.2888  16.4603  16.6681  16.8516  16.9455
    17.7214  17.8350  17.8458  18.5221  18.6402  18.8120  19.1072  19.6294
    19.9321  20.0261  20.8466  21.3764  21.3814  22.3286  22.7143  22.7733
    22.8560  23.8581  24.1527  24.3066  24.3651  24.6729  25.1298  25.1352
    25.4406  25.5661  25.9329  26.1529  26.6960  26.7993  27.0047  27.0061
    27.2308  27.3196  27.7124  27.8879

          k = 0.0750 0.0000 0.0000 (  8245 PWs)   bands (ev):

   -13.6626 -13.6513 -13.6426 -13.6364 -13.6330 -13.6298 -13.6280 -13.6241
   -13.6124 -13.6118 -13.6048 -13.5977 -13.5937 -13.5935 -13.5759 -13.5703
   -13.5652 -13.5631 -13.5588 -13.5532  -6.0389  -5.7943  -4.8270  -4.4679
     0.3441   1.1755   2.2434   2.8182   2.9263   4.0218   4.2073   4.3269
     4.4849   4.5847   5.4314   5.5430   5.7566   6.6440   6.7620   7.2583
     8.7770  10.4080  10.5214  10.5434  10.5808  11.2081  11.3913  12.0491
    12.3450  13.1463  13.1985  13.6467  13.7619  14.3352  14.4319  14.6667
    14.9418  15.8926  16.2258  16.3889  16.5288  16.6842  17.0277  17.0590
    17.8376  17.8463  17.9982  18.6972  18.7030  18.8173  19.2922  19.6960
    19.8619  19.8743  21.0412  21.1527  21.7326  22.5188  22.5878  22.6265
    23.0058  23.6660  24.2105  24.2238  24.2384  24.8372  25.0825  25.1560
    25.4186  25.8755  25.9335  26.3771  26.6929  26.7921  26.8327  27.1297
    27.1626  27.4763  27.7150  27.8806

          k = 0.1000 0.0000 0.0000 (  8245 PWs)   bands (ev):

   -13.6614 -13.6506 -13.6413 -13.6356 -13.6335 -13.6307 -13.6286 -13.6247
   -13.6120 -13.6115 -13.6050 -13.5984 -13.5936 -13.5934 -13.5762 -13.5698
   -13.5661 -13.5628 -13.5586 -13.5532  -6.0117  -5.7694  -4.8140  -4.4630
     0.3204   1.1331   2.2323   2.7008   2.9136   4.0534   4.1631   4.3496
     4.5288   4.5447   5.4409   5.5519   5.7301   6.7143   6.7627   7.2410
     8.8111  10.3226  10.4798  10.5761  10.6855  11.1461  11.4443  11.8819
    12.1674  13.1657  13.2390  13.5277  13.8448  14.2166  14.2491  14.5020
    14.8070  15.8980  16.3193  16.4728  16.6085  16.7549  17.0072  17.2811
    17.9780  17.9984  18.2169  18.5543  18.9402  19.0411  19.5129  19.5707
    19.6796  20.1251  20.9444  21.2896  22.0707  22.4252  22.4406  22.6483
    23.2157  23.4504  24.0453  24.1785  24.3211  25.0483  25.0917  25.1918
    25.3919  25.8902  26.2371  26.5941  26.6865  26.6946  26.7865  27.0823
    27.2724  27.5644  27.7254  27.9619

          k = 0.1250 0.0000 0.0000 (  8239 PWs)   bands (ev):

   -13.6599 -13.6497 -13.6397 -13.6354 -13.6333 -13.6317 -13.6292 -13.6254
   -13.6116 -13.6111 -13.6051 -13.5992 -13.5938 -13.5930 -13.5766 -13.5692
   -13.5671 -13.5625 -13.5584 -13.5532  -5.9770  -5.7376  -4.7981  -4.4574
     0.2902   1.0802   2.2095   2.5592   2.9058   4.0936   4.1242   4.3782
     4.5014   4.5730   5.4540   5.5598   5.7065   6.7626   6.7964   7.2151
     8.8538  10.0874  10.5483  10.5860  10.7971  11.0774  11.5170  11.7271
    11.9801  13.1669  13.2372  13.4054  13.9556  13.9896  14.1384  14.3885
    14.6748  15.8991  16.4233  16.4914  16.6906  16.9208  16.9280  17.4983
    18.2010  18.2090  18.3566  18.4660  19.2187  19.2997  19.5163  19.5722
    19.7620  20.3895  20.7584  21.5761  22.1616  22.1856  22.5065  22.7232
    23.2270  23.4611  23.8216  24.2049  24.4399  25.1372  25.2355  25.2358
    25.4200  25.8588  26.5448  26.5903  26.7035  26.7913  26.8170  26.9865
    27.4008  27.5094  27.7637  27.9564

          k = 0.1500 0.0000 0.0000 (  8251 PWs)   bands (ev):

   -13.6581 -13.6489 -13.6379 -13.6361 -13.6328 -13.6322 -13.6297 -13.6263
   -13.6111 -13.6108 -13.6052 -13.6001 -13.5940 -13.5926 -13.5771 -13.5685
   -13.5684 -13.5620 -13.5581 -13.5532  -5.9350  -5.6994  -4.7797  -4.4520
     0.2542   1.0182   2.1699   2.3985   2.9081   4.0928   4.1422   4.4123
     4.4595   4.6178   5.4707   5.5622   5.6938   6.7610   6.8864   7.1796
     8.9045   9.8326  10.5541  10.5947  10.8975  10.9941  11.5989  11.6051
    11.8061  13.1517  13.1873  13.2846  13.7814  14.0190  14.0918  14.3492
    14.5550  15.8781  16.4766  16.5308  16.7695  16.8337  17.1723  17.6858
    18.1158  18.4393  18.4823  18.7035  19.4259  19.5235  19.5842  19.6867
    20.0349  20.6060  20.6600  21.8792  21.9330  21.9718  22.7568  22.8204
    23.0085  23.5930  23.7128  24.2769  24.5686  25.1993  25.2572  25.2874
    25.6316  25.8156  26.5538  26.6497  26.7251  26.8821  26.9592  27.0431
    27.3799  27.4665  27.7537  27.8651

          k = 0.1750 0.0000 0.0000 (  8237 PWs)   bands (ev):

   -13.6562 -13.6481 -13.6371 -13.6363 -13.6338 -13.6307 -13.6299 -13.6271
   -13.6107 -13.6105 -13.6050 -13.6011 -13.5942 -13.5923 -13.5777 -13.5699
   -13.5676 -13.5614 -13.5577 -13.5531  -5.8860  -5.6549  -4.7598  -4.4474
     0.2131   0.9492   2.1100   2.2234   2.9250   4.0707   4.1984   4.4233
     4.4513   4.6629   5.4907   5.5554   5.6978   6.7573   6.9804   7.1343
     8.9627   9.5710  10.4710  10.5980  10.8930  10.9659  11.4992  11.6173
    11.7498  13.1037  13.1165  13.1447  13.6439  13.9123  14.2568  14.3854
    14.4539  15.8219  16.4587  16.6376  16.7838  16.8407  17.4508  17.8013
    17.8639  18.7028  18.7659  18.8929  19.4614  19.8395  19.8779  19.8870
    20.3261  20.5083  20.9322  21.6602  21.7546  22.2104  22.7577  22.8064
    23.1322  23.3769  23.9484  24.3816  24.6794  25.2602  25.2634  25.3549
    25.7589  25.8467  26.5702  26.6313  26.7703  26.8055  27.0648  27.2343
    27.3708  27.4654  27.5501  28.0199

          k = 0.2000 0.0000 0.0000 (  8235 PWs)   bands (ev):

   -13.6543 -13.6476 -13.6383 -13.6365 -13.6329 -13.6299 -13.6291 -13.6280
   -13.6104 -13.6102 -13.6046 -13.6021 -13.5945 -13.5919 -13.5784 -13.5716
   -13.5668 -13.5608 -13.5574 -13.5531  -5.8303  -5.6046  -4.7390  -4.4446
     0.1682   0.8756   2.0294   2.0385   2.9581   4.0589   4.2601   4.3980
     4.4942   4.7078   5.5133   5.5413   5.7179   6.7510   7.0743   7.0798
     9.0277   9.3122  10.3438  10.5422  10.7764  10.9852  11.4139  11.5206
    11.8439  12.9551  13.0114  13.0560  13.6314  13.8425  14.3770  14.4558
    14.4834  15.7304  16.4501  16.7419  16.7823  16.8971  17.5452  17.8138
    17.8219  18.9772  19.0414  19.0726  19.5758  20.1121  20.1490  20.2025
    20.4998  20.6194  21.1949  21.4175  21.5507  22.5305  22.6329  22.7342
    23.1899  23.4173  24.1512  24.5066  24.7216  25.3097  25.3130  25.4615
    25.6850  25.9366  26.5217  26.5907  26.8531  26.9121  26.9406  27.2192
    27.3992  27.4301  27.6673  27.6727

          k = 0.2250 0.0000 0.0000 (  8235 PWs)   bands (ev):

   -13.6524 -13.6475 -13.6395 -13.6379 -13.6308 -13.6293 -13.6287 -13.6275
   -13.6102 -13.6100 -13.6039 -13.6031 -13.5949 -13.5915 -13.5792 -13.5733
   -13.5658 -13.5600 -13.5570 -13.5530  -5.7684  -5.5491  -4.7184  -4.4446
     0.1212   0.8004   1.8476   1.9301   3.0070   4.0578   4.3168   4.3961
     4.5402   4.7515   5.5238   5.5378   5.7501   6.7416   7.0180   7.1630
     9.0652   9.0985  10.1890  10.4275  10.6491  10.9495  11.3245  11.4575
    11.9255  12.7279  12.9293  12.9669  13.7420  13.8319  14.3320  14.6287
    14.6907  15.6165  16.4538  16.8230  16.8433  16.9230  17.3144  17.7570
    18.1324  19.2444  19.2731  19.2941  19.6811  20.3488  20.4219  20.5327
    20.6006  20.8248  21.2846  21.2928  21.5533  22.5016  22.7012  22.8341
    23.0535  23.6680  24.3146  24.6387  24.6535  25.3258  25.4167  25.5871
    25.6206  25.8642  26.3634  26.5513  26.7015  26.9855  27.1481  27.2036
    27.3868  27.4070  27.4342  27.8644

          k = 0.2500 0.0000 0.0000 (  8235 PWs)   bands (ev):

   -13.6507 -13.6476 -13.6408 -13.6396 -13.6292 -13.6286 -13.6284 -13.6258
   -13.6100 -13.6098 -13.6041 -13.6029 -13.5954 -13.5910 -13.5801 -13.5752
   -13.5648 -13.5591 -13.5565 -13.5529  -5.7006  -5.4888  -4.6992  -4.4485
     0.0739   0.7267   1.6541   1.8160   3.0701   4.0669   4.3415   4.4457
     4.5878   4.7924   5.5048   5.5633   5.7919   6.7287   6.9511   7.2391
     8.8405   9.1740  10.0223  10.2705  10.5176  10.8660  11.2211  11.4220
    11.9683  12.4877  12.8506  12.8641  13.8868  13.9471  14.3339  14.8102
    14.9592  15.4954  16.4614  16.8918  16.8949  16.9420  17.0937  17.7052
    18.4657  19.4108  19.4833  19.5073  19.8332  20.4990  20.6276  20.7497
    20.7616  20.8742  21.2283  21.4893  21.8180  22.4271  22.6831  22.9952
    23.1012  23.8766  24.4439  24.4827  24.7643  25.2776  25.4562  25.5480
    25.6701  25.8037  26.1595  26.4365  26.5377  27.0804  27.1693  27.3328
    27.3595  27.4647  27.6137  27.8719

          k = 0.2750 0.0000 0.0000 (  8237 PWs)   bands (ev):

   -13.6494 -13.6481 -13.6422 -13.6412 -13.6294 -13.6271 -13.6264 -13.6243
   -13.6098 -13.6097 -13.6050 -13.6019 -13.5960 -13.5906 -13.5809 -13.5770
   -13.5638 -13.5583 -13.5561 -13.5528  -5.6276  -5.4244  -4.6825  -4.4574
     0.0287   0.6577   1.4611   1.6910   3.1451   4.0849   4.3537   4.5276
     4.6355   4.8289   5.4835   5.5888   5.8419   6.7120   6.8821   7.2907
     8.6520   9.2522   9.8542  10.0914  10.3879  10.7489  11.1045  11.3929
    11.9747  12.2478  12.7112  12.8132  13.9776  14.2212  14.4142  15.0181
    15.2550  15.3791  16.4397  16.7854  16.9384  16.9896  17.0379  17.7118
    18.7929  19.4356  19.6534  19.6730  20.0912  20.4489  20.5909  20.7435
    20.9006  21.2156  21.3666  21.8309  22.1133  22.4256  22.7080  23.0365
    23.3051  23.9964  24.2857  24.5426  24.8691  25.1574  25.2960  25.3434
    25.7070  25.9633  26.0125  26.1697  26.5753  27.0834  27.3622  27.3968
    27.4002  27.5107  27.7803  28.0226

          k = 0.3000 0.0000 0.0000 (  8227 PWs)   bands (ev):

   -13.6487 -13.6484 -13.6434 -13.6429 -13.6292 -13.6257 -13.6243 -13.6228
   -13.6097 -13.6096 -13.6059 -13.6007 -13.5966 -13.5902 -13.5817 -13.5789
   -13.5627 -13.5574 -13.5556 -13.5528  -5.5499  -5.3568  -4.6695  -4.4723
    -0.0117   0.5966   1.2714   1.5593   3.2302   4.1099   4.3732   4.6214
     4.6816   4.8596   5.4586   5.6130   5.8994   6.6915   6.8143   7.3020
     8.5179   9.3297   9.6918   9.9053  10.2659  10.6134  10.9823  11.3505
    11.9661  12.0158  12.5542  12.7703  14.0585  14.5436  14.6034  15.2426
    15.2761  15.5682  16.3371  16.6193  16.9070  17.1018  17.1312  17.7818
    19.0980  19.4186  19.6891  19.7982  20.2701  20.3745  20.4941  20.7675
    20.9782  21.5379  21.6416  22.2073  22.4214  22.5197  22.7803  23.1643
    23.4143  23.8175  24.3092  24.5853  24.8937  24.9845  25.0835  25.1854
    25.6613  25.9198  26.0636  26.0804  26.6670  27.1508  27.3883  27.5414
    27.5430  27.6364  27.6861  28.1642

          k = 0.3250 0.0000 0.0000 (  8225 PWs)   bands (ev):

   -13.6495 -13.6479 -13.6446 -13.6445 -13.6285 -13.6241 -13.6224 -13.6216
   -13.6097 -13.6093 -13.6067 -13.5994 -13.5973 -13.5898 -13.5825 -13.5807
   -13.5617 -13.5565 -13.5552 -13.5527  -5.4684  -5.2867  -4.6617  -4.4941
    -0.0446   0.5462   1.0872   1.4245   3.3236   4.1388   4.4028   4.7229
     4.7239   4.8832   5.4286   5.6348   5.9636   6.6677   6.7507   7.2598
     8.4533   9.4014   9.5393   9.7221  10.1566  10.4731  10.8636  11.2830
    11.7974  11.9651  12.3852  12.7295  14.1257  14.8835  14.8912  15.1987
    15.4714  15.8853  16.1708  16.4239  16.9907  17.2216  17.2284  17.8982
    19.3618  19.3999  19.6008  19.8563  20.0547  20.4848  20.5573  20.7180
    21.0701  21.8204  21.9607  22.5965  22.7207  22.7329  22.8445  23.3230
    23.4081  23.5081  24.4305  24.5458  24.7476  24.8088  24.9550  25.2525
    25.5736  25.7078  26.1005  26.2582  26.7784  27.2452  27.3737  27.5702
    27.6306  27.7316  27.8974  28.3875

          k = 0.3500 0.0000 0.0000 (  8217 PWs)   bands (ev):

   -13.6502 -13.6479 -13.6460 -13.6457 -13.6276 -13.6225 -13.6207 -13.6206
   -13.6098 -13.6089 -13.6074 -13.5981 -13.5981 -13.5894 -13.5833 -13.5825
   -13.5606 -13.5557 -13.5547 -13.5528  -5.3837  -5.2151  -4.6601  -4.5237
    -0.0675   0.5090   0.9108   1.2898   3.4234   4.1677   4.4417   4.7601
     4.8305   4.9001   5.3922   5.6525   6.0330   6.6410   6.6937   7.1668
     8.4576   9.3998   9.4585   9.5488  10.0643  10.3410  10.7568  11.1906
    11.5986  11.9828  12.2094  12.6865  14.1964  15.0816  15.2163  15.3197
    15.6848  15.9878  16.1873  16.2287  17.1543  17.3101  17.3679  18.0474
    19.3931  19.4405  19.5505  19.8462  19.8587  20.5077  20.5124  20.6197
    21.3062  22.0631  22.2895  22.8089  22.9560  22.9599  22.9865  23.2940
    23.2980  23.4738  24.5536  24.5594  24.5622  24.6798  24.8610  25.3892
    25.5767  25.5910  26.0941  26.4489  26.8398  27.3002  27.3066  27.6359
    27.6488  27.9406  28.1901  28.5094

          k = 0.3750 0.0000 0.0000 (  8201 PWs)   bands (ev):

   -13.6508 -13.6480 -13.6475 -13.6467 -13.6264 -13.6209 -13.6198 -13.6192
   -13.6099 -13.6083 -13.6080 -13.5990 -13.5968 -13.5889 -13.5842 -13.5840
   -13.5595 -13.5549 -13.5543 -13.5529  -5.2970  -5.1432  -4.6659  -4.5615
    -0.0779   0.4869   0.7443   1.1584   3.5280   4.1910   4.4884   4.7879
     4.9125   4.9429   5.3489   5.6639   6.1058   6.6128   6.6443   7.0421
     8.5142   9.2756   9.3908   9.4879   9.9926  10.2300  10.6685  11.0823
    11.4267  12.0189  12.0314  12.6390  14.2800  15.0514  15.5722  15.6918
    15.8035  15.8095  16.1141  16.4536  17.3893  17.3999  17.5194  18.2202
    19.2595  19.4026  19.5272  19.7688  19.8228  20.3247  20.4937  20.5033
    21.6125  22.2772  22.6097  22.6598  22.7959  23.0303  23.1056  23.3851
    23.5105  23.7374  24.3923  24.5731  24.6599  24.6791  24.7825  25.5232
    25.6026  25.7321  26.0623  26.6366  26.7935  27.2095  27.2742  27.7508
    27.7542  28.1345  28.4524  28.4976

          k = 0.4000 0.0000 0.0000 (  8233 PWs)   bands (ev):

   -13.6514 -13.6487 -13.6483 -13.6475 -13.6251 -13.6196 -13.6194 -13.6181
   -13.6100 -13.6085 -13.6077 -13.5999 -13.5956 -13.5885 -13.5857 -13.5847
   -13.5585 -13.5543 -13.5539 -13.5531  -5.2090  -5.0721  -4.6798  -4.6077
    -0.0735   0.4815   0.5893   1.0328   3.6351   4.2022   4.5406   4.8048
     4.9251   5.0586   5.2990   5.6659   6.1800   6.5850   6.6018   6.9079
     8.6043   9.1689   9.2529   9.4754   9.9439  10.1502  10.6035  10.9687
    11.2914  11.8557  12.0687  12.5862  14.3798  15.0293  15.6437  15.6897
    15.9244  16.0735  16.2151  16.6731  17.4997  17.6827  17.6878  18.4058
    19.0859  19.3281  19.4273  19.7637  19.7708  20.0729  20.3549  20.4354
    21.9032  22.4382  22.4912  22.5874  22.9058  22.9142  22.9387  23.7320
    23.8497  24.1289  24.2746  24.4421  24.4909  24.8206  25.0335  25.6182
    25.8110  25.9565  26.0078  26.6488  26.8165  27.1088  27.1912  27.8580
    27.8829  28.2321  28.4095  28.7790

          k = 0.4250 0.0000 0.0000 (  8232 PWs)   bands (ev):

   -13.6518 -13.6498 -13.6487 -13.6482 -13.6238 -13.6193 -13.6184 -13.6173
   -13.6100 -13.6089 -13.6069 -13.6009 -13.5943 -13.5881 -13.5871 -13.5853
   -13.5575 -13.5538 -13.5535 -13.5534  -5.1211  -5.0031  -4.7024  -4.6622
    -0.0527   0.4478   0.4936   0.9156   3.7427   4.1945   4.5954   4.8093
     4.9437   5.1753   5.2435   5.6541   6.2527   6.5607   6.5637   6.7818
     8.7140   9.0823   9.1392   9.4169   9.9194  10.0985  10.5648  10.8587
    11.2040  11.6867  12.1278  12.5281  14.4965  15.0284  15.4943  15.5002
    16.2397  16.3709  16.4326  16.8478  17.6289  17.8584  18.0265  18.5842
    18.9395  19.1168  19.4530  19.6900  19.6900  19.8090  20.2131  20.2865
    22.0392  22.4222  22.4554  22.4919  22.7431  22.9519  23.1594  23.9077
    24.1451  24.2013  24.2775  24.3374  24.6982  24.9933  25.3455  25.6485
    25.9172  26.1210  26.2329  26.4415  26.9790  27.0355  27.0830  27.8874
    27.9032  28.0889  28.4348  28.7635

          k = 0.4500 0.0000 0.0000 (  8236 PWs)   bands (ev):

   -13.6520 -13.6507 -13.6490 -13.6487 -13.6226 -13.6194 -13.6175 -13.6167
   -13.6100 -13.6093 -13.6060 -13.6019 -13.5931 -13.5884 -13.5877 -13.5859
   -13.5565 -13.5538 -13.5534 -13.5533  -5.0344  -4.9374  -4.7338  -4.7246
    -0.0143   0.3211   0.5234   0.8090   3.8477   4.1639   4.6498   4.8004
     4.9731   5.1842   5.2900   5.6235   6.3216   6.5262   6.5438   6.6770
     8.8347   9.0190   9.0534   9.3234   9.9187  10.0583  10.5535  10.7591
    11.1734  11.5294  12.1927  12.4652  14.6297  15.0502  15.3060  15.3633
    16.4776  16.5059  16.7393  16.9799  17.8152  18.0469  18.3633  18.7019
    18.8410  18.9198  19.3987  19.5434  19.6041  19.6714  20.0591  20.0742
    21.9846  22.2529  22.4027  22.6118  22.7310  23.1193  23.3613  23.8524
    23.9097  24.0542  24.5498  24.6285  25.2014  25.2019  25.5951  25.6529
    25.7735  26.2024  26.3958  26.5216  27.0155  27.0221  27.0804  27.7024
    27.7883  27.8748  28.5564  28.5811

          k = 0.4750 0.0000 0.0000 (  8236 PWs)   bands (ev):

   -13.6520 -13.6513 -13.6491 -13.6490 -13.6215 -13.6199 -13.6169 -13.6165
   -13.6099 -13.6096 -13.6050 -13.6030 -13.5920 -13.5897 -13.5873 -13.5864
   -13.5557 -13.5543 -13.5531 -13.5531  -4.9501  -4.8765  -4.7940  -4.7737
     0.0424   0.2106   0.5708   0.7148   3.9469   4.1099   4.7004   4.7783
     5.0146   5.1240   5.3981   5.5701   6.3841   6.4857   6.5403   6.6015
     8.9604   8.9820   8.9980   9.2100   9.9389  10.0169  10.5693  10.6750
    11.2005  11.3899  12.2609  12.3988  14.7786  15.0951  15.1186  15.2524
    16.6017  16.6101  16.9576  17.0596  18.0729  18.2455  18.5613  18.6330
    18.8083  18.8100  19.3339  19.4267  19.5059  19.7190  19.7803  19.9419
    21.9428  22.0840  22.4083  22.5172  23.0209  23.3134  23.5161  23.6616
    23.7505  23.8296  24.8826  24.9497  25.4083  25.4478  25.5967  25.7121
    25.9269  25.9563  26.4367  26.6517  27.0577  27.0889  27.1054  27.4564
    27.6850  27.8260  28.3093  28.4624

          k = 0.5000 0.0000 0.0000 (  8236 PWs)   bands (ev):

   -13.6518 -13.6518 -13.6492 -13.6492 -13.6206 -13.6206 -13.6165 -13.6165
   -13.6098 -13.6098 -13.6040 -13.6040 -13.5908 -13.5908 -13.5868 -13.5868
   -13.5549 -13.5549 -13.5530 -13.5530  -4.8696  -4.8696  -4.8216  -4.8216
     0.1175   0.1175   0.6350   0.6350   4.0359   4.0359   4.7442   4.7442
     5.0661   5.0661   5.4936   5.4936   6.4388   6.4388   6.5572   6.5572
     8.9744   8.9744   9.0869   9.0869   9.9745   9.9745  10.6106  10.6106
    11.2767  11.2767  12.3302  12.3302  14.9421  14.9421  15.1627  15.1627
    16.6434  16.6434  17.0619  17.0619  18.3733  18.3733  18.4399  18.4399
    18.8304  18.8304  19.4017  19.4017  19.5164  19.5164  19.8204  19.8204
    21.9741  21.9741  22.4501  22.4501  23.2918  23.2918  23.6243  23.6243
    23.6402  23.6402  25.1511  25.1511  25.3034  25.3034  25.7172  25.7172
    26.0699  26.0699  26.4075  26.4075  27.1467  27.1467  27.2385  27.2385
    27.7892  27.7892  28.2158  28.2158

          k = 0.5000 0.0218 0.0000 (  8240 PWs)   bands (ev):

   -13.6518 -13.6518 -13.6492 -13.6492 -13.6206 -13.6206 -13.6165 -13.6165
   -13.6098 -13.6098 -13.6040 -13.6040 -13.5909 -13.5909 -13.5868 -13.5868
   -13.5550 -13.5550 -13.5530 -13.5530  -4.8684  -4.8684  -4.8205  -4.8205
     0.1204   0.1204   0.6364   0.6364   4.0316   4.0316   4.7284   4.7284
     5.0409   5.0409   5.5072   5.5072   6.4155   6.4155   6.5743   6.5743
     8.9526   8.9526   9.1075   9.1075   9.9897   9.9897  10.6548  10.6548
    11.2846  11.2846  12.3235  12.3235  14.8182  14.8182  15.2941  15.2941
    16.6154  16.6154  17.0793  17.0793  18.2554  18.2554  18.5635  18.5635
    18.8318  18.8318  19.4092  19.4092  19.5195  19.5195  19.8367  19.8367
    21.9716  21.9716  22.4305  22.4305  23.2635  23.2635  23.5987  23.5987
    23.6573  23.6573  25.1411  25.1411  25.2828  25.2828  25.6727  25.6727
    26.0920  26.0920  26.4394  26.4394  27.0648  27.0648  27.3524  27.3524
    27.7608  27.7608  28.2355  28.2355

          k = 0.5000 0.0436 0.0000 (  8244 PWs)   bands (ev):

   -13.6520 -13.6520 -13.6493 -13.6493 -13.6207 -13.6207 -13.6165 -13.6165
   -13.6097 -13.6097 -13.6039 -13.6039 -13.5910 -13.5910 -13.5866 -13.5866
   -13.5551 -13.5551 -13.5529 -13.5529  -4.8650  -4.8650  -4.8175  -4.8175
     0.1290   0.1290   0.6408   0.6408   4.0182   4.0182   4.6804   4.6804
     4.9814   4.9814   5.5337   5.5337   6.3577   6.3577   6.6140   6.6140
     8.9017   8.9017   9.1589   9.1589  10.0421  10.0421  10.7743  10.7743
    11.3089  11.3089  12.3037  12.3037  14.6347  14.6347  15.4965  15.4965
    16.5473  16.5473  17.1184  17.1184  18.1272  18.1272  18.7062  18.7062
    18.8381  18.8381  19.4301  19.4301  19.5292  19.5292  19.8876  19.8876
    21.9615  21.9615  22.3812  22.3812  23.1631  23.1631  23.5463  23.5463
    23.7016  23.7016  25.0632  25.0632  25.2471  25.2471  25.6092  25.6092
    26.1274  26.1274  26.5128  26.5128  26.9882  26.9882  27.4853  27.4853
    27.7174  27.7174  28.2931  28.2931

          k = 0.5000 0.0655 0.0000 (  8232 PWs)   bands (ev):

   -13.6523 -13.6523 -13.6494 -13.6494 -13.6208 -13.6208 -13.6165 -13.6165
   -13.6096 -13.6096 -13.6037 -13.6037 -13.5911 -13.5911 -13.5862 -13.5862
   -13.5553 -13.5553 -13.5527 -13.5527  -4.8594  -4.8594  -4.8126  -4.8126
     0.1432   0.1432   0.6480   0.6480   3.9943   3.9943   4.6024   4.6024
     4.9125   4.9125   5.5510   5.5510   6.2764   6.2764   6.6653   6.6653
     8.8379   8.8379   9.2368   9.2368  10.1383  10.1383  10.9440  10.9440
    11.3506  11.3506  12.2722  12.2722  14.4558  14.4558  15.6914  15.6914
    16.4715  16.4715  17.1593  17.1593  18.0252  18.0252  18.8055  18.8055
    18.8742  18.8742  19.4594  19.4594  19.5457  19.5457  19.9772  19.9772
    21.9354  21.9354  22.3230  22.3230  22.9918  22.9918  23.4612  23.4612
    23.7853  23.7853  24.8872  24.8872  25.2077  25.2077  25.5915  25.5915
    26.1624  26.1624  26.5853  26.5853  26.9473  26.9473  27.4333  27.4333
    27.8352  27.8352  28.3823  28.3823

          k = 0.5000 0.0873 0.0000 (  8220 PWs)   bands (ev):

   -13.6528 -13.6528 -13.6497 -13.6497 -13.6210 -13.6210 -13.6165 -13.6165
   -13.6094 -13.6094 -13.6035 -13.6035 -13.5912 -13.5912 -13.5858 -13.5858
   -13.5555 -13.5555 -13.5525 -13.5525  -4.8517  -4.8517  -4.8058  -4.8058
     0.1630   0.1630   0.6578   0.6578   3.9577   3.9577   4.5029   4.5029
     4.8458   4.8458   5.5473   5.5473   6.1783   6.1783   6.7200   6.7200
     8.7764   8.7764   9.3433   9.3433  10.2740  10.2740  11.1390  11.1390
    11.4141  11.4141  12.2311  12.2311  14.2889  14.2889  15.8303  15.8303
    16.4386  16.4386  17.1909  17.1909  17.9582  17.9582  18.8276  18.8276
    18.9669  18.9669  19.4910  19.4910  19.5695  19.5695  20.1066  20.1066
    21.8820  21.8820  22.2750  22.2750  22.7766  22.7766  23.3475  23.3475
    23.8901  23.8901  24.6630  24.6630  25.1444  25.1444  25.6050  25.6050
    26.2053  26.2053  26.6347  26.6347  26.9213  26.9213  27.2816  27.2816
    28.0406  28.0406  28.4907  28.4907

          k = 0.5000 0.1091 0.0000 (  8214 PWs)   bands (ev):

   -13.6533 -13.6533 -13.6500 -13.6500 -13.6212 -13.6212 -13.6165 -13.6165
   -13.6092 -13.6092 -13.6032 -13.6032 -13.5913 -13.5913 -13.5853 -13.5853
   -13.5557 -13.5557 -13.5523 -13.5523  -4.8420  -4.8420  -4.7973  -4.7973
     0.1880   0.1880   0.6700   0.6700   3.9057   3.9057   4.3944   4.3944
     4.7828   4.7828   5.5190   5.5190   6.0706   6.0706   6.7682   6.7682
     8.7330   8.7330   9.4775   9.4775  10.4388  10.4388  11.3274  11.3274
    11.5160  11.5160  12.1849  12.1849  14.1361  14.1361  15.8497  15.8497
    16.5109  16.5109  17.2130  17.2130  17.9300  17.9300  18.8357  18.8357
    19.0528  19.0528  19.5194  19.5194  19.6010  19.6010  20.2689  20.2689
    21.7951  21.7951  22.2368  22.2368  22.5469  22.5469  23.2192  23.2192
    23.9930  23.9930  24.4290  24.4290  25.0623  25.0623  25.6203  25.6203
    26.2579  26.2579  26.6661  26.6661  26.8470  26.8470  27.1555  27.1555
    28.2325  28.2325  28.5113  28.5113

          k = 0.5000 0.1309 0.0000 (  8212 PWs)   bands (ev):

   -13.6539 -13.6539 -13.6503 -13.6503 -13.6214 -13.6214 -13.6165 -13.6165
   -13.6089 -13.6089 -13.6029 -13.6029 -13.5914 -13.5914 -13.5847 -13.5847
   -13.5559 -13.5559 -13.5521 -13.5521  -4.8306  -4.8306  -4.7873  -4.7873
     0.2180   0.2180   0.6841   0.6841   3.8366   3.8366   4.2877   4.2877
     4.7215   4.7215   5.4675   5.4675   5.9605   5.9605   6.7999   6.7999
     8.7204   8.7204   9.6362   9.6362  10.6214  10.6214  11.4671  11.4671
    11.6835  11.6835  12.1425  12.1425  13.9984  13.9984  15.7676  15.7676
    16.6595  16.6595  17.2402  17.2402  17.9394  17.9394  18.8417  18.8417
    19.1247  19.1247  19.5409  19.5409  19.6393  19.6393  20.4502  20.4502
    21.6752  21.6752  22.1640  22.1640  22.3556  22.3556  23.0979  23.0979
    24.0520  24.0520  24.2291  24.2291  24.9690  24.9690  25.6262  25.6262
    26.3092  26.3092  26.6687  26.6687  26.7094  26.7094  27.0986  27.0986
    28.2588  28.2588  28.4775  28.4775

          k = 0.5000 0.1528 0.0000 (  8220 PWs)   bands (ev):

   -13.6546 -13.6546 -13.6507 -13.6507 -13.6217 -13.6217 -13.6165 -13.6165
   -13.6086 -13.6086 -13.6025 -13.6025 -13.5915 -13.5915 -13.5842 -13.5842
   -13.5562 -13.5562 -13.5519 -13.5519  -4.8177  -4.8177  -4.7761  -4.7761
     0.2527   0.2527   0.6997   0.6997   3.7509   3.7509   4.1894   4.1894
     4.6593   4.6593   5.3968   5.3968   5.8539   5.8539   6.8088   6.8088
     8.7455   8.7455   9.8143   9.8143  10.8117  10.8117  11.5692  11.5692
    11.8725  11.8725  12.1331  12.1331  13.8769  13.8769  15.6443  15.6443
    16.7957  16.7957  17.3056  17.3056  17.9827  17.9827  18.8458  18.8458
    19.1880  19.1880  19.5527  19.5527  19.6824  19.6824  20.6323  20.6323
    21.5202  21.5202  21.9924  21.9924  22.2701  22.2701  23.0099  23.0099
    23.9260  23.9260  24.2025  24.2025  24.8688  24.8688  25.6206  25.6206
    26.3258  26.3258  26.4999  26.4999  26.7305  26.7305  27.0726  27.0726
    28.0702  28.0702  28.4946  28.4946

          k = 0.5000 0.1746 0.0000 (  8204 PWs)   bands (ev):

   -13.6553 -13.6553 -13.6511 -13.6511 -13.6219 -13.6219 -13.6165 -13.6165
   -13.6084 -13.6084 -13.6022 -13.6022 -13.5914 -13.5914 -13.5836 -13.5836
   -13.5564 -13.5564 -13.5517 -13.5517  -4.8035  -4.8035  -4.7640  -4.7640
     0.2914   0.2914   0.7165   0.7165   3.6524   3.6524   4.1014   4.1014
     4.5932   4.5932   5.3135   5.3135   5.7545   5.7545   6.7943   6.7943
     8.8084   8.8084  10.0060  10.0060  11.0011  11.0011  11.6481  11.6481
    11.9781  11.9781  12.2451  12.2451  13.7729  13.7729  15.5108  15.5108
    16.8634  16.8634  17.4357  17.4357  18.0590  18.0590  18.8475  18.8475
    19.2480  19.2480  19.5521  19.5521  19.7276  19.7276  20.7932  20.7932
    21.3313  21.3313  21.7926  21.7926  22.2302  22.2302  22.9720  22.9720
    23.7371  23.7371  24.2265  24.2265  24.7641  24.7641  25.5935  25.5935
    26.2064  26.2064  26.4412  26.4412  26.7686  26.7686  27.0605  27.0605
    27.8363  27.8363  28.3724  28.3724

          k = 0.5000 0.1964 0.0000 (  8202 PWs)   bands (ev):

   -13.6561 -13.6561 -13.6516 -13.6516 -13.6222 -13.6222 -13.6166 -13.6166
   -13.6081 -13.6081 -13.6018 -13.6018 -13.5914 -13.5914 -13.5830 -13.5830
   -13.5566 -13.5566 -13.5515 -13.5515  -4.7884  -4.7884  -4.7511  -4.7511
     0.3338   0.3338   0.7338   0.7338   3.5471   3.5471   4.0229   4.0229
     4.5195   4.5195   5.2246   5.2246   5.6644   5.6644   6.7604   6.7604
     8.9037   8.9037  10.2042  10.2042  11.1813  11.1813  11.6869  11.6869
    12.0400  12.0400  12.4542  12.4542  13.6882  13.6882  15.3810  15.3810
    16.8726  16.8726  17.5989  17.5989  18.1736  18.1736  18.8464  18.8464
    19.3079  19.3079  19.5361  19.5361  19.7725  19.7725  20.8990  20.8990
    21.1349  21.1349  21.5985  21.5985  22.2196  22.2196  22.9745  22.9745
    23.5741  23.5741  24.2213  24.2213  24.6560  24.6560  25.5205  25.5205
    26.0328  26.0328  26.4637  26.4637  26.7957  26.7957  27.0679  27.0679
    27.5972  27.5972  28.1440  28.1440

          k = 0.5000 0.2182 0.0000 (  8216 PWs)   bands (ev):

   -13.6569 -13.6569 -13.6520 -13.6520 -13.6225 -13.6225 -13.6166 -13.6166
   -13.6078 -13.6078 -13.6015 -13.6015 -13.5913 -13.5913 -13.5824 -13.5824
   -13.5568 -13.5568 -13.5513 -13.5513  -4.7728  -4.7728  -4.7379  -4.7379
     0.3791   0.3791   0.7511   0.7511   3.4410   3.4410   3.9524   3.9524
     4.4362   4.4362   5.1351   5.1351   5.5857   5.5857   6.7130   6.7130
     9.0234   9.0234  10.4006  10.4006  11.3434  11.3434  11.6876  11.6876
    12.1386  12.1386  12.6779  12.6779  13.6256  13.6256  15.2638  15.2638
    16.8535  16.8535  17.7452  17.7452  18.3304  18.3304  18.8436  18.8436
    19.3648  19.3648  19.5073  19.5073  19.8146  19.8146  20.8424  20.8424
    21.0407  21.0407  21.4229  21.4229  22.2461  22.2461  22.9800  22.9800
    23.4704  23.4704  24.1810  24.1810  24.5453  24.5453  25.3827  25.3827
    25.8919  25.8919  26.5165  26.5165  26.7734  26.7734  27.1060  27.1060
    27.3729  27.3729  27.8915  27.8915

          k = 0.5000 0.2401 0.0000 (  8224 PWs)   bands (ev):

   -13.6577 -13.6577 -13.6525 -13.6525 -13.6227 -13.6227 -13.6166 -13.6166
   -13.6075 -13.6075 -13.6013 -13.6013 -13.5912 -13.5912 -13.5819 -13.5819
   -13.5570 -13.5570 -13.5512 -13.5512  -4.7569  -4.7569  -4.7246  -4.7246
     0.4264   0.4264   0.7679   0.7679   3.3387   3.3387   3.8888   3.8888
     4.3444   4.3444   5.0459   5.0459   5.5215   5.5215   6.6579   6.6579
     9.1598   9.1598  10.5834  10.5834  11.4711  11.4711  11.6918  11.6918
    12.2629  12.2629  12.8952  12.8952  13.5885  13.5885  15.1657  15.1657
    16.8220  16.8220  17.8506  17.8506  18.5126  18.5126  18.8429  18.8429
    19.3846  19.3846  19.5053  19.5053  19.8521  19.8521  20.6743  20.6743
    20.9915  20.9915  21.3068  21.3068  22.2933  22.2933  22.9457  22.9457
    23.4621  23.4621  24.1072  24.1072  24.4333  24.4333  25.1975  25.1975
    25.7887  25.7887  26.5423  26.5423  26.7280  26.7280  27.1555  27.1555
    27.1679  27.1679  27.6072  27.6072

          k = 0.5000 0.2619 0.0000 (  8206 PWs)   bands (ev):

   -13.6585 -13.6585 -13.6529 -13.6529 -13.6230 -13.6230 -13.6166 -13.6166
   -13.6072 -13.6072 -13.6010 -13.6010 -13.5910 -13.5910 -13.5813 -13.5813
   -13.5572 -13.5572 -13.5510 -13.5510  -4.7411  -4.7411  -4.7117  -4.7117
     0.4748   0.4748   0.7834   0.7834   3.2439   3.2439   3.8305   3.8305
     4.2489   4.2489   4.9549   4.9549   5.4748   5.4748   6.5997   6.5997
     9.3062   9.3062  10.7359  10.7359  11.5424  11.5424  11.7461  11.7461
    12.3929  12.3929  13.0989  13.0989  13.5807  13.5807  15.0917  15.0917
    16.7856  16.7856  17.9104  17.9104  18.6682  18.6682  18.8487  18.8487
    19.3575  19.3575  19.5709  19.5709  19.8839  19.8839  20.5284  20.5284
    20.8773  20.8773  21.2689  21.2689  22.3249  22.3249  22.8786  22.8786
    23.5371  23.5371  24.0012  24.0012  24.3249  24.3249  25.0021  25.0021
    25.7121  25.7121  26.4003  26.4003  26.7986  26.7986  26.9565  26.9565
    27.1344  27.1344  27.4392  27.4392

          k = 0.5000 0.2837 0.0000 (  8202 PWs)   bands (ev):

   -13.6592 -13.6592 -13.6534 -13.6534 -13.6232 -13.6232 -13.6166 -13.6166
   -13.6069 -13.6069 -13.6008 -13.6008 -13.5908 -13.5908 -13.5808 -13.5808
   -13.5574 -13.5574 -13.5509 -13.5509  -4.7258  -4.7258  -4.6995  -4.6995
     0.5233   0.5233   0.7973   0.7973   3.1591   3.1591   3.7750   3.7750
     4.1575   4.1575   4.8603   4.8603   5.4460   5.4460   6.5414   6.5414
     9.4576   9.4576  10.8375  10.8375  11.5905  11.5905  11.8358  11.8358
    12.5168  12.5168  13.2853  13.2853  13.6039  13.6039  15.0447  15.0447
    16.7486  16.7486  17.9201  17.9201  18.7224  18.7224  18.8567  18.8567
    19.3915  19.3915  19.6655  19.6655  19.9138  19.9138  20.4230  20.4230
    20.7555  20.7555  21.2661  21.2661  22.3106  22.3106  22.8107  22.8107
    23.6421  23.6421  23.8636  23.8636  24.2380  24.2380  24.8267  24.8267
    25.6522  25.6522  26.1876  26.1876  26.7348  26.7348  26.8452  26.8452
    27.0764  27.0764  27.3876  27.3876

          k = 0.5000 0.3055 0.0000 (  8218 PWs)   bands (ev):

   -13.6598 -13.6598 -13.6538 -13.6538 -13.6234 -13.6234 -13.6166 -13.6166
   -13.6067 -13.6067 -13.6007 -13.6007 -13.5906 -13.5906 -13.5804 -13.5804
   -13.5575 -13.5575 -13.5507 -13.5507  -4.7114  -4.7114  -4.6883  -4.6883
     0.5705   0.5705   0.8090   0.8090   3.0860   3.0860   3.7187   3.7187
     4.0798   4.0798   4.7627   4.7627   5.4331   5.4331   6.4855   6.4855
     9.6101   9.6101  10.8766  10.8766  11.6600  11.6600  11.9212  11.9212
    12.6298  12.6298  13.4527  13.4527  13.6560  13.6560  15.0243  15.0243
    16.7155  16.7155  17.8761  17.8761  18.6309  18.6309  18.9000  18.9000
    19.5013  19.5013  19.7639  19.7639  19.9644  19.9644  20.3561  20.3561
    20.6675  20.6675  21.2759  21.2759  22.2503  22.2503  22.7422  22.7422
    23.6708  23.6708  23.7317  23.7317  24.2203  24.2203  24.6889  24.6889
    25.5926  25.5926  25.9723  25.9723  26.5432  26.5432  26.7309  26.7309
    27.1638  27.1638  27.3687  27.3687

          k = 0.5000 0.3274 0.0000 (  8204 PWs)   bands (ev):

   -13.6604 -13.6604 -13.6541 -13.6541 -13.6236 -13.6236 -13.6166 -13.6166
   -13.6065 -13.6065 -13.6005 -13.6005 -13.5904 -13.5904 -13.5800 -13.5800
   -13.5576 -13.5576 -13.5506 -13.5506  -4.6982  -4.6982  -4.6785  -4.6785
     0.6150   0.6150   0.8181   0.8181   3.0257   3.0257   3.6586   3.6586
     4.0240   4.0240   4.6647   4.6647   5.4323   5.4323   6.4336   6.4336
     9.7610   9.7610  10.8618  10.8618  11.7493  11.7493  11.9884  11.9884
    12.7324  12.7324  13.6010  13.6010  13.7297  13.7297  15.0260  15.0260
    16.6908  16.6908  17.7841  17.7841  18.4647  18.4647  18.9783  18.9783
    19.6159  19.6159  19.8160  19.8160  20.0774  20.0774  20.3212  20.3212
    20.6349  20.6349  21.2922  21.2922  22.1676  22.1676  22.6564  22.6564
    23.4934  23.4934  23.6845  23.6845  24.3110  24.3110  24.5981  24.5981
    25.5027  25.5027  25.7975  25.7975  26.3669  26.3669  26.6535  26.6535
    27.1664  27.1664  27.4771  27.4771

          k = 0.5000 0.3492 0.0000 (  8218 PWs)   bands (ev):

   -13.6609 -13.6609 -13.6545 -13.6545 -13.6238 -13.6238 -13.6167 -13.6167
   -13.6063 -13.6063 -13.6004 -13.6004 -13.5903 -13.5903 -13.5796 -13.5796
   -13.5577 -13.5577 -13.5505 -13.5505  -4.6866  -4.6866  -4.6703  -4.6703
     0.6556   0.6556   0.8244   0.8244   2.9785   2.9785   3.5955   3.5955
     3.9931   3.9931   4.5699   4.5699   5.4392   5.4392   6.3875   6.3875
     9.9082   9.9082  10.8112  10.8112  11.8392  11.8392  12.0344  12.0344
    12.8262  12.8262  13.7300  13.7300  13.8139  13.8139  15.0420  15.0420
    16.6792  16.6792  17.6601  17.6601  18.2822  18.2822  19.0729  19.0729
    19.7079  19.7079  19.8259  19.8259  20.2021  20.2021  20.3137  20.3137
    20.6816  20.6816  21.3101  21.3101  22.0854  22.0854  22.5518  22.5518
    23.2997  23.2997  23.5717  23.5717  24.4390  24.4390  24.5809  24.5809
    25.3605  25.3605  25.6966  25.6966  26.2015  26.2015  26.6606  26.6606
    27.0939  27.0939  27.6704  27.6704

          k = 0.5000 0.3710 0.0000 (  8214 PWs)   bands (ev):

   -13.6613 -13.6613 -13.6547 -13.6547 -13.6239 -13.6239 -13.6167 -13.6167
   -13.6062 -13.6062 -13.6004 -13.6004 -13.5901 -13.5901 -13.5794 -13.5794
   -13.5578 -13.5578 -13.5504 -13.5504  -4.6768  -4.6768  -4.6640  -4.6640
     0.6907   0.6907   0.8278   0.8278   2.9441   2.9441   3.5353   3.5353
     3.9841   3.9841   4.4829   4.4829   5.4498   5.4498   6.3487   6.3487
    10.0502  10.0502  10.7379  10.7379  11.9163  11.9163  12.0608  12.0608
    12.9100  12.9100  13.8389  13.8389  13.8956  13.8956  15.0629  15.0629
    16.6844  16.6844  17.5243  17.5243  18.1113  18.1113  19.1684  19.1684
    19.7772  19.7772  19.8243  19.8243  20.2664  20.2664  20.3322  20.3322
    20.8121  20.8121  21.3214  21.3214  22.0191  22.0191  22.4477  22.4477
    23.1159  23.1159  23.4225  23.4225  24.4820  24.4820  24.7003  24.7003
    25.1996  25.1996  25.6535  25.6535  26.0495  26.0495  26.7287  26.7287
    27.0196  27.0196  27.8856  27.8856

          k = 0.5000 0.3928 0.0000 (  8214 PWs)   bands (ev):

   -13.6616 -13.6616 -13.6549 -13.6549 -13.6240 -13.6240 -13.6167 -13.6167
   -13.6061 -13.6061 -13.6003 -13.6003 -13.5900 -13.5900 -13.5792 -13.5792
   -13.5579 -13.5579 -13.5504 -13.5504  -4.6693  -4.6693  -4.6598  -4.6598
     0.7185   0.7185   0.8284   0.8284   2.9214   2.9214   3.4855   3.4855
     3.9902   3.9902   4.4095   4.4095   5.4604   5.4604   6.3192   6.3192
    10.1856  10.1856  10.6493  10.6493  11.9761  11.9761  12.0704  12.0704
    12.9784  12.9784  13.9251  13.9251  13.9621  13.9621  15.0811  15.0811
    16.7057  16.7057  17.3974  17.3974  17.9716  17.9716  19.2498  19.2498
    19.8101  19.8101  19.8376  19.8376  20.2900  20.2900  20.3596  20.3596
    20.9740  20.9740  21.3152  21.3152  21.9754  21.9754  22.3765  22.3765
    22.9512  22.9512  23.2702  23.2702  24.5092  24.5092  24.8333  24.8333
    25.0697  25.0697  25.6449  25.6449  25.9162  25.9162  26.7754  26.7754
    27.0233  27.0233  27.9056  27.9056

          k = 0.5000 0.4146 0.0000 (  8226 PWs)   bands (ev):

   -13.6618 -13.6618 -13.6550 -13.6550 -13.6240 -13.6240 -13.6167 -13.6167
   -13.6060 -13.6060 -13.6003 -13.6003 -13.5899 -13.5899 -13.5791 -13.5791
   -13.5579 -13.5579 -13.5504 -13.5504  -4.6643  -4.6643  -4.6576  -4.6576
     0.7371   0.7371   0.8274   0.8274   2.9088   2.9088   3.4526   3.4526
     4.0017   4.0017   4.3580   4.3580   5.4681   5.4681   6.3006   6.3006
    10.3129  10.3129  10.5494  10.5494  12.0192  12.0192  12.0661  12.0661
    13.0238  13.0238  13.9832  13.9832  14.0036  14.0036  15.0925  15.0925
    16.7334  16.7334  17.3021  17.3021  17.8795  17.8795  19.3040  19.3040
    19.8097  19.8097  19.8661  19.8661  20.3027  20.3027  20.3800  20.3800
    21.1155  21.1155  21.2823  21.2823  21.9507  21.9507  22.3620  22.3620
    22.8168  22.8168  23.1549  23.1549  24.5498  24.5498  24.8473  24.8473
    25.0547  25.0547  25.6594  25.6594  25.8103  25.8103  26.7495  26.7495
    27.1433  27.1433  27.7185  27.7185

          k = 0.5000 0.4365 0.0000 (  8208 PWs)   bands (ev):

   -13.6618 -13.6618 -13.6551 -13.6551 -13.6240 -13.6240 -13.6167 -13.6167
   -13.6060 -13.6060 -13.6003 -13.6003 -13.5899 -13.5899 -13.5790 -13.5790
   -13.5579 -13.5579 -13.5504 -13.5504  -4.6624  -4.6624  -4.6570  -4.6570
     0.7438   0.7438   0.8267   0.8267   2.9048   2.9048   3.4412   3.4412
     4.0075   4.0075   4.3389   4.3389   5.4709   5.4709   6.2943   6.2943
    10.4117  10.4117  10.4597  10.4597  12.0448  12.0448  12.0529  12.0529
    13.0397  13.0397  14.0056  14.0056  14.0160  14.0160  15.0962  15.0962
    16.7472  16.7472  17.2652  17.2652  17.8472  17.8472  19.3230  19.3230
    19.8088  19.8088  19.8766  19.8766  20.3073  20.3073  20.3877  20.3877
    21.2167  21.2167  21.2184  21.2184  21.9421  21.9421  22.3732  22.3732
    22.7563  22.7563  23.1121  23.1121  24.5752  24.5752  24.8134  24.8134
    25.0822  25.0822  25.6778  25.6778  25.7589  25.7589  26.7312  26.7312
    27.2319  27.2319  27.6130  27.6130

          k = 0.5000 0.4365 0.0087 (  8220 PWs)   bands (ev):

   -13.6618 -13.6618 -13.6551 -13.6551 -13.6240 -13.6240 -13.6167 -13.6167
   -13.6060 -13.6060 -13.6003 -13.6003 -13.5899 -13.5899 -13.5790 -13.5790
   -13.5579 -13.5579 -13.5504 -13.5504  -4.6624  -4.6624  -4.6570  -4.6570
     0.7438   0.7438   0.8265   0.8265   2.9059   2.9059   3.4420   3.4420
     4.0050   4.0050   4.3373   4.3373   5.4740   5.4740   6.2944   6.2944
    10.4105  10.4105  10.4589  10.4589  12.0419  12.0419  12.0514  12.0514
    13.0465  13.0465  14.0064  14.0064  14.0160  14.0160  15.0983  15.0983
    16.7444  16.7444  17.2646  17.2646  17.8484  17.8484  19.3186  19.3186
    19.8056  19.8056  19.8731  19.8731  20.3040  20.3040  20.3848  20.3848
    21.2236  21.2236  21.2258  21.2258  21.9418  21.9418  22.3697  22.3697
    22.7605  22.7605  23.1216  23.1216  24.5755  24.5755  24.8133  24.8133
    25.0730  25.0730  25.6897  25.6897  25.7563  25.7563  26.7336  26.7336
    27.2264  27.2264  27.6076  27.6076

          k = 0.5000 0.4365 0.0174 (  8212 PWs)   bands (ev):

   -13.6618 -13.6618 -13.6551 -13.6551 -13.6240 -13.6240 -13.6167 -13.6167
   -13.6059 -13.6059 -13.6003 -13.6003 -13.5898 -13.5898 -13.5791 -13.5791
   -13.5579 -13.5579 -13.5504 -13.5504  -4.6624  -4.6624  -4.6570  -4.6570
     0.7441   0.7441   0.8260   0.8260   2.9091   2.9091   3.4443   3.4443
     3.9974   3.9974   4.3325   4.3325   5.4831   5.4831   6.2947   6.2947
    10.4068  10.4068  10.4564  10.4564  12.0334  12.0334  12.0469  12.0469
    13.0666  13.0666  14.0088  14.0088  14.0162  14.0162  15.1044  15.1044
    16.7362  16.7362  17.2630  17.2630  17.8521  17.8521  19.3051  19.3051
    19.7964  19.7964  19.8627  19.8627  20.2949  20.2949  20.3766  20.3766
    21.2437  21.2437  21.2471  21.2471  21.9410  21.9410  22.3597  22.3597
    22.7731  22.7731  23.1492  23.1492  24.5764  24.5764  24.8133  24.8133
    25.0479  25.0479  25.7233  25.7233  25.7487  25.7487  26.7404  26.7404
    27.2106  27.2106  27.5914  27.5914

          k = 0.5000 0.4365 0.0261 (  8212 PWs)   bands (ev):

   -13.6617 -13.6617 -13.6552 -13.6552 -13.6240 -13.6240 -13.6168 -13.6168
   -13.6059 -13.6059 -13.6004 -13.6004 -13.5897 -13.5897 -13.5792 -13.5792
   -13.5578 -13.5578 -13.5504 -13.5504  -4.6624  -4.6624  -4.6571  -4.6571
     0.7445   0.7445   0.8251   0.8251   2.9145   2.9145   3.4480   3.4480
     3.9853   3.9853   4.3246   4.3246   5.4980   5.4980   6.2951   6.2951
    10.4007  10.4007  10.4524  10.4524  12.0201  12.0201  12.0397  12.0397
    13.0989  13.0989  14.0130  14.0130  14.0163  14.0163  15.1143  15.1143
    16.7229  16.7229  17.2602  17.2602  17.8580  17.8580  19.2824  19.2824
    19.7816  19.7816  19.8459  19.8459  20.2821  20.2821  20.3647  20.3647
    21.2744  21.2744  21.2802  21.2802  21.9399  21.9399  22.3448  22.3448
    22.7939  22.7939  23.1932  23.1932  24.5772  24.5772  24.8133  24.8133
    25.0126  25.0126  25.7366  25.7366  25.7734  25.7734  26.7508  26.7508
    27.1856  27.1856  27.5647  27.5647

          k = 0.5000 0.4365 0.0347 (  8216 PWs)   bands (ev):

   -13.6617 -13.6617 -13.6552 -13.6552 -13.6239 -13.6239 -13.6169 -13.6169
   -13.6058 -13.6058 -13.6004 -13.6004 -13.5896 -13.5896 -13.5793 -13.5793
   -13.5577 -13.5577 -13.5505 -13.5505  -4.6623  -4.6623  -4.6571  -4.6571
     0.7451   0.7451   0.8239   0.8239   2.9221   2.9221   3.4531   3.4531
     3.9690   3.9690   4.3136   4.3136   5.5183   5.5183   6.2954   6.2954
    10.3925  10.3925  10.4468  10.4468  12.0033  12.0033  12.0299  12.0299
    13.1418  13.1418  14.0164  14.0164  14.0190  14.0190  15.1272  15.1272
    16.7054  16.7054  17.2561  17.2561  17.8660  17.8660  19.2502  19.2502
    19.7616  19.7616  19.8237  19.8237  20.2681  20.2681  20.3506  20.3506
    21.3130  21.3130  21.3224  21.3224  21.9389  21.9389  22.3268  22.3268
    22.8227  22.8227  23.2515  23.2515  24.5767  24.5767  24.8133  24.8133
    24.9732  24.9732  25.7205  25.7205  25.8350  25.8350  26.7632  26.7632
    27.1533  27.1533  27.5279  27.5279

          k = 0.5000 0.4365 0.0434 (  8212 PWs)   bands (ev):

   -13.6616 -13.6616 -13.6553 -13.6553 -13.6238 -13.6238 -13.6171 -13.6171
   -13.6057 -13.6057 -13.6005 -13.6005 -13.5894 -13.5894 -13.5794 -13.5794
   -13.5576 -13.5576 -13.5506 -13.5506  -4.6622  -4.6622  -4.6572  -4.6572
     0.7458   0.7458   0.8224   0.8224   2.9317   2.9317   3.4594   3.4594
     3.9491   3.9491   4.2998   4.2998   5.5434   5.5434   6.2955   6.2955
    10.3825  10.3825  10.4398  10.4398  11.9842  11.9842  12.0178  12.0178
    13.1937  13.1937  14.0163  14.0163  14.0270  14.0270  15.1424  15.1424
    16.6844  16.6844  17.2506  17.2506  17.8759  17.8759  19.2087  19.2087
    19.7377  19.7377  19.7974  19.7974  20.2549  20.2549  20.3361  20.3361
    21.3563  21.3563  21.3704  21.3704  21.9387  21.9387  22.3077  22.3077
    22.8592  22.8592  23.3215  23.3215  24.5732  24.5732  24.8137  24.8137
    24.9357  24.9357  25.7014  25.7014  25.9042  25.9042  26.7758  26.7758
    27.1158  27.1158  27.4811  27.4811

          k = 0.5000 0.4365 0.0521 (  8216 PWs)   bands (ev):

   -13.6615 -13.6615 -13.6554 -13.6554 -13.6237 -13.6237 -13.6172 -13.6172
   -13.6056 -13.6056 -13.6007 -13.6007 -13.5892 -13.5892 -13.5796 -13.5796
   -13.5574 -13.5574 -13.5507 -13.5507  -4.6621  -4.6621  -4.6573  -4.6573
     0.7467   0.7467   0.8205   0.8205   2.9435   2.9435   3.4665   3.4665
     3.9265   3.9265   4.2834   4.2834   5.5727   5.5727   6.2952   6.2952
    10.3709  10.3709  10.4313  10.4313  11.9639  11.9639  12.0040  12.0040
    13.2527  13.2527  14.0158  14.0158  14.0373  14.0373  15.1588  15.1588
    16.6613  16.6613  17.2437  17.2437  17.8874  17.8874  19.1580  19.1580
    19.7107  19.7107  19.7687  19.7687  20.2435  20.2435  20.3220  20.3220
    21.4018  21.4018  21.4212  21.4212  21.9398  21.9398  22.2888  22.2888
    22.9029  22.9029  23.4011  23.4011  24.5644  24.5644  24.8144  24.8144
    24.9050  24.9050  25.6800  25.6800  25.9780  25.9780  26.7860  26.7860
    27.0752  27.0752  27.4240  27.4240

          k = 0.5000 0.4365 0.0608 (  8208 PWs)   bands (ev):

   -13.6613 -13.6613 -13.6556 -13.6556 -13.6236 -13.6236 -13.6174 -13.6174
   -13.6055 -13.6055 -13.6008 -13.6008 -13.5889 -13.5889 -13.5798 -13.5798
   -13.5572 -13.5572 -13.5508 -13.5508  -4.6620  -4.6620  -4.6574  -4.6574
     0.7478   0.7478   0.8184   0.8184   2.9573   2.9573   3.4740   3.4740
     3.9022   3.9022   4.2644   4.2644   5.6055   5.6055   6.2942   6.2942
    10.3583  10.3583  10.4215  10.4215  11.9434  11.9434  11.9887  11.9887
    13.3170  13.3170  14.0148  14.0148  14.0504  14.0504  15.1750  15.1750
    16.6375  16.6375  17.2349  17.2349  17.9004  17.9004  19.0989  19.0989
    19.6820  19.6820  19.7392  19.7392  20.2344  20.2344  20.3092  20.3092
    21.4472  21.4472  21.4721  21.4721  21.9432  21.9432  22.2713  22.2713
    22.9532  22.9532  23.4880  23.4880  24.5484  24.5484  24.8157  24.8157
    24.8855  24.8855  25.6571  25.6571  26.0543  26.0543  26.7911  26.7911
    27.0334  27.0334  27.3560  27.3560

          k = 0.5000 0.4365 0.0695 (  8212 PWs)   bands (ev):

   -13.6612 -13.6612 -13.6557 -13.6557 -13.6235 -13.6235 -13.6176 -13.6176
   -13.6053 -13.6053 -13.6009 -13.6009 -13.5887 -13.5887 -13.5801 -13.5801
   -13.5570 -13.5570 -13.5509 -13.5509  -4.6619  -4.6619  -4.6575  -4.6575
     0.7491   0.7491   0.8160   0.8160   2.9731   2.9731   3.4815   3.4815
     3.8771   3.8771   4.2432   4.2432   5.6413   5.6413   6.2922   6.2922
    10.3450  10.3450  10.4106  10.4106  11.9234  11.9234  11.9724  11.9724
    13.3848  13.3848  14.0133  14.0133  14.0669  14.0669  15.1893  15.1893
    16.6147  16.6147  17.2242  17.2242  17.9147  17.9147  19.0325  19.0325
    19.6527  19.6527  19.7098  19.7098  20.2275  20.2275  20.2977  20.2977
    21.4907  21.4907  21.5206  21.5206  21.9497  21.9497  22.2560  22.2560
    23.0096  23.0096  23.5799  23.5799  24.5252  24.5252  24.8180  24.8180
    24.8791  24.8791  25.6333  25.6333  26.1313  26.1313  26.7881  26.7881
    26.9921  26.9921  27.2761  27.2761

          k = 0.5000 0.4365 0.0782 (  8212 PWs)   bands (ev):

   -13.6610 -13.6610 -13.6559 -13.6559 -13.6234 -13.6234 -13.6179 -13.6179
   -13.6052 -13.6052 -13.6011 -13.6011 -13.5884 -13.5884 -13.5803 -13.5803
   -13.5568 -13.5568 -13.5511 -13.5511  -4.6618  -4.6618  -4.6577  -4.6577
     0.7505   0.7505   0.8134   0.8134   2.9908   2.9908   3.4879   3.4879
     3.8525   3.8525   4.2199   4.2199   5.6794   5.6794   6.2889   6.2889
    10.3315  10.3315  10.3986  10.3986  11.9046  11.9046  11.9556  11.9556
    13.4542  13.4542  14.0109  14.0109  14.0874  14.0874  15.1997  15.1997
    16.5949  16.5949  17.2111  17.2111  17.9301  17.9301  18.9605  18.9605
    19.6238  19.6238  19.6815  19.6815  20.2226  20.2226  20.2876  20.2876
    21.5312  21.5312  21.5644  21.5644  21.9602  21.9602  22.2434  22.2434
    23.0712  23.0712  23.6738  23.6738  24.4973  24.4973  24.8215  24.8215
    24.8856  24.8856  25.6092  25.6092  26.2071  26.2071  26.7743  26.7743
    26.9521  26.9521  27.1842  27.1842

          k = 0.5000 0.4365 0.0868 (  8212 PWs)   bands (ev):

   -13.6609 -13.6609 -13.6561 -13.6561 -13.6232 -13.6232 -13.6181 -13.6181
   -13.6050 -13.6050 -13.6012 -13.6012 -13.5881 -13.5881 -13.5806 -13.5806
   -13.5566 -13.5566 -13.5513 -13.5513  -4.6616  -4.6616  -4.6578  -4.6578
     0.7521   0.7521   0.8106   0.8106   3.0105   3.0105   3.4923   3.4923
     3.8301   3.8301   4.1949   4.1949   5.7193   5.7193   6.2841   6.2841
    10.3182  10.3182  10.3859  10.3859  11.8872  11.8872  11.9385  11.9385
    13.5232  13.5232  14.0078  14.0078  14.1130  14.1130  15.2044  15.2044
    16.5799  16.5799  17.1955  17.1955  17.9466  17.9466  18.8845  18.8845
    19.5963  19.5963  19.6547  19.6547  20.2194  20.2194  20.2789  20.2789
    21.5676  21.5676  21.6020  21.6020  21.9752  21.9752  22.2336  22.2336
    23.1372  23.1372  23.7659  23.7659  24.4695  24.4695  24.8266  24.8266
    24.9035  24.9035  25.5855  25.5855  26.2795  26.2795  26.7479  26.7479
    26.9134  26.9134  27.0821  27.0821

          k = 0.5000 0.4365 0.0955 (  8208 PWs)   bands (ev):

   -13.6607 -13.6607 -13.6563 -13.6563 -13.6230 -13.6230 -13.6184 -13.6184
   -13.6048 -13.6048 -13.6014 -13.6014 -13.5877 -13.5877 -13.5809 -13.5809
   -13.5563 -13.5563 -13.5514 -13.5514  -4.6615  -4.6615  -4.6580  -4.6580
     0.7539   0.7539   0.8076   0.8076   3.0319   3.0319   3.4932   3.4932
     3.8114   3.8114   4.1684   4.1684   5.7602   5.7602   6.2774   6.2774
    10.3056  10.3056  10.3725  10.3725  11.8716  11.8716  11.9217  11.9217
    13.5897  13.5897  14.0038  14.0038  14.1450  14.1450  15.2013  15.2013
    16.5717  16.5717  17.1769  17.1769  17.9643  17.9643  18.8062  18.8062
    19.5710  19.5710  19.6294  19.6294  20.2176  20.2176  20.2712  20.2712
    21.5995  21.5995  21.6325  21.6325  21.9949  21.9949  22.2268  22.2268
    23.2062  23.2062  23.8506  23.8506  24.4482  24.4482  24.8335  24.8335
    24.9311  24.9311  25.5626  25.5626  26.3446  26.3446  26.7075  26.7075
    26.8758  26.8758  26.9745  26.9745

          k = 0.5000 0.4365 0.1042 (  8208 PWs)   bands (ev):

   -13.6605 -13.6605 -13.6565 -13.6565 -13.6228 -13.6228 -13.6186 -13.6186
   -13.6047 -13.6047 -13.6016 -13.6016 -13.5874 -13.5874 -13.5812 -13.5812
   -13.5560 -13.5560 -13.5516 -13.5516  -4.6613  -4.6613  -4.6581  -4.6581
     0.7559   0.7559   0.8044   0.8044   3.0552   3.0552   3.4891   3.4891
     3.7984   3.7984   4.1406   4.1406   5.8019   5.8019   6.2687   6.2687
    10.2940  10.2940  10.3588  10.3588  11.8579  11.8579  11.9055  11.9055
    13.6515  13.6515  13.9989  13.9989  14.1847  14.1847  15.1888  15.1888
    16.5717  16.5717  17.1551  17.1551  17.9832  17.9832  18.7275  18.7275
    19.5482  19.5482  19.6058  19.6058  20.2168  20.2168  20.2646  20.2646
    21.6264  21.6264  21.6559  21.6559  22.0186  22.0186  22.2225  22.2225
    23.2773  23.2773  23.9198  23.9198  24.4414  24.4414  24.8423  24.8423
    24.9674  24.9674  25.5413  25.5413  26.3959  26.3959  26.6519  26.6519
    26.8405  26.8405  26.8700  26.8700

          k = 0.5000 0.4365 0.1129 (  8204 PWs)   bands (ev):

   -13.6603 -13.6603 -13.6567 -13.6567 -13.6226 -13.6226 -13.6189 -13.6189
   -13.6045 -13.6045 -13.6018 -13.6018 -13.5870 -13.5870 -13.5815 -13.5815
   -13.5558 -13.5558 -13.5519 -13.5519  -4.6611  -4.6611  -4.6583  -4.6583
     0.7580   0.7580   0.8012   0.8012   3.0801   3.0801   3.4791   3.4791
     3.7922   3.7922   4.1118   4.1118   5.8436   5.8436   6.2577   6.2577
    10.2838  10.2838  10.3450  10.3450  11.8462  11.8462  11.8900  11.8900
    13.7071  13.7071  13.9930  13.9930  14.2329  14.2329  15.1659  15.1659
    16.5808  16.5808  17.1296  17.1296  18.0035  18.0035  18.6497  18.6497
    19.5286  19.5286  19.5839  19.5839  20.2169  20.2169  20.2587  20.2587
    21.6486  21.6486  21.6732  21.6732  22.0450  22.0450  22.2205  22.2205
    23.3489  23.3489  23.9643  23.9643  24.4572  24.4572  24.8529  24.8529
    25.0122  25.0122  25.5225  25.5225  26.4196  26.4196  26.5804  26.5804
    26.7839  26.7839  26.8094  26.8094

          k = 0.5000 0.4365 0.1216 (  8188 PWs)   bands (ev):

   -13.6600 -13.6600 -13.6570 -13.6570 -13.6224 -13.6224 -13.6192 -13.6192
   -13.6043 -13.6043 -13.6019 -13.6019 -13.5866 -13.5866 -13.5819 -13.5819
   -13.5555 -13.5555 -13.5521 -13.5521  -4.6609  -4.6609  -4.6585  -4.6585
     0.7604   0.7604   0.7978   0.7978   3.1066   3.1066   3.4629   3.4629
     3.7934   3.7934   4.0823   4.0823   5.8850   5.8850   6.2442   6.2442
    10.2753  10.2753  10.3313  10.3313  11.8365  11.8365  11.8757  11.8757
    13.7553  13.7553  13.9862  13.9862  14.2901  14.2901  15.1321  15.1321
    16.5993  16.5993  17.1002  17.1002  18.0255  18.0255  18.5743  18.5743
    19.5123  19.5123  19.5638  19.5638  20.2176  20.2176  20.2535  20.2535
    21.6662  21.6662  21.6855  21.6855  22.0725  22.0725  22.2198  22.2198
    23.4199  23.4199  23.9803  23.9803  24.4977  24.4977  24.8642  24.8642
    25.0656  25.0656  25.5075  25.5075  26.3963  26.3963  26.4944  26.4944
    26.7366  26.7366  26.7842  26.7842

          k = 0.5000 0.4365 0.1303 (  8180 PWs)   bands (ev):

   -13.6598 -13.6598 -13.6572 -13.6572 -13.6222 -13.6222 -13.6195 -13.6195
   -13.6041 -13.6041 -13.6021 -13.6021 -13.5862 -13.5862 -13.5823 -13.5823
   -13.5552 -13.5552 -13.5523 -13.5523  -4.6608  -4.6608  -4.6587  -4.6587
     0.7629   0.7629   0.7944   0.7944   3.1345   3.1345   3.4411   3.4411
     3.8014   3.8014   4.0524   4.0524   5.9258   5.9258   6.2281   6.2281
    10.2688  10.2688  10.3182  10.3182  11.8290  11.8290  11.8627  11.8627
    13.7960  13.7960  13.9782  13.9782  14.3555  14.3555  15.0877  15.0877
    16.6267  16.6267  17.0668  17.0668  18.0495  18.0495  18.5023  18.5023
    19.4995  19.4995  19.5455  19.5455  20.2189  20.2189  20.2488  20.2488
    21.6798  21.6798  21.6941  21.6941  22.0996  22.0996  22.2197  22.2197
    23.4891  23.4891  23.9723  23.9723  24.5561  24.5561  24.8749  24.8749
    25.1280  25.1280  25.4976  25.4976  26.3269  26.3269  26.3972  26.3972
    26.7282  26.7282  26.7652  26.7652

          k = 0.5000 0.4365 0.1389 (  8168 PWs)   bands (ev):

   -13.6596 -13.6596 -13.6575 -13.6575 -13.6219 -13.6219 -13.6197 -13.6197
   -13.6039 -13.6039 -13.6023 -13.6023 -13.5858 -13.5858 -13.5826 -13.5826
   -13.5549 -13.5549 -13.5526 -13.5526  -4.6606  -4.6606  -4.6589  -4.6589
     0.7655   0.7655   0.7910   0.7910   3.1637   3.1637   3.4150   3.4150
     3.8151   3.8151   4.0223   4.0223   5.9654   5.9654   6.2092   6.2092
    10.2644  10.2644  10.3057  10.3057  11.8235  11.8235  11.8511  11.8511
    13.8299  13.8299  13.9692  13.9692  14.4278  14.4278  15.0336  15.0336
    16.6617  16.6617  17.0293  17.0293  18.0760  18.0760  18.4347  18.4347
    19.4903  19.4903  19.5292  19.5292  20.2206  20.2206  20.2446  20.2446
    21.6899  21.6899  21.6999  21.6999  22.1252  22.1252  22.2193  22.2193
    23.5555  23.5555  23.9484  23.9484  24.6218  24.6218  24.8826  24.8826
    25.1989  25.1989  25.4941  25.4941  26.2362  26.2362  26.2938  26.2938
    26.7358  26.7358  26.7524  26.7524

          k = 0.5000 0.4365 0.1476 (  8168 PWs)   bands (ev):

   -13.6593 -13.6593 -13.6577 -13.6577 -13.6217 -13.6217 -13.6200 -13.6200
   -13.6037 -13.6037 -13.6025 -13.6025 -13.5854 -13.5854 -13.5830 -13.5830
   -13.5546 -13.5546 -13.5528 -13.5528  -4.6603  -4.6603  -4.6591  -4.6591
     0.7683   0.7683   0.7875   0.7875   3.1941   3.1941   3.3859   3.3859
     3.8333   3.8333   3.9922   3.9922   6.0036   6.0036   6.1876   6.1876
    10.2623  10.2623  10.2944  10.2944  11.8201  11.8201  11.8412  11.8412
    13.8581  13.8581  13.9589  13.9589  14.5051  14.5051  14.9711  14.9711
    16.7030  16.7030  16.9880  16.9880  18.1054  18.1054  18.3721  18.3721
    19.4845  19.4845  19.5150  19.5150  20.2227  20.2227  20.2407  20.2407
    21.6972  21.6972  21.7037  21.7037  22.1483  22.1483  22.2176  22.2176
    23.6183  23.6183  23.9149  23.9149  24.6862  24.6862  24.8844  24.8844
    25.2766  25.2766  25.4972  25.4972  26.1445  26.1445  26.1906  26.1906
    26.7439  26.7439  26.7449  26.7449

          k = 0.5000 0.4365 0.1563 (  8156 PWs)   bands (ev):

   -13.6590 -13.6590 -13.6580 -13.6580 -13.6214 -13.6214 -13.6203 -13.6203
   -13.6035 -13.6035 -13.6027 -13.6027 -13.5850 -13.5850 -13.5834 -13.5834
   -13.5543 -13.5543 -13.5531 -13.5531  -4.6601  -4.6601  -4.6593  -4.6593
     0.7713   0.7713   0.7841   0.7841   3.2255   3.2255   3.3548   3.3548
     3.8551   3.8551   3.9626   3.9626   6.0400   6.0400   6.1633   6.1633
    10.2624  10.2624  10.2844  10.2844  11.8188  11.8188  11.8330  11.8330
    13.8818  13.8818  13.9473  13.9473  14.5855  14.5855  14.9016  14.9016
    16.7487  16.7487  16.9432  16.9432  18.1382  18.1382  18.3148  18.3148
    19.4821  19.4821  19.5031  19.5031  20.2251  20.2251  20.2371  20.2371
    21.7021  21.7021  21.7060  21.7060  22.1683  22.1683  22.2139  22.2139
    23.6773  23.6773  23.8754  23.8754  24.7444  24.7444  24.8777  24.8777
    25.3562  25.3562  25.5032  25.5032  26.0647  26.0647  26.0965  26.0965
    26.7420  26.7420  26.7476  26.7476

          k = 0.5000 0.4365 0.1650 (  8168 PWs)   bands (ev):

   -13.6588 -13.6588 -13.6582 -13.6582 -13.6212 -13.6212 -13.6206 -13.6206
   -13.6033 -13.6033 -13.6029 -13.6029 -13.5846 -13.5846 -13.5838 -13.5838
   -13.5540 -13.5540 -13.5534 -13.5534  -4.6599  -4.6599  -4.6595  -4.6595
     0.7743   0.7743   0.7808   0.7808   3.2575   3.2575   3.3227   3.3227
     3.8794   3.8794   3.9337   3.9337   6.0744   6.0744   6.1362   6.1362
    10.2648  10.2648  10.2760  10.2760  11.8194  11.8194  11.8266  11.8266
    13.9018  13.9018  13.9341  13.9341  14.6671  14.6671  14.8267  14.8267
    16.7971  16.7971  16.8958  16.8958  18.1751  18.1751  18.2630  18.2630
    19.4829  19.4829  19.4936  19.4936  20.2277  20.2277  20.2337  20.2337
    21.7052  21.7052  21.7070  21.7070  22.1849  22.1849  22.2075  22.2075
    23.7324  23.7324  23.8314  23.8314  24.7936  24.7936  24.8607  24.8607
    25.4284  25.4284  25.5025  25.5025  26.0095  26.0095  26.0251  26.0251
    26.7425  26.7425  26.7473  26.7473

          k = 0.5000 0.4365 0.1737 (  8160 PWs)   bands (ev):

   -13.6585 -13.6585 -13.6585 -13.6585 -13.6209 -13.6209 -13.6209 -13.6209
   -13.6031 -13.6031 -13.6031 -13.6031 -13.5842 -13.5842 -13.5842 -13.5842
   -13.5537 -13.5537 -13.5537 -13.5537  -4.6597  -4.6597  -4.6597  -4.6597
     0.7775   0.7775   0.7775   0.7775   3.2901   3.2901   3.2901   3.2901
     3.9058   3.9058   3.9058   3.9058   6.1065   6.1065   6.1065   6.1065
    10.2694  10.2694  10.2694  10.2694  11.8220  11.8220  11.8220  11.8220
    13.9191  13.9191  13.9191  13.9191  14.7480  14.7480  14.7480  14.7480
    16.8466  16.8466  16.8466  16.8466  18.2166  18.2166  18.2166  18.2166
    19.4868  19.4868  19.4868  19.4868  20.2306  20.2306  20.2306  20.2306
    21.7067  21.7067  21.7067  21.7067  22.1979  22.1979  22.1979  22.1979
    23.7837  23.7837  23.7837  23.7837  24.8326  24.8326  24.8326  24.8326
    25.4800  25.4800  25.4800  25.4800  25.9934  25.9934  25.9934  25.9934
    26.7449  26.7449  26.7449  26.7449

          k = 0.4750 0.4146 0.1737 (  8164 PWs)   bands (ev):

   -13.6586 -13.6586 -13.6581 -13.6581 -13.6214 -13.6214 -13.6205 -13.6205
   -13.6035 -13.6035 -13.6027 -13.6027 -13.5848 -13.5848 -13.5837 -13.5837
   -13.5542 -13.5542 -13.5533 -13.5533  -4.6763  -4.6763  -4.6529  -4.6529
     0.7329   0.7329   0.8189   0.8189   3.2322   3.2322   3.3273   3.3273
     3.9018   3.9018   3.9927   3.9927   6.0841   6.0841   6.1247   6.1247
    10.2222  10.2222  10.3314  10.3314  11.7741  11.7741  11.8266  11.8266
    13.8525  13.8525  13.9049  13.9049  14.7186  14.7186  14.7855  14.7855
    16.7894  16.7894  16.9008  16.9008  18.2170  18.2170  18.2737  18.2737
    19.3693  19.3693  19.5381  19.5381  20.1147  20.1147  20.3524  20.3524
    21.6215  21.6215  21.7328  21.7328  22.1964  22.1964  22.3411  22.3411
    23.6867  23.6867  23.7850  23.7850  24.5995  24.5995  25.0418  25.0418
    25.3202  25.3202  25.6860  25.6860  25.8665  25.8665  26.1300  26.1300
    26.5338  26.5338  27.0559  27.0559

          k = 0.4500 0.3928 0.1737 (  8188 PWs)   bands (ev):

   -13.6583 -13.6583 -13.6572 -13.6572 -13.6220 -13.6220 -13.6202 -13.6202
   -13.6041 -13.6041 -13.6025 -13.6025 -13.5855 -13.5855 -13.5833 -13.5833
   -13.5548 -13.5548 -13.5530 -13.5530  -4.7093  -4.7093  -4.6489  -4.6489
     0.6847   0.6847   0.8582   0.8582   3.1492   3.1492   3.3830   3.3830
     3.9399   3.9399   4.1652   4.1652   6.0416   6.0416   6.1569   6.1569
    10.1887  10.1887  10.4042  10.4042  11.6570  11.6570  11.8222  11.8222
    13.6684  13.6684  13.8621  13.8621  14.7088  14.7088  14.8126  14.8126
    16.7317  16.7317  16.9623  16.9623  18.2184  18.2184  18.3994  18.3994
    19.2264  19.2264  19.4498  19.4498  20.0869  20.0869  20.4886  20.4886
    21.4265  21.4265  21.7645  21.7645  22.3793  22.3793  22.5375  22.5375
    23.4381  23.4381  23.7160  23.7160  24.5907  24.5907  24.9374  24.9374
    25.2325  25.2325  25.7206  25.7206  25.9058  25.9058  26.3009  26.3009
    26.6592  26.6592  27.1002  27.1002

          k = 0.4250 0.3710 0.1737 (  8198 PWs)   bands (ev):

   -13.6577 -13.6577 -13.6561 -13.6561 -13.6228 -13.6228 -13.6201 -13.6201
   -13.6046 -13.6046 -13.6022 -13.6022 -13.5862 -13.5862 -13.5828 -13.5828
   -13.5556 -13.5556 -13.5529 -13.5529  -4.7599  -4.7599  -4.6449  -4.6449
     0.6330   0.6330   0.8976   0.8976   3.0742   3.0742   3.4639   3.4639
     4.0085   4.0085   4.3839   4.3839   5.9804   5.9804   6.2097   6.2097
    10.1631  10.1631  10.4787  10.4787  11.4848  11.4848  11.8174  11.8174
    13.3985  13.3985  13.7935  13.7935  14.7152  14.7152  14.8241  14.8241
    16.6861  16.6861  17.0351  17.0351  18.1683  18.1683  18.5187  18.5187
    19.1127  19.1127  19.2569  19.2569  20.1945  20.1945  20.5732  20.5732
    21.2920  21.2920  21.7777  21.7777  22.5867  22.5867  22.7403  22.7403
    23.1857  23.1857  23.5941  23.5941  24.7034  24.7034  24.7622  24.7622
    25.0441  25.0441  25.6945  25.6945  25.9505  25.9505  26.5286  26.5286
    26.9950  26.9950  27.1254  27.1254

          k = 0.4000 0.3492 0.1737 (  8208 PWs)   bands (ev):

   -13.6568 -13.6568 -13.6546 -13.6546 -13.6237 -13.6237 -13.6203 -13.6203
   -13.6052 -13.6052 -13.6020 -13.6020 -13.5871 -13.5871 -13.5824 -13.5824
   -13.5564 -13.5564 -13.5530 -13.5530  -4.8268  -4.8268  -4.6404  -4.6404
     0.5782   0.5782   0.9406   0.9406   3.0251   3.0251   3.5629   3.5629
     4.1052   4.1052   4.6209   4.6209   5.9099   5.9099   6.2855   6.2855
    10.1345  10.1345  10.5424  10.5424  11.2845  11.2845  11.8181  11.8181
    13.0768  13.0768  13.7018  13.7018  14.7146  14.7146  14.8467  14.8467
    16.6559  16.6559  17.1038  17.1038  18.0181  18.0181  18.5058  18.5058
    19.0606  19.0606  19.1794  19.1794  20.2489  20.2489  20.5952  20.5952
    21.3880  21.3880  21.7640  21.7640  22.4962  22.4962  22.9201  22.9201
    23.1672  23.1672  23.5594  23.5594  24.5093  24.5093  24.8040  24.8040
    24.9347  24.9347  25.7012  25.7012  26.0245  26.0245  26.6494  26.6494
    27.0493  27.0493  27.4858  27.4858

          k = 0.3750 0.3274 0.1737 (  8226 PWs)   bands (ev):

   -13.6557 -13.6557 -13.6529 -13.6529 -13.6247 -13.6247 -13.6207 -13.6207
   -13.6058 -13.6058 -13.6017 -13.6017 -13.5880 -13.5880 -13.5820 -13.5820
   -13.5573 -13.5573 -13.5531 -13.5531  -4.9072  -4.9072  -4.6355  -4.6355
     0.5221   0.5221   0.9910   0.9910   3.0071   3.0071   3.6709   3.6709
     4.2239   4.2239   4.8584   4.8584   5.8432   5.8432   6.3855   6.3855
    10.0874  10.0874  10.5838  10.5838  11.0849  11.0849  11.8293  11.8293
    12.7342  12.7342  13.5894  13.5894  14.6896  14.6896  14.9136  14.9136
    16.6321  16.6321  17.1217  17.1217  17.7944  17.7944  18.3315  18.3315
    19.0936  19.0936  19.2619  19.2619  20.0437  20.0437  20.8072  20.8072
    21.5727  21.5727  21.7402  21.7402  22.2655  22.2655  22.8833  22.8833
    23.3175  23.3175  23.6864  23.6864  24.3735  24.3735  24.6789  24.6789
    25.0104  25.0104  25.7340  25.7340  26.2183  26.2183  26.5985  26.5985
    27.0720  27.0720  27.5698  27.5698

          k = 0.3500 0.3055 0.1737 (  8218 PWs)   bands (ev):

   -13.6544 -13.6544 -13.6510 -13.6510 -13.6260 -13.6260 -13.6214 -13.6214
   -13.6062 -13.6062 -13.6016 -13.6016 -13.5890 -13.5890 -13.5814 -13.5814
   -13.5581 -13.5581 -13.5534 -13.5534  -4.9979  -4.9979  -4.6305  -4.6305
     0.4672   0.4672   1.0523   1.0523   3.0199   3.0199   3.7807   3.7807
     4.3495   4.3495   5.0837   5.0837   5.7970   5.7970   6.5080   6.5080
    10.0086  10.0086  10.5993  10.5993  10.9070  10.9070  11.8522  11.8522
    12.4000  12.4000  13.4585  13.4585  14.6576  14.6576  15.0247  15.0247
    16.6014  16.6014  17.0101  17.0101  17.5767  17.5767  18.1377  18.1377
    19.1739  19.1739  19.3754  19.3754  19.8079  19.8079  21.0405  21.0405
    21.6016  21.6016  21.7505  21.7505  22.1453  22.1453  22.7770  22.7770
    23.3813  23.3813  23.8207  23.8207  24.4598  24.4598  24.5550  24.5550
    25.1829  25.1829  25.7034  25.7034  26.4107  26.4107  26.5356  26.5356
    27.0985  27.0985  27.4249  27.4249

          k = 0.3250 0.2837 0.1737 (  8226 PWs)   bands (ev):

   -13.6530 -13.6530 -13.6490 -13.6490 -13.6274 -13.6274 -13.6223 -13.6223
   -13.6065 -13.6065 -13.6015 -13.6015 -13.5899 -13.5899 -13.5807 -13.5807
   -13.5590 -13.5590 -13.5537 -13.5537  -5.0958  -5.0958  -4.6259  -4.6259
     0.4171   0.4171   1.1272   1.1272   3.0602   3.0602   3.8870   3.8870
     4.4601   4.4601   5.2886   5.2886   5.7891   5.7891   6.6443   6.6443
     9.9057   9.9057  10.5758  10.5758  10.7683  10.7683  11.8747  11.8747
    12.1100  12.1100  13.3119  13.3119  14.6320  14.6320  15.1770  15.1770
    16.5501  16.5501  16.7588  16.7588  17.3703  17.3703  18.0119  18.0119
    19.1947  19.1947  19.4310  19.4310  19.7274  19.7274  21.1471  21.1471
    21.5042  21.5042  21.7771  21.7771  22.1028  22.1028  22.7501  22.7501
    23.3414  23.3414  23.9124  23.9124  24.5133  24.5133  24.7435  24.7435
    25.3611  25.3611  25.6317  25.6317  26.2688  26.2688  26.6660  26.6660
    27.1039  27.1039  27.3156  27.3156

          k = 0.3000 0.2619 0.1737 (  8234 PWs)   bands (ev):

   -13.6517 -13.6517 -13.6469 -13.6469 -13.6288 -13.6288 -13.6236 -13.6236
   -13.6066 -13.6066 -13.6016 -13.6016 -13.5908 -13.5908 -13.5799 -13.5799
   -13.5599 -13.5599 -13.5541 -13.5541  -5.1975  -5.1975  -4.6220  -4.6220
     0.3756   0.3756   1.2170   1.2170   3.1237   3.1237   3.9832   3.9832
     4.5398   4.5398   5.4617   5.4617   5.8360   5.8360   6.7777   6.7777
     9.8118   9.8118  10.4571  10.4571  10.7167  10.7167  11.7911  11.7911
    11.9856  11.9856  13.1534  13.1534  14.6136  14.6136  15.3667  15.3667
    16.4354  16.4354  16.4837  16.4837  17.1424  17.1424  17.9462  17.9462
    19.0572  19.0572  19.4397  19.4397  19.8664  19.8664  21.0524  21.0524
    21.4290  21.4290  21.7859  21.7859  22.0866  22.0866  22.7825  22.7825
    23.2666  23.2666  24.0425  24.0425  24.4812  24.4812  25.0563  25.0563
    25.4038  25.4038  25.6231  25.6231  26.1818  26.1818  26.4944  26.4944
    27.1608  27.1608  27.3487  27.3487

          k = 0.2750 0.2401 0.1737 (  8234 PWs)   bands (ev):

   -13.6506 -13.6506 -13.6449 -13.6449 -13.6301 -13.6301 -13.6250 -13.6250
   -13.6066 -13.6066 -13.6019 -13.6019 -13.5916 -13.5916 -13.5789 -13.5789
   -13.5607 -13.5607 -13.5545 -13.5545  -5.3002  -5.3002  -4.6193  -4.6193
     0.3461   0.3461   1.3223   1.3223   3.2051   3.2051   4.0582   4.0582
     4.5956   4.5956   5.5786   5.5786   5.9472   5.9472   6.8885   6.8885
     9.7597   9.7597  10.2833  10.2833  10.7188  10.7188  11.6183  11.6183
    12.0136  12.0136  12.9896  12.9896  14.5949  14.5949  15.5739  15.5739
    16.1401  16.1401  16.3633  16.3633  16.9237  16.9237  17.8949  17.8949
    18.8575  18.8575  19.4370  19.4370  20.0660  20.0660  20.8215  20.8215
    21.3722  21.3722  21.7502  21.7502  22.1701  22.1701  22.7790  22.7790
    23.2105  23.2105  24.1219  24.1219  24.3552  24.3552  25.2600  25.2600
    25.4289  25.4289  25.5882  25.5882  26.1979  26.1979  26.4299  26.4299
    27.0612  27.0612  27.6202  27.6202

          k = 0.2500 0.2182 0.1737 (  8242 PWs)   bands (ev):

   -13.6499 -13.6499 -13.6430 -13.6430 -13.6311 -13.6311 -13.6265 -13.6265
   -13.6065 -13.6065 -13.6025 -13.6025 -13.5922 -13.5922 -13.5778 -13.5778
   -13.5614 -13.5614 -13.5549 -13.5549  -5.4013  -5.4013  -4.6179  -4.6179
     0.3308   0.3308   1.4429   1.4429   3.2983   3.2983   4.0988   4.0988
     4.6538   4.6538   5.6280   5.6280   6.0949   6.0949   6.9673   6.9673
     9.7393   9.7393  10.1531  10.1531  10.7291  10.7291  11.4858  11.4858
    12.0563  12.0563  12.8320  12.8320  14.5651  14.5651  15.6761  15.6761
    15.9184  15.9184  16.2759  16.2759  16.7562  16.7562  17.8263  17.8263
    18.6681  18.6681  19.4057  19.4057  20.2369  20.2369  20.5321  20.5321
    21.3126  21.3126  21.7520  21.7520  22.3043  22.3043  22.7009  22.7009
    23.1643  23.1643  23.9899  23.9899  24.1848  24.1848  25.2202  25.2202
    25.4212  25.4212  25.6843  25.6843  26.3178  26.3178  26.6045  26.6045
    27.0646  27.0646  27.8857  27.8857

          k = 0.2250 0.1964 0.1737 (  8234 PWs)   bands (ev):

   -13.6498 -13.6498 -13.6412 -13.6412 -13.6316 -13.6316 -13.6280 -13.6280
   -13.6064 -13.6064 -13.6030 -13.6030 -13.5927 -13.5927 -13.5767 -13.5767
   -13.5621 -13.5621 -13.5554 -13.5554  -5.4985  -5.4985  -4.6179  -4.6179
     0.3313   0.3313   1.5780   1.5780   3.3953   3.3953   4.1030   4.1030
     4.7350   4.7350   5.6178   5.6178   6.2235   6.2235   7.0213   7.0213
     9.6882   9.6882  10.1666  10.1666  10.7389  10.7389  11.3977  11.3977
    12.0943  12.0943  12.7001  12.7001  14.5160  14.5160  15.4792  15.4792
    15.8224  15.8224  16.3400  16.3400  16.6923  16.6923  17.7226  17.7226
    18.5081  18.5081  19.3559  19.3559  20.1622  20.1622  20.3921  20.3921
    21.2580  21.2580  21.7850  21.7850  22.3817  22.3817  22.6546  22.6546
    23.0250  23.0250  23.7739  23.7739  24.0757  24.0757  24.8961  24.8961
    25.3832  25.3832  25.9605  25.9605  26.5326  26.5326  26.8374  26.8374
    27.2300  27.2300  28.0724  28.0724

          k = 0.2000 0.1746 0.1737 (  8246 PWs)   bands (ev):

   -13.6505 -13.6505 -13.6397 -13.6397 -13.6319 -13.6319 -13.6290 -13.6290
   -13.6066 -13.6066 -13.6033 -13.6033 -13.5932 -13.5932 -13.5756 -13.5756
   -13.5625 -13.5625 -13.5558 -13.5558  -5.5899  -5.5899  -4.6194  -4.6194
     0.3476   0.3476   1.7261   1.7261   3.4839   3.4839   4.0892   4.0892
     4.8383   4.8383   5.5535   5.5535   6.2966   6.2966   7.0588   7.0588
     9.6382   9.6382  10.2884  10.2884  10.7543  10.7543  11.3500  11.3500
    12.1209  12.1209  12.6190  12.6190  14.4456  14.4456  15.2239  15.2239
    15.6856  15.6856  16.3695  16.3695  16.8507  16.8507  17.5886  17.5886
    18.3626  18.3626  19.3045  19.3045  19.8869  19.8869  20.3653  20.3653
    21.2078  21.2078  21.7405  21.7405  22.2793  22.2793  22.6631  22.6631
    22.9527  22.9527  23.6104  23.6104  24.0759  24.0759  24.5431  24.5431
    25.3110  25.3110  26.1093  26.1093  26.8093  26.8093  27.1342  27.1342
    27.4554  27.4554  28.0928  28.0928

          k = 0.1750 0.1528 0.1737 (  8242 PWs)   bands (ev):

   -13.6517 -13.6517 -13.6383 -13.6383 -13.6326 -13.6326 -13.6291 -13.6291
   -13.6073 -13.6073 -13.6032 -13.6032 -13.5935 -13.5935 -13.5747 -13.5747
   -13.5628 -13.5628 -13.5562 -13.5562  -5.6737  -5.6737  -4.6221  -4.6221
     0.3787   0.3787   1.8851   1.8851   3.5458   3.5458   4.0866   4.0866
     4.9502   4.9502   5.4463   5.4463   6.3056   6.3056   7.0746   7.0746
     9.6603   9.6603  10.4088  10.4088  10.7769  10.7769  11.3478  11.3478
    12.1555  12.1555  12.5987  12.5987  14.3592  14.3592  14.9855  14.9855
    15.5612  15.5612  16.3186  16.3186  17.1124  17.1124  17.4703  17.4703
    18.2012  18.2012  19.2555  19.2555  19.6618  19.6618  20.2501  20.2501
    21.1500  21.1500  21.4787  21.4787  22.1370  22.1370  22.5385  22.5385
    23.1678  23.1678  23.5290  23.5290  24.0461  24.0461  24.3674  24.3674
    25.2330  25.2330  26.1279  26.1279  27.0106  27.0106  27.4119  27.4119
    27.6102  27.6102  28.1077  28.1077

          k = 0.1500 0.1309 0.1737 (  8250 PWs)   bands (ev):

   -13.6532 -13.6532 -13.6374 -13.6374 -13.6334 -13.6334 -13.6283 -13.6283
   -13.6083 -13.6083 -13.6027 -13.6027 -13.5939 -13.5939 -13.5739 -13.5739
   -13.5629 -13.5629 -13.5566 -13.5566  -5.7488  -5.7488  -4.6257  -4.6257
     0.4223   0.4223   2.0519   2.0519   3.5638   3.5638   4.1188   4.1188
     5.0446   5.0446   5.3289   5.3289   6.2535   6.2535   7.0693   7.0693
     9.7589   9.7589  10.4864  10.4864  10.7788  10.7788  11.3899  11.3899
    12.2548  12.2548  12.6171  12.6171  14.2643  14.2643  14.7907  14.7907
    15.4720  15.4720  16.2523  16.2523  17.1576  17.1576  17.5526  17.5526
    18.0322  18.0322  19.1763  19.1763  19.5105  19.5105  20.1034  20.1034
    21.0532  21.0532  21.1059  21.1059  21.9562  21.9562  22.4580  22.4580
    23.2734  23.2734  23.6296  23.6296  23.9579  23.9579  24.4325  24.4325
    25.2264  25.2264  26.0970  26.0970  26.8558  26.8558  27.4153  27.4153
    27.9530  27.9530  28.2918  28.2918

          k = 0.1250 0.1091 0.1737 (  8252 PWs)   bands (ev):

   -13.6548 -13.6548 -13.6374 -13.6374 -13.6335 -13.6335 -13.6274 -13.6274
   -13.6094 -13.6094 -13.6022 -13.6022 -13.5942 -13.5942 -13.5734 -13.5734
   -13.5628 -13.5628 -13.5569 -13.5569  -5.8139  -5.8139  -4.6298  -4.6298
     0.4749   0.4749   2.2222   2.2222   3.5398   3.5398   4.1854   4.1854
     5.0370   5.0370   5.2981   5.2981   6.1464   6.1464   7.0583   7.0583
     9.8858   9.8858  10.5285  10.5285  10.7748  10.7748  11.4402  11.4402
    12.4421  12.4421  12.6527  12.6527  14.1648  14.1648  14.6675  14.6675
    15.4264  15.4264  16.1751  16.1751  17.0111  17.0111  17.6204  17.6204
    18.0097  18.0097  19.0130  19.0130  19.4063  19.4063  20.0253  20.0253
    20.6658  20.6658  21.0003  21.0003  21.8275  21.8275  22.3078  22.3078
    23.1663  23.1663  23.8084  23.8084  24.0751  24.0751  24.5635  24.5635
    25.3580  25.3580  25.9737  25.9737  26.5002  26.5002  27.4818  27.4818
    28.2022  28.2022  28.5601  28.5601

          k = 0.1000 0.0873 0.1737 (  8260 PWs)   bands (ev):

   -13.6563 -13.6563 -13.6381 -13.6381 -13.6329 -13.6329 -13.6264 -13.6264
   -13.6104 -13.6104 -13.6016 -13.6016 -13.5945 -13.5945 -13.5731 -13.5731
   -13.5625 -13.5625 -13.5572 -13.5572  -5.8683  -5.8683  -4.6340  -4.6340
     0.5315   0.5315   2.3899   2.3899   3.4911   3.4911   4.2680   4.2680
     4.9221   4.9221   5.3707   5.3707   6.0018   6.0018   7.0536   7.0536
     9.9828   9.9828  10.4889  10.4889  10.8790  10.8790  11.4777  11.4777
    12.5687  12.5687  12.7947  12.7947  14.0665  14.0665  14.6361  14.6361
    15.4318  15.4318  16.0823  16.0823  16.8241  16.8241  17.4696  17.4696
    18.1608  18.1608  18.7710  18.7710  19.2955  19.2955  20.0103  20.0103
    20.3938  20.3938  20.9179  20.9179  21.7580  21.7580  22.1387  22.1387
    22.9808  22.9808  23.8444  23.8444  24.3307  24.3307  24.8059  24.8059
    25.5797  25.5797  25.6390  25.6390  26.3677  26.3677  27.5338  27.5338
    28.3156  28.3156  28.7802  28.7802

          k = 0.0750 0.0655 0.1737 (  8264 PWs)   bands (ev):

   -13.6576 -13.6576 -13.6389 -13.6389 -13.6322 -13.6322 -13.6256 -13.6256
   -13.6112 -13.6112 -13.6010 -13.6010 -13.5948 -13.5948 -13.5730 -13.5730
   -13.5622 -13.5622 -13.5574 -13.5574  -5.9112  -5.9112  -4.6378  -4.6378
     0.5860   0.5860   2.5463   2.5463   3.4335   3.4335   4.3482   4.3482
     4.8013   4.8013   5.4526   5.4526   5.8476   5.8476   7.0561   7.0561
    10.0331  10.0331  10.3962  10.3962  11.0790  11.0790  11.5101  11.5101
    12.5543  12.5543  13.0474  13.0474  13.9827  13.9827  14.6971  14.6971
    15.4925  15.4925  15.9719  15.9719  16.6248  16.6248  17.2761  17.2761
    18.2571  18.2571  18.5492  18.5492  19.0776  19.0776  19.9934  19.9934
    20.3895  20.3895  20.8539  20.8539  21.7131  21.7131  22.0332  22.0332
    22.8013  22.8013  23.7649  23.7649  24.5373  24.5373  24.9620  24.9620
    25.4463  25.4463  25.8451  25.8451  26.4095  26.4095  27.5365  27.5365
    28.3300  28.3300  28.7734  28.7734

          k = 0.0500 0.0436 0.1737 (  8242 PWs)   bands (ev):

   -13.6586 -13.6586 -13.6396 -13.6396 -13.6316 -13.6316 -13.6250 -13.6250
   -13.6119 -13.6119 -13.6005 -13.6005 -13.5950 -13.5950 -13.5729 -13.5729
   -13.5619 -13.5619 -13.5575 -13.5575  -5.9422  -5.9422  -4.6408  -4.6408
     0.6319   0.6319   2.6793   2.6793   3.3783   3.3783   4.4137   4.4137
     4.7060   4.7060   5.5132   5.5132   5.7164   5.7164   7.0617   7.0617
    10.0551  10.0551  10.3054  10.3054  11.2798  11.2798  11.5521  11.5521
    12.5019  12.5019  13.2597  13.2597  13.9240  13.9240  14.8307  14.8307
    15.5973  15.5973  15.8549  15.8549  16.4399  16.4399  17.0707  17.0707
    18.2402  18.2402  18.4397  18.4397  18.7896  18.7896  20.0542  20.0542
    20.4589  20.4589  20.8288  20.8288  21.6801  21.6801  22.0157  22.0157
    22.6835  22.6835  23.6736  23.6736  24.2566  24.2566  25.1708  25.1708
    25.6763  25.6763  26.0698  26.0698  26.5427  26.5427  27.4584  27.4584
    28.2853  28.2853  28.5568  28.5568

          k = 0.0250 0.0218 0.1737 (  8240 PWs)   bands (ev):

   -13.6592 -13.6592 -13.6400 -13.6400 -13.6312 -13.6312 -13.6246 -13.6246
   -13.6123 -13.6123 -13.6002 -13.6002 -13.5952 -13.5952 -13.5729 -13.5729
   -13.5617 -13.5617 -13.5576 -13.5576  -5.9609  -5.9609  -4.6427  -4.6427
     0.6626   0.6626   2.7726   2.7726   3.3361   3.3361   4.4563   4.4563
     4.6462   4.6462   5.5311   5.5311   5.6463   5.6463   7.0666   7.0666
    10.0658  10.0658  10.2406  10.2406  11.3999  11.3999  11.6190  11.6190
    12.4457  12.4457  13.3908  13.3908  13.8913  13.8913  14.9841  14.9841
    15.6639  15.6639  15.8096  15.8096  16.2861  16.2861  16.8975  16.8975
    18.1992  18.1992  18.3413  18.3413  18.6141  18.6141  20.1433  20.1433
    20.4710  20.4710  20.8387  20.8387  21.6948  21.6948  21.9988  21.9988
    22.6989  22.6989  23.5969  23.5969  23.8646  23.8646  25.4110  25.4110
    25.8863  25.8863  26.2661  26.2661  26.7015  26.7015  27.3123  27.3123
    28.2020  28.2020  28.3871  28.3871

          k = 0.0000 0.0000 0.1737 (  8224 PWs)   bands (ev):

   -13.6594 -13.6594 -13.6401 -13.6401 -13.6310 -13.6310 -13.6245 -13.6245
   -13.6124 -13.6124 -13.6000 -13.6000 -13.5953 -13.5953 -13.5729 -13.5729
   -13.5616 -13.5616 -13.5576 -13.5576  -5.9672  -5.9672  -4.6434  -4.6434
     0.6735   0.6735   2.8071   2.8071   3.3197   3.3197   4.4711   4.4711
     4.6258   4.6258   5.5224   5.5224   5.6359   5.6359   7.0684   7.0684
    10.0699  10.0699  10.2165  10.2165  11.4308  11.4308  11.6603  11.6603
    12.4200  12.4200  13.4344  13.4344  13.8810  13.8810  15.0588  15.0588
    15.6384  15.6384  15.8606  15.8606  16.2082  16.2082  16.8280  16.8280
    18.2170  18.2170  18.2398  18.2398  18.5813  18.5813  20.1869  20.1869
    20.4598  20.4598  20.8459  20.8459  21.7235  21.7235  21.9681  21.9681
    22.7659  22.7659  23.5327  23.5327  23.7064  23.7064  25.5043  25.5043
    25.9649  25.9649  26.3626  26.3626  26.7777  26.7777  27.2214  27.2214
    28.1449  28.1449  28.3446  28.3446

          k = 0.0000 0.0000 0.1650 (  8222 PWs)   bands (ev):

   -13.6598 -13.6589 -13.6404 -13.6399 -13.6312 -13.6309 -13.6246 -13.6244
   -13.6124 -13.6124 -13.6004 -13.5996 -13.5954 -13.5952 -13.5731 -13.5727
   -13.5618 -13.5614 -13.5580 -13.5572  -5.9765  -5.9577  -4.6577  -4.6293
     0.6452   0.7030   2.7876   2.8249   3.2794   3.3610   4.4600   4.4824
     4.6209   4.6266   5.4964   5.5546   5.6213   5.6501   7.0502   7.0864
    10.0158  10.1092  10.2117  10.2321  11.3794  11.4790  11.6306  11.6914
    12.3832  12.4646  13.3967  13.4709  13.8408  13.9221  15.0301  15.0889
    15.6004  15.6770  15.7981  15.9238  16.1906  16.2278  16.8174  16.8371
    18.2128  18.2206  18.2253  18.2439  18.5404  18.6308  20.0776  20.2829
    20.3778  20.5432  20.7971  20.8947  21.6717  21.7447  21.9458  22.0448
    22.6286  22.9021  23.4465  23.6270  23.6304  23.7867  25.4685  25.5229
    25.9134  26.0279  26.2329  26.4937  26.7283  26.8160  27.1772  27.2562
    28.0787  28.1871  28.3631  28.3651

          k = 0.0000 0.0000 0.1563 (  8224 PWs)   bands (ev):

   -13.6602 -13.6585 -13.6406 -13.6397 -13.6313 -13.6308 -13.6248 -13.6243
   -13.6125 -13.6123 -13.6008 -13.5993 -13.5955 -13.5950 -13.5733 -13.5726
   -13.5620 -13.5612 -13.5584 -13.5569  -5.9856  -5.9480  -4.6721  -4.6155
     0.6181   0.7336   2.7661   2.8412   3.2405   3.4030   4.4492   4.4940
     4.6120   4.6231   5.4768   5.5931   5.6066   5.6640   7.0317   7.1039
     9.9513  10.1318  10.2133  10.2602  11.3269  11.5211  11.6022  11.7238
    12.3571  12.5148  13.3577  13.5061  13.8020  13.9638  15.0030  15.1200
    15.5631  15.7158  15.7379  15.9851  16.1769  16.2484  16.8056  16.8444
    18.1899  18.2123  18.2309  18.2379  18.5094  18.6865  19.9594  20.2977
    20.3599  20.6280  20.7478  20.9451  21.6189  21.7190  21.9949  22.1452
    22.4917  23.0341  23.3709  23.5612  23.7274  23.8701  25.4140  25.5279
    25.8753  26.0973  26.1055  26.6252  26.6708  26.8366  27.1342  27.2761
    28.0075  28.2014  28.4065  28.4207

          k = 0.0000 0.0000 0.1476 (  8230 PWs)   bands (ev):

   -13.6606 -13.6580 -13.6409 -13.6395 -13.6314 -13.6307 -13.6249 -13.6242
   -13.6125 -13.6123 -13.6011 -13.5989 -13.5956 -13.5949 -13.5735 -13.5724
   -13.5622 -13.5610 -13.5588 -13.5565  -5.9944  -5.9383  -4.6865  -4.6020
     0.5923   0.7652   2.7424   2.8562   3.2035   3.4452   4.4388   4.5057
     4.5994   4.6157   5.4629   5.5918   5.6375   5.6776   7.0131   7.1210
     9.8795  10.1433  10.2188  10.2955  11.2750  11.5540  11.5752  11.7575
    12.3447  12.5685  13.3176  13.5398  13.7650  14.0054  14.9774  15.1517
    15.5267  15.6815  15.7548  16.0374  16.1736  16.2694  16.7927  16.8499
    18.1511  18.2023  18.2150  18.2551  18.4860  18.7459  19.8355  20.2195
    20.4115  20.6984  20.7139  20.9997  21.5746  21.6833  22.0780  22.2582
    22.3559  23.1537  23.3093  23.5068  23.8321  23.9558  25.3430  25.5230
    25.8484  25.9814  26.1670  26.6073  26.7556  26.8302  27.1074  27.2792
    27.9414  28.2072  28.4545  28.4907

          k = 0.0000 0.0000 0.1389 (  8230 PWs)   bands (ev):

   -13.6610 -13.6576 -13.6411 -13.6393 -13.6315 -13.6306 -13.6250 -13.6241
   -13.6125 -13.6123 -13.6015 -13.5985 -13.5957 -13.5948 -13.5737 -13.5722
   -13.5624 -13.5608 -13.5592 -13.5561  -6.0028  -5.9285  -4.7008  -4.5889
     0.5679   0.7978   2.7163   2.8702   3.1688   3.4874   4.4288   4.5176
     4.5838   4.6048   5.4543   5.5769   5.6873   5.6906   6.9945   7.1374
     9.8020  10.1501  10.2269  10.3316  11.2246  11.5497  11.5749  11.7924
    12.3483  12.6242  13.2765  13.5721  13.7303  14.0468  14.9535  15.1828
    15.4914  15.6305  15.7936  16.0661  16.1947  16.2906  16.7791  16.8534
    18.1070  18.1626  18.2206  18.2769  18.4655  18.8074  19.7081  20.1434
    20.4332  20.6494  20.8006  21.0607  21.5420  21.6582  22.1718  22.2221
    22.3792  23.2341  23.2660  23.4931  23.9400  24.0433  25.2598  25.5110
    25.8275  25.8617  26.2299  26.5396  26.7960  26.8833  27.1051  27.2663
    27.8842  28.2154  28.4670  28.4938

          k = 0.0000 0.0000 0.1303 (  8242 PWs)   bands (ev):

   -13.6614 -13.6571 -13.6414 -13.6391 -13.6316 -13.6304 -13.6252 -13.6240
   -13.6126 -13.6123 -13.6018 -13.5981 -13.5958 -13.5946 -13.5739 -13.5721
   -13.5626 -13.5606 -13.5596 -13.5558  -6.0110  -5.9188  -4.7150  -4.5763
     0.5448   0.8312   2.6876   2.8831   3.1367   3.5294   4.4192   4.5294
     4.5657   4.5907   5.4503   5.5621   5.7032   5.7418   6.9760   7.1532
     9.7200  10.1554  10.2369  10.3653  11.1764  11.5256  11.5828  11.8285
    12.3687  12.6804  13.2343  13.6029  13.6985  14.0873  14.9312  15.2112
    15.4573  15.5875  15.8321  16.0683  16.2423  16.3116  16.7650  16.8549
    18.0602  18.1163  18.2285  18.3035  18.4432  18.8694  19.5795  20.0696
    20.4257  20.6012  20.8878  21.1264  21.5221  21.6485  22.0907  22.2667
    22.5059  23.2397  23.2459  23.5549  24.0498  24.1322  25.1689  25.4933
    25.7479  25.8070  26.2754  26.4701  26.7524  27.0056  27.1205  27.2400
    27.8367  28.2284  28.3787  28.5030

          k = 0.0000 0.0000 0.1216 (  8236 PWs)   bands (ev):

   -13.6617 -13.6567 -13.6416 -13.6389 -13.6316 -13.6303 -13.6253 -13.6239
   -13.6126 -13.6123 -13.6022 -13.5977 -13.5959 -13.5945 -13.5741 -13.5719
   -13.5627 -13.5604 -13.5600 -13.5555  -6.0187  -5.9092  -4.7290  -4.5642
     0.5232   0.8653   2.6563   2.8952   3.1076   3.5710   4.4102   4.5412
     4.5460   4.5738   5.4501   5.5474   5.7151   5.8005   6.9577   7.1683
     9.6347  10.1609  10.2484  10.3955  11.1307  11.5029  11.5784  11.8658
    12.4043  12.7358  13.1912  13.6321  13.6702  14.1268  14.9104  15.2335
    15.4247  15.5565  15.8701  16.0588  16.3009  16.3322  16.7507  16.8545
    18.0129  18.0668  18.2385  18.3348  18.4159  18.9308  19.4514  19.9981
    20.3944  20.5543  20.9752  21.1905  21.5147  21.6555  21.9624  22.3571
    22.6366  23.1999  23.2536  23.6614  24.1606  24.2221  25.0738  25.4708
    25.6416  25.7810  26.2891  26.4025  26.7246  27.1184  27.1441  27.2038
    27.7975  28.2463  28.3019  28.4627

          k = 0.0000 0.0000 0.1129 (  8242 PWs)   bands (ev):

   -13.6621 -13.6562 -13.6419 -13.6387 -13.6317 -13.6302 -13.6255 -13.6238
   -13.6126 -13.6123 -13.6025 -13.5973 -13.5960 -13.5944 -13.5742 -13.5718
   -13.5629 -13.5604 -13.5603 -13.5552  -6.0260  -5.8997  -4.7426  -4.5527
     0.5029   0.9000   2.6226   2.9064   3.0815   3.6119   4.4016   4.5252
     4.5529   4.5547   5.4529   5.5330   5.7265   5.8626   6.9397   7.1825
     9.5470  10.1670  10.2613  10.4216  11.0876  11.4818  11.5641  11.9041
    12.4524  12.7892  13.1474  13.6459  13.6596  14.1648  14.8912  15.2448
    15.3937  15.5425  15.9072  16.0455  16.3521  16.3615  16.7365  16.8522
    17.9671  18.0162  18.2499  18.3705  18.3821  18.9899  19.3258  19.9292
    20.3472  20.5089  21.0623  21.2429  21.5190  21.6813  21.8375  22.4395
    22.7703  23.1477  23.2921  23.7775  24.2714  24.3125  24.9770  25.4437
    25.5452  25.7440  26.2612  26.3411  26.7287  27.1616  27.1705  27.2154
    27.7641  28.2431  28.2673  28.3736

          k = 0.0000 0.0000 0.1042 (  8238 PWs)   bands (ev):

   -13.6624 -13.6558 -13.6421 -13.6386 -13.6318 -13.6300 -13.6256 -13.6237
   -13.6127 -13.6123 -13.6028 -13.5970 -13.5961 -13.5943 -13.5744 -13.5717
   -13.5631 -13.5608 -13.5601 -13.5549  -6.0329  -5.8905  -4.7558  -4.5418
     0.4842   0.9349   2.5869   2.9168   3.0585   3.6520   4.3935   4.5041
     4.5337   4.5643   5.4580   5.5189   5.7372   5.9272   6.9220   7.1959
     9.4580  10.1742  10.2752  10.4435  11.0471  11.4622  11.5429  11.9433
    12.5093  12.8395  13.1028  13.6263  13.6854  14.2010  14.8735  15.2421
    15.3644  15.5489  15.9433  16.0313  16.3708  16.4202  16.7226  16.8484
    17.9250  17.9658  18.2623  18.3411  18.4103  19.0449  19.2043  19.8628
    20.2917  20.4653  21.1487  21.2736  21.5339  21.7167  21.7288  22.5138
    22.9059  23.0937  23.3605  23.8898  24.3812  24.4031  24.8810  25.4119
    25.4619  25.6914  26.1996  26.2901  26.7605  27.1164  27.1970  27.2878
    27.7333  28.2115  28.2532  28.2618

          k = 0.0000 0.0000 0.0955 (  8242 PWs)   bands (ev):

   -13.6627 -13.6554 -13.6424 -13.6384 -13.6319 -13.6299 -13.6258 -13.6236
   -13.6127 -13.6123 -13.6030 -13.5966 -13.5961 -13.5941 -13.5746 -13.5715
   -13.5632 -13.5611 -13.5600 -13.5546  -6.0393  -5.8816  -4.7684  -4.5317
     0.4668   0.9700   2.5495   2.9265   3.0383   3.6913   4.3861   4.4832
     4.5113   4.5754   5.4648   5.5053   5.7471   5.9937   6.9047   7.2083
     9.3688  10.1826  10.2899  10.4611  11.0091  11.4441  11.5175  11.9836
    12.5715  12.8853  13.0576  13.6119  13.7095  14.2350  14.8573  15.2269
    15.3370  15.5741  15.9781  16.0171  16.3882  16.4748  16.7091  16.8432
    17.8885  17.9166  18.2754  18.2928  18.4540  19.0890  19.0937  19.7992
    20.2351  20.4239  21.2338  21.2779  21.5578  21.6005  21.7978  22.5824
    23.0411  23.0428  23.4540  23.9912  24.4892  24.4933  24.7882  25.3749
    25.3960  25.6212  26.1199  26.2519  26.8068  27.0702  27.2223  27.3267
    27.7003  28.1192  28.1701  28.2163

          k = 0.0000 0.0000 0.0868 (  8238 PWs)   bands (ev):

   -13.6630 -13.6549 -13.6427 -13.6383 -13.6319 -13.6298 -13.6259 -13.6236
   -13.6128 -13.6123 -13.6033 -13.5963 -13.5962 -13.5940 -13.5747 -13.5714
   -13.5634 -13.5615 -13.5598 -13.5544  -6.0452  -5.8731  -4.7804  -4.5222
     0.4509   1.0048   2.5111   2.9355   3.0209   3.7295   4.3792   4.4630
     4.4877   4.5861   5.4726   5.4923   5.7564   6.0612   6.8879   7.2198
     9.2805  10.1921  10.3053  10.4747  10.9736  11.4275  11.4903  12.0246
    12.6360  12.9258  13.0119  13.6033  13.7317  14.2667  14.8426  15.2044
    15.3116  15.6131  16.0033  16.0113  16.4037  16.5237  16.6963  16.8368
    17.8595  17.8693  18.2376  18.2888  18.5009  18.9816  19.1333  19.7382
    20.1837  20.3849  21.2583  21.3171  21.4896  21.5889  21.8834  22.6485
    22.9914  23.1803  23.5648  24.0755  24.5824  24.5943  24.7018  25.3322
    25.3527  25.5343  26.0335  26.2257  26.8578  27.0247  27.2450  27.3289
    27.6566  27.9884  28.0756  28.2611

          k = 0.0000 0.0000 0.0782 (  8251 PWs)   bands (ev):

   -13.6632 -13.6545 -13.6429 -13.6382 -13.6320 -13.6296 -13.6261 -13.6235
   -13.6128 -13.6123 -13.6035 -13.5962 -13.5960 -13.5939 -13.5749 -13.5713
   -13.5635 -13.5618 -13.5597 -13.5541  -6.0506  -5.8650  -4.7917  -4.5136
     0.4366   1.0391   2.4724   2.9436   3.0060   3.7664   4.3729   4.4438
     4.4634   4.5962   5.4800   5.4809   5.7648   6.1288   6.8716   7.2302
     9.1942  10.2027  10.3212  10.4843  10.9405  11.4125  11.4629  12.0663
    12.7005  12.9601  12.9658  13.6006  13.7520  14.2958  14.8293  15.1791
    15.2883  15.6611  15.9903  16.0428  16.4168  16.5656  16.6843  16.8295
    17.8245  17.8396  18.1761  18.3021  18.5506  18.8836  19.1605  19.6799
    20.1434  20.3487  21.2198  21.3848  21.3978  21.6251  21.9796  22.7140
    22.9452  23.3177  23.6837  24.1370  24.6263  24.6699  24.6953  25.2832
    25.3370  25.4341  25.9470  26.2087  26.9084  26.9804  27.2639  27.3002
    27.5870  27.8812  27.9897  28.3405

          k = 0.0000 0.0000 0.0695 (  8259 PWs)   bands (ev):

   -13.6635 -13.6542 -13.6432 -13.6381 -13.6320 -13.6295 -13.6262 -13.6235
   -13.6128 -13.6123 -13.6037 -13.5963 -13.5957 -13.5938 -13.5751 -13.5713
   -13.5636 -13.5621 -13.5596 -13.5539  -6.0555  -5.8576  -4.8021  -4.5057
     0.4237   1.0724   2.4342   2.9511   2.9932   3.8020   4.3672   4.4260
     4.4387   4.6058   5.4686   5.4894   5.7725   6.1956   6.8558   7.2397
     9.1111  10.2143  10.3372  10.4903  10.9097  11.3991  11.4365  12.1086
    12.7629  12.9196  12.9878  13.6036  13.7704  14.3221  14.8175  15.1538
    15.2672  15.7150  15.9782  16.0721  16.4271  16.5995  16.6733  16.8217
    17.7829  17.8296  18.1097  18.3149  18.6022  18.7961  19.1727  19.6244
    20.1191  20.3155  21.1674  21.2867  21.4749  21.6646  22.0818  22.7789
    22.9030  23.4546  23.8001  24.1726  24.5695  24.7547  24.7907  25.2277
    25.3248  25.3517  25.8643  26.1968  26.9379  26.9560  27.2512  27.2773
    27.4808  27.8126  27.9167  28.2569

          k = 0.0000 0.0000 0.0608 (  8255 PWs)   bands (ev):

   -13.6637 -13.6538 -13.6434 -13.6380 -13.6321 -13.6293 -13.6264 -13.6234
   -13.6129 -13.6123 -13.6039 -13.5963 -13.5954 -13.5937 -13.5752 -13.5712
   -13.5637 -13.5624 -13.5595 -13.5538  -6.0598  -5.8507  -4.8115  -4.4987
     0.4123   1.1043   2.3973   2.9577   2.9825   3.8360   4.3621   4.4098
     4.4140   4.6145   5.4581   5.4976   5.7793   6.2605   6.8404   7.2480
     9.0326  10.2267  10.3532  10.4928  10.8814  11.3872  11.4122  12.1511
    12.8216  12.8735  13.0092  13.6115  13.7868  14.3455  14.8070  15.1301
    15.2483  15.7725  15.9671  16.0991  16.4340  16.6251  16.6634  16.8137
    17.7449  17.8299  18.0402  18.3270  18.6551  18.7200  19.1685  19.5717
    20.1137  20.2855  21.1051  21.1964  21.5477  21.7054  22.1869  22.8413
    22.8652  23.5904  23.8998  24.1835  24.5430  24.8359  24.8774  25.1673
    25.2107  25.3955  25.7876  26.1858  26.8975  26.9990  27.1911  27.2832
    27.3501  27.7742  27.8606  28.0942

          k = 0.0000 0.0000 0.0521 (  8247 PWs)   bands (ev):

   -13.6638 -13.6535 -13.6436 -13.6379 -13.6321 -13.6292 -13.6265 -13.6234
   -13.6129 -13.6123 -13.6040 -13.5963 -13.5952 -13.5937 -13.5753 -13.5711
   -13.5638 -13.5626 -13.5594 -13.5536  -6.0636  -5.8446  -4.8200  -4.4925
     0.4024   1.1341   2.3625   2.9635   2.9737   3.8681   4.3577   4.3897
     4.3955   4.6224   5.4486   5.5053   5.7853   6.3224   6.8255   7.2553
     8.9601  10.2395  10.3688  10.4923  10.8555  11.3768  11.3906  12.1938
    12.8277  12.8751  13.0249  13.6230  13.8011  14.3659  14.7980  15.1089
    15.2319  15.8318  15.9572  16.1234  16.4371  16.6429  16.6546  16.8058
    17.7114  17.8395  17.9702  18.3381  18.6552  18.7082  19.1494  19.5218
    20.1273  20.2590  21.0361  21.1149  21.6148  21.7455  22.2928  22.8321
    22.8975  23.7245  23.9687  24.1748  24.5597  24.9121  24.9451  25.0963
    25.1116  25.4624  25.7180  26.1717  26.8591  27.0369  27.1272  27.2142
    27.2801  27.7515  27.8245  27.9378

          k = 0.0000 0.0000 0.0434 (  8243 PWs)   bands (ev):

   -13.6640 -13.6532 -13.6438 -13.6378 -13.6321 -13.6291 -13.6266 -13.6233
   -13.6129 -13.6123 -13.6042 -13.5963 -13.5950 -13.5936 -13.5754 -13.5711
   -13.5639 -13.5628 -13.5593 -13.5534  -6.0668  -5.8393  -4.8273  -4.4873
     0.3940   1.1613   2.3307   2.9664   2.9685   3.8979   4.3540   4.3664
     4.3832   4.6293   5.4404   5.5122   5.7904   6.3802   6.8109   7.2615
     8.8950  10.2525  10.3835  10.4894  10.8324  11.3681  11.3719  12.2360
    12.7828  12.9224  13.0357  13.6366  13.8132  14.3831  14.7904  15.0908
    15.2178  15.8910  15.9485  16.1447  16.4359  16.6470  16.6540  16.7984
    17.6828  17.8566  17.9025  18.3478  18.6014  18.7602  19.1194  19.4750
    20.1575  20.2363  20.9632  21.0433  21.6750  21.7831  22.3978  22.8037
    22.9424  23.8565  24.0045  24.1537  24.6180  24.9497  24.9817  24.9891
    25.1042  25.5440  25.6555  26.1497  26.8228  27.0645  27.0693  27.0869
    27.2682  27.7368  27.7903  27.8094

          k = 0.0000 0.0000 0.0347 (  8231 PWs)   bands (ev):

   -13.6641 -13.6529 -13.6440 -13.6377 -13.6321 -13.6290 -13.6268 -13.6233
   -13.6129 -13.6123 -13.6043 -13.5964 -13.5948 -13.5935 -13.5754 -13.5710
   -13.5640 -13.5630 -13.5592 -13.5533  -6.0695  -5.8349  -4.8333  -4.4830
     0.3872   1.1850   2.3030   2.9606   2.9726   3.9246   4.3447   4.3509
     4.3729   4.6351   5.4335   5.5181   5.7945   6.4322   6.7968   7.2665
     8.8389  10.2649  10.3968  10.4848  10.8124  11.3565  11.3609  12.2770
    12.7396  12.9623  13.0429  13.6504  13.8233  14.3972  14.7842  15.0759
    15.2063  15.9412  15.9480  16.1626  16.4303  16.6407  16.6598  16.7917
    17.6598  17.8402  17.8783  18.3562  18.5583  18.8095  19.0837  19.4319
    20.2002  20.2175  20.8888  20.9826  21.7269  21.8166  22.5005  22.7804
    22.9704  23.9855  24.0221  24.1273  24.6828  24.8837  24.9122  25.0431
    25.1530  25.5998  25.6312  26.1157  26.7885  26.9785  27.0070  27.0965
    27.2498  27.6555  27.7268  27.8139

          k = 0.0000 0.0000 0.0261 (  8237 PWs)   bands (ev):

   -13.6642 -13.6527 -13.6441 -13.6377 -13.6322 -13.6289 -13.6269 -13.6233
   -13.6129 -13.6123 -13.6044 -13.5964 -13.5947 -13.5934 -13.5755 -13.5710
   -13.5640 -13.5631 -13.5592 -13.5532  -6.0715  -5.8313  -4.8381  -4.4796
     0.3819   1.2046   2.2801   2.9563   2.9758   3.9475   4.3258   4.3485
     4.3649   4.6397   5.4281   5.5229   5.7978   6.4770   6.7834   7.2705
     8.7933  10.2762  10.4082  10.4794  10.7960  11.3446  11.3554  12.3156
    12.6992  12.9942  13.0473  13.6630  13.8311  14.4081  14.7793  15.0644
    15.1973  15.9354  16.0000  16.1770  16.4211  16.6358  16.6622  16.7861
    17.6431  17.7861  17.9011  18.3628  18.5253  18.8540  19.0482  19.3936
    20.2026  20.2504  20.8161  20.9339  21.7692  21.8443  22.5991  22.7621
    22.9768  24.0386  24.1011  24.1111  24.6750  24.7955  24.9282  25.0940
    25.2098  25.5501  25.7148  26.0680  26.7568  26.8966  26.9580  27.1188
    27.2288  27.5384  27.7198  27.8339

          k = 0.0000 0.0000 0.0174 (  8243 PWs)   bands (ev):

   -13.6643 -13.6526 -13.6442 -13.6377 -13.6322 -13.6288 -13.6269 -13.6233
   -13.6129 -13.6123 -13.6044 -13.5964 -13.5945 -13.5934 -13.5756 -13.5710
   -13.5641 -13.5632 -13.5591 -13.5532  -6.0730  -5.8288  -4.8416  -4.4772
     0.3781   1.2192   2.2630   2.9532   2.9781   3.9654   4.3106   4.3468
     4.3591   4.6431   5.4241   5.5264   5.8001   6.5123   6.7716   7.2733
     8.7595  10.2854  10.4170  10.4742  10.7836  11.3360  11.3514  12.3494
    12.6641  13.0174  13.0498  13.6730  13.8367  14.4159  14.7759  15.0562
    15.1908  15.9311  16.0432  16.1875  16.4101  16.6322  16.6625  16.7819
    17.6328  17.7434  17.9212  18.3677  18.5020  18.8905  19.0181  19.3622
    20.1920  20.3018  20.7498  20.8983  21.8006  21.8651  22.6915  22.7490
    22.9597  24.0610  24.0794  24.2319  24.6097  24.6991  25.0089  25.1324
    25.2613  25.5066  25.7852  26.0122  26.7301  26.8434  26.9205  27.1369
    27.2085  27.4457  27.7152  27.8639

          k = 0.0000 0.0000 0.0087 (  8243 PWs)   bands (ev):

   -13.6643 -13.6525 -13.6443 -13.6376 -13.6322 -13.6287 -13.6270 -13.6233
   -13.6129 -13.6123 -13.6045 -13.5964 -13.5945 -13.5934 -13.5756 -13.5710
   -13.5641 -13.5633 -13.5591 -13.5531  -6.0739  -5.8272  -4.8437  -4.4757
     0.3758   1.2282   2.2525   2.9514   2.9795   3.9769   4.3008   4.3458
     4.3556   4.6451   5.4217   5.5285   5.8015   6.5354   6.7630   7.2750
     8.7388  10.2915  10.4226  10.4705  10.7760  11.3309  11.3490  12.3741
    12.6387  13.0315  13.0511  13.6794  13.8401  14.4206  14.7738  15.0514
    15.1869  15.9285  16.0728  16.1939  16.4006  16.6301  16.6623  16.7793
    17.6282  17.7150  17.9351  18.3706  18.4881  18.9152  18.9980  19.3411
    20.1856  20.3444  20.6987  20.8766  21.8199  21.8780  22.7412  22.7740
    22.9220  24.0653  24.0845  24.3442  24.5515  24.6009  25.0806  25.1564
    25.3014  25.4720  25.8329  25.9635  26.7124  26.8147  26.8969  27.1515
    27.1915  27.3854  27.7125  27.8949

          k = 0.0000 0.0000 0.0000 (  8239 PWs)   bands (ev):

   -13.6643 -13.6525 -13.6443 -13.6376 -13.6322 -13.6287 -13.6270 -13.6233
   -13.6130 -13.6123 -13.6045 -13.5964 -13.5945 -13.5934 -13.5756 -13.5710
   -13.5641 -13.5633 -13.5591 -13.5531  -6.0742  -5.8267  -4.8444  -4.4752
     0.3750   1.2313   2.2489   2.9508   2.9799   3.9809   4.2973   4.3454
     4.3544   4.6458   5.4209   5.5292   5.8020   6.5435   6.7598   7.2756
     8.7317  10.2936  10.4245  10.4691  10.7733  11.3291  11.3482  12.3834
    12.6291  13.0363  13.0515  13.6816  13.8413  14.4221  14.7731  15.0498
    15.1856  15.9277  16.0835  16.1960  16.3967  16.6294  16.6621  16.7784
    17.6273  17.7048  17.9401  18.3716  18.4835  18.9240  18.9909  19.3335
    20.1834  20.3621  20.6781  20.8694  21.8264  21.8824  22.7386  22.8245
    22.8862  24.0604  24.0952  24.4141  24.5284  24.5357  25.1088  25.1646
    25.3185  25.4569  25.8499  25.9435  26.7063  26.8057  26.8889  27.1591
    27.1829  27.3643  27.7117  27.9098

     Writing all to output data dir ./bulk/sns.save/

     init_run     :      1.89s CPU      1.48s WALL (       1 calls)
     electrons    :   2079.11s CPU   1197.75s WALL (       1 calls)

     Called by init_run:
     wfcinit      :      0.00s CPU      0.00s WALL (       1 calls)
     wfcinit:atom :      0.34s CPU      0.19s WALL (     101 calls)
     wfcinit:wfcr :     40.77s CPU     26.08s WALL (     101 calls)
     potinit      :      0.33s CPU      0.29s WALL (       1 calls)
     hinit0       :      0.79s CPU      0.70s WALL (       1 calls)

     Called by electrons:
     c_bands      :   2079.09s CPU   1197.74s WALL (       1 calls)
     v_of_rho     :      0.05s CPU      0.04s WALL (       1 calls)
     v_h          :      0.00s CPU      0.00s WALL (       1 calls)
     v_xc         :      0.05s CPU      0.03s WALL (       1 calls)
     newd         :      0.42s CPU      0.30s WALL (       1 calls)
     PAW_pot      :      0.13s CPU      0.08s WALL (       1 calls)

     Called by c_bands:
     init_us_2    :      0.35s CPU      0.18s WALL (     101 calls)
     init_us_2:cp :      0.34s CPU      0.18s WALL (     101 calls)
     cegterg      :   2035.51s CPU   1170.06s WALL (     343 calls)

     Called by sum_band:

     Called by *egterg:
     cdiaghg      :    126.68s CPU     75.45s WALL (    5975 calls)
     cegterg:over :    200.36s CPU    110.97s WALL (    5874 calls)
     cegterg:upda :    155.71s CPU     81.83s WALL (    5874 calls)
     cegterg:last :    184.09s CPU     97.68s WALL (    2491 calls)
     cdiaghg:chol :      8.98s CPU      5.08s WALL (    5975 calls)
     cdiaghg:inve :      1.64s CPU      0.99s WALL (    5975 calls)
     cdiaghg:para :     27.85s CPU     17.24s WALL (   11950 calls)
     h_psi        :   1183.19s CPU    711.07s WALL (    6318 calls)
     s_psi        :     40.57s CPU     22.22s WALL (    6318 calls)
     g_psi        :     21.32s CPU     11.33s WALL (    5874 calls)

     Called by h_psi:
     h_psi:calbec :    115.55s CPU     62.04s WALL (    6318 calls)
     vloc_psi     :   1009.73s CPU    618.10s WALL (    6318 calls)
     add_vuspsi   :     32.43s CPU     17.50s WALL (    6318 calls)

     General routines
     calbec       :    115.50s CPU     62.01s WALL (    6318 calls)
     fft          :      0.26s CPU      0.24s WALL (      13 calls)
     ffts         :      0.13s CPU      0.12s WALL (       1 calls)
     fftw         :    876.83s CPU    529.75s WALL (  500318 calls)
     interpolate  :      0.13s CPU      0.12s WALL (       1 calls)
     davcio       :      0.48s CPU      0.90s WALL (     202 calls)

     Parallel routines

     PAW routines
     PAW_pot      :      0.13s CPU      0.08s WALL (       1 calls)

     PWSCF        :  34m42.31s CPU  20m 1.93s WALL


   This run was terminated on:   6:34:20   3Jul2025            

=------------------------------------------------------------------------------=
   JOB DONE.
=------------------------------------------------------------------------------=
