
     Program PWSCF v.7.0 starts on  3Jul2025 at  4:26:54 

     This program is part of the open-source Quantum ESPRESSO suite
     for quantum simulation of materials; please cite
         "P. Giannozzi et al., J. Phys.:Condens. Matter 21 395502 (2009);
         "P. Giannozzi et al., J. Phys.:Condens. Matter 29 465901 (2017);
         "P. Giannozzi et al., J. Chem. Phys. 152 154105 (2020);
          URL http://www.quantum-espresso.org", 
     in publications or presentations arising from this work. More details at
     http://www.quantum-espresso.org/quote

     Parallel version (MPI & OpenMP), running on      16 processor cores
     Number of MPI processes:                 8
     Threads/MPI process:                     2

     MPI processes distributed on     1 nodes
     R & G space division:  proc/nbgrp/npool/nimage =       8
     4446 MiB available memory on the printing compute node when the environment starts

     Waiting for input...
     Reading input from standard input

     Current dimensions of program PWSCF are:
     Max number of different atomic species (ntypx) = 10
     Max number of k-points (npk) =  40000
     Max angular momentum in pseudopotentials (lmaxx) =  4

     Atomic positions and unit cell read from directory:
     ./mono/sns.save/
     Atomic positions from file used, from input discarded

     file Sn.pbe-dn-kjpaw_psl.1.0.0.UPF: wavefunction(s)  5S 5P 4D renormalized
     file S.pbe-n-kjpaw_psl.1.0.0.UPF: wavefunction(s)  3S 3P renormalized

     IMPORTANT: XC functional enforced from input :
     Exchange-correlation= PBE
                           (   1   4   3   4   0   0   0)
     Any further DFT definition will be discarded
     Please, verify this is what you really want

     Message from routine setup:
     using ibrav=0 with symmetry is DISCOURAGED, use correct ibrav instead

     Subspace diagonalization in iterative solution of the eigenvalue problem:
     one sub-group per band group will be used
     scalapack distributed-memory algorithm (size of sub-group:  2*  2 procs)


     Parallelization info
     --------------------
     sticks:   dense  smooth     PW     G-vecs:    dense   smooth      PW
     Min         255     126     36                53947    19058    2986
     Max         256     127     37                53962    19079    2997
     Sum        2045    1015    295               431609   152539   23947

     Using Slab Decomposition



     bravais-lattice index     =            0
     lattice parameter (alat)  =       7.4774  a.u.
     unit-cell volume          =    3194.3827 (a.u.)^3
     number of atoms/cell      =            8
     number of atomic types    =            2
     number of electrons       =        80.00
     number of Kohn-Sham states=          100
     kinetic-energy cutoff     =      50.0000  Ry
     charge density cutoff     =     400.0000  Ry
     Exchange-correlation= PBE
                           (   1   4   3   4   0   0   0)

     celldm(1)=   7.477373  celldm(2)=   0.000000  celldm(3)=   0.000000
     celldm(4)=   0.000000  celldm(5)=   0.000000  celldm(6)=   0.000000

     crystal axes: (cart. coord. in units of alat)
               a(1) = (   1.000000   0.000000   0.000000 )  
               a(2) = (   0.000000   1.145559   0.000000 )  
               a(3) = (   0.000000   0.000000   6.669948 )  

     reciprocal axes: (cart. coord. in units 2 pi/alat)
               b(1) = (  1.000000  0.000000  0.000000 )  
               b(2) = (  0.000000  0.872936  0.000000 )  
               b(3) = (  0.000000  0.000000  0.149926 )  


     PseudoPot. # 1 for Sn read from file:
     ./Sn.pbe-dn-kjpaw_psl.1.0.0.UPF
     MD5 check sum: 2f92149585f6306fdaeeb1c6304ac66c
     Pseudo is Projector augmented-wave + core cor, Zval = 14.0
     Generated using &quot;atomic&quot; code by A. Dal Corso  v.6.3
     Shape of augmentation charge: PSQ
     Using radial grid of 1243 points,  6 beta functions with: 
                l(1) =   0
                l(2) =   0
                l(3) =   1
                l(4) =   1
                l(5) =   2
                l(6) =   2
     Q(r) pseudized with 0 coefficients 


     PseudoPot. # 2 for S  read from file:
     ./S.pbe-n-kjpaw_psl.1.0.0.UPF
     MD5 check sum: 3ec093b2a8bef16a6eea98fa2dbb72c3
     Pseudo is Projector augmented-wave + core cor, Zval =  6.0
     Generated using &quot;atomic&quot; code by A. Dal Corso  v.6.3
     Shape of augmentation charge: PSQ
     Using radial grid of 1151 points,  6 beta functions with: 
                l(1) =   0
                l(2) =   0
                l(3) =   1
                l(4) =   1
                l(5) =   2
                l(6) =   2
     Q(r) pseudized with 0 coefficients 


     atomic species   valence    mass     pseudopotential
        Sn            14.00   118.71000     Sn( 1.00)
        S              6.00    32.06500     S ( 1.00)

      2 Sym. Ops. (no inversion) found ( 1 have fractional translation)


                                    s                        frac. trans.

      isym =  1     identity                                     

 cryst.   s( 1) = (     1          0          0      )
                  (     0          1          0      )
                  (     0          0          1      )

 cart.    s( 1) = (  1.0000000  0.0000000  0.0000000 )
                  (  0.0000000  1.0000000  0.0000000 )
                  (  0.0000000  0.0000000  1.0000000 )


      isym =  2     inv. 180 deg rotation - cart. axis [1,0,0]   

 cryst.   s( 2) = (    -1          0          0      )    f =(  0.5000000 )
                  (     0          1          0      )       (  0.0000000 )
                  (     0          0          1      )       (  0.0000000 )

 cart.    s( 2) = ( -1.0000000  0.0000000  0.0000000 )    f =(  0.5000000 )
                  (  0.0000000  1.0000000  0.0000000 )       (  0.0000000 )
                  (  0.0000000  0.0000000  1.0000000 )       (  0.0000000 )


   Cartesian axes

     site n.     atom                  positions (alat units)
         1           Sn  tau(   1) = (   0.2500000   0.4233297   1.7897172  )
         2           Sn  tau(   2) = (   0.7500000   0.7222292   1.0893415  )
         3           Sn  tau(   3) = (   0.7500000   0.9961091   2.5288709  )
         4           Sn  tau(   4) = (   0.2500000   0.1494498   0.3501878  )
         5           S   tau(   5) = (   0.2500000   0.0121393   1.0004656  )
         6           S   tau(   6) = (   0.7500000   1.1334196   1.8785931  )
         7           S   tau(   7) = (   0.7500000   0.5849187   0.4390638  )
         8           S   tau(   8) = (   0.2500000   0.5606402   2.4399950  )

   Crystallographic axes

     site n.     atom                  positions (cryst. coord.)
         1           Sn  tau(   1) = (  0.2500000  0.3695398  0.2683255  )
         2           Sn  tau(   2) = (  0.7500000  0.6304602  0.1633208  )
         3           Sn  tau(   3) = (  0.7500000  0.8695398  0.3791440  )
         4           Sn  tau(   4) = (  0.2500000  0.1304602  0.0525023  )
         5           S   tau(   5) = (  0.2500000  0.0105968  0.1499960  )
         6           S   tau(   6) = (  0.7500000  0.9894032  0.2816503  )
         7           S   tau(   7) = (  0.7500000  0.5105968  0.0658272  )
         8           S   tau(   8) = (  0.2500000  0.4894032  0.3658192  )

     number of k points=    61
                       cart. coord. in units 2pi/alat
        k(    1) = (   0.0000000   0.0000000   0.0000000), wk =   0.0327869
        k(    2) = (   0.0250000   0.0000000   0.0000000), wk =   0.0327869
        k(    3) = (   0.0500000   0.0000000   0.0000000), wk =   0.0327869
        k(    4) = (   0.0750000   0.0000000   0.0000000), wk =   0.0327869
        k(    5) = (   0.1000000   0.0000000   0.0000000), wk =   0.0327869
        k(    6) = (   0.1250000   0.0000000   0.0000000), wk =   0.0327869
        k(    7) = (   0.1500000   0.0000000   0.0000000), wk =   0.0327869
        k(    8) = (   0.1750000   0.0000000   0.0000000), wk =   0.0327869
        k(    9) = (   0.2000000   0.0000000   0.0000000), wk =   0.0327869
        k(   10) = (   0.2250000   0.0000000   0.0000000), wk =   0.0327869
        k(   11) = (   0.2500000   0.0000000   0.0000000), wk =   0.0327869
        k(   12) = (   0.2750000   0.0000000   0.0000000), wk =   0.0327869
        k(   13) = (   0.3000000   0.0000000   0.0000000), wk =   0.0327869
        k(   14) = (   0.3250000   0.0000000   0.0000000), wk =   0.0327869
        k(   15) = (   0.3500000   0.0000000   0.0000000), wk =   0.0327869
        k(   16) = (   0.3750000   0.0000000   0.0000000), wk =   0.0327869
        k(   17) = (   0.4000000   0.0000000   0.0000000), wk =   0.0327869
        k(   18) = (   0.4250000   0.0000000   0.0000000), wk =   0.0327869
        k(   19) = (   0.4500000   0.0000000   0.0000000), wk =   0.0327869
        k(   20) = (   0.4750000   0.0000000   0.0000000), wk =   0.0327869
        k(   21) = (   0.5000000   0.0000000   0.0000000), wk =   0.0327869
        k(   22) = (   0.5000000   0.0218234   0.0000000), wk =   0.0327869
        k(   23) = (   0.5000000   0.0436468   0.0000000), wk =   0.0327869
        k(   24) = (   0.5000000   0.0654702   0.0000000), wk =   0.0327869
        k(   25) = (   0.5000000   0.0872936   0.0000000), wk =   0.0327869
        k(   26) = (   0.5000000   0.1091170   0.0000000), wk =   0.0327869
        k(   27) = (   0.5000000   0.1309405   0.0000000), wk =   0.0327869
        k(   28) = (   0.5000000   0.1527639   0.0000000), wk =   0.0327869
        k(   29) = (   0.5000000   0.1745873   0.0000000), wk =   0.0327869
        k(   30) = (   0.5000000   0.1964107   0.0000000), wk =   0.0327869
        k(   31) = (   0.5000000   0.2182341   0.0000000), wk =   0.0327869
        k(   32) = (   0.5000000   0.2400575   0.0000000), wk =   0.0327869
        k(   33) = (   0.5000000   0.2618809   0.0000000), wk =   0.0327869
        k(   34) = (   0.5000000   0.2837043   0.0000000), wk =   0.0327869
        k(   35) = (   0.5000000   0.3055277   0.0000000), wk =   0.0327869
        k(   36) = (   0.5000000   0.3273511   0.0000000), wk =   0.0327869
        k(   37) = (   0.5000000   0.3491745   0.0000000), wk =   0.0327869
        k(   38) = (   0.5000000   0.3709979   0.0000000), wk =   0.0327869
        k(   39) = (   0.5000000   0.3928214   0.0000000), wk =   0.0327869
        k(   40) = (   0.5000000   0.4146448   0.0000000), wk =   0.0327869
        k(   41) = (   0.5000000   0.4364682   0.0000000), wk =   0.0327869
        k(   42) = (   0.4750000   0.4146448   0.0000000), wk =   0.0327869
        k(   43) = (   0.4500000   0.3928214   0.0000000), wk =   0.0327869
        k(   44) = (   0.4250000   0.3709979   0.0000000), wk =   0.0327869
        k(   45) = (   0.4000000   0.3491745   0.0000000), wk =   0.0327869
        k(   46) = (   0.3750000   0.3273511   0.0000000), wk =   0.0327869
        k(   47) = (   0.3500000   0.3055277   0.0000000), wk =   0.0327869
        k(   48) = (   0.3250000   0.2837043   0.0000000), wk =   0.0327869
        k(   49) = (   0.3000000   0.2618809   0.0000000), wk =   0.0327869
        k(   50) = (   0.2750000   0.2400575   0.0000000), wk =   0.0327869
        k(   51) = (   0.2500000   0.2182341   0.0000000), wk =   0.0327869
        k(   52) = (   0.2250000   0.1964107   0.0000000), wk =   0.0327869
        k(   53) = (   0.2000000   0.1745873   0.0000000), wk =   0.0327869
        k(   54) = (   0.1750000   0.1527639   0.0000000), wk =   0.0327869
        k(   55) = (   0.1500000   0.1309405   0.0000000), wk =   0.0327869
        k(   56) = (   0.1250000   0.1091170   0.0000000), wk =   0.0327869
        k(   57) = (   0.1000000   0.0872936   0.0000000), wk =   0.0327869
        k(   58) = (   0.0750000   0.0654702   0.0000000), wk =   0.0327869
        k(   59) = (   0.0500000   0.0436468   0.0000000), wk =   0.0327869
        k(   60) = (   0.0250000   0.0218234   0.0000000), wk =   0.0327869
        k(   61) = (   0.0000000   0.0000000   0.0000000), wk =   0.0327869

                       cryst. coord.
        k(    1) = (   0.0000000   0.0000000   0.0000000), wk =   0.0327869
        k(    2) = (   0.0250000   0.0000000   0.0000000), wk =   0.0327869
        k(    3) = (   0.0500000   0.0000000   0.0000000), wk =   0.0327869
        k(    4) = (   0.0750000   0.0000000   0.0000000), wk =   0.0327869
        k(    5) = (   0.1000000   0.0000000   0.0000000), wk =   0.0327869
        k(    6) = (   0.1250000   0.0000000   0.0000000), wk =   0.0327869
        k(    7) = (   0.1500000   0.0000000   0.0000000), wk =   0.0327869
        k(    8) = (   0.1750000   0.0000000   0.0000000), wk =   0.0327869
        k(    9) = (   0.2000000   0.0000000   0.0000000), wk =   0.0327869
        k(   10) = (   0.2250000   0.0000000   0.0000000), wk =   0.0327869
        k(   11) = (   0.2500000   0.0000000   0.0000000), wk =   0.0327869
        k(   12) = (   0.2750000   0.0000000   0.0000000), wk =   0.0327869
        k(   13) = (   0.3000000   0.0000000   0.0000000), wk =   0.0327869
        k(   14) = (   0.3250000   0.0000000   0.0000000), wk =   0.0327869
        k(   15) = (   0.3500000   0.0000000   0.0000000), wk =   0.0327869
        k(   16) = (   0.3750000   0.0000000   0.0000000), wk =   0.0327869
        k(   17) = (   0.4000000   0.0000000   0.0000000), wk =   0.0327869
        k(   18) = (   0.4250000   0.0000000   0.0000000), wk =   0.0327869
        k(   19) = (   0.4500000   0.0000000   0.0000000), wk =   0.0327869
        k(   20) = (   0.4750000   0.0000000   0.0000000), wk =   0.0327869
        k(   21) = (   0.5000000   0.0000000   0.0000000), wk =   0.0327869
        k(   22) = (   0.5000000   0.0250000   0.0000000), wk =   0.0327869
        k(   23) = (   0.5000000   0.0500000   0.0000000), wk =   0.0327869
        k(   24) = (   0.5000000   0.0750000   0.0000000), wk =   0.0327869
        k(   25) = (   0.5000000   0.1000000   0.0000000), wk =   0.0327869
        k(   26) = (   0.5000000   0.1250000   0.0000000), wk =   0.0327869
        k(   27) = (   0.5000000   0.1500000   0.0000000), wk =   0.0327869
        k(   28) = (   0.5000000   0.1750000   0.0000000), wk =   0.0327869
        k(   29) = (   0.5000000   0.2000000   0.0000000), wk =   0.0327869
        k(   30) = (   0.5000000   0.2250000   0.0000000), wk =   0.0327869
        k(   31) = (   0.5000000   0.2500000   0.0000000), wk =   0.0327869
        k(   32) = (   0.5000000   0.2750000   0.0000000), wk =   0.0327869
        k(   33) = (   0.5000000   0.3000000   0.0000000), wk =   0.0327869
        k(   34) = (   0.5000000   0.3250000   0.0000000), wk =   0.0327869
        k(   35) = (   0.5000000   0.3500000   0.0000000), wk =   0.0327869
        k(   36) = (   0.5000000   0.3750000   0.0000000), wk =   0.0327869
        k(   37) = (   0.5000000   0.4000000   0.0000000), wk =   0.0327869
        k(   38) = (   0.5000000   0.4250000   0.0000000), wk =   0.0327869
        k(   39) = (   0.5000000   0.4500000   0.0000000), wk =   0.0327869
        k(   40) = (   0.5000000   0.4750000   0.0000000), wk =   0.0327869
        k(   41) = (   0.5000000   0.5000000   0.0000000), wk =   0.0327869
        k(   42) = (   0.4750000   0.4750000   0.0000000), wk =   0.0327869
        k(   43) = (   0.4500000   0.4500000   0.0000000), wk =   0.0327869
        k(   44) = (   0.4250000   0.4250000   0.0000000), wk =   0.0327869
        k(   45) = (   0.4000000   0.4000000   0.0000000), wk =   0.0327869
        k(   46) = (   0.3750000   0.3750000   0.0000000), wk =   0.0327869
        k(   47) = (   0.3500000   0.3500000   0.0000000), wk =   0.0327869
        k(   48) = (   0.3250000   0.3250000   0.0000000), wk =   0.0327869
        k(   49) = (   0.3000000   0.3000000   0.0000000), wk =   0.0327869
        k(   50) = (   0.2750000   0.2750000   0.0000000), wk =   0.0327869
        k(   51) = (   0.2500000   0.2500000   0.0000000), wk =   0.0327869
        k(   52) = (   0.2250000   0.2250000   0.0000000), wk =   0.0327869
        k(   53) = (   0.2000000   0.2000000   0.0000000), wk =   0.0327869
        k(   54) = (   0.1750000   0.1750000   0.0000000), wk =   0.0327869
        k(   55) = (   0.1500000   0.1500000   0.0000000), wk =   0.0327869
        k(   56) = (   0.1250000   0.1250000   0.0000000), wk =   0.0327869
        k(   57) = (   0.1000000   0.1000000   0.0000000), wk =   0.0327869
        k(   58) = (   0.0750000   0.0750000   0.0000000), wk =   0.0327869
        k(   59) = (   0.0500000   0.0500000   0.0000000), wk =   0.0327869
        k(   60) = (   0.0250000   0.0250000   0.0000000), wk =   0.0327869
        k(   61) = (   0.0000000   0.0000000   0.0000000), wk =   0.0327869

     Dense  grid:   431609 G-vectors     FFT dimensions: (  48,  60, 320)

     Smooth grid:   152539 G-vectors     FFT dimensions: (  36,  40, 225)

     Dynamical RAM for                 wfc:       3.64 MB

     Dynamical RAM for     wfc (w. buffer):       3.64 MB

     Dynamical RAM for           str. fact:       1.65 MB

     Dynamical RAM for           local pot:       0.00 MB

     Dynamical RAM for          nlocal pot:       5.24 MB

     Dynamical RAM for                qrad:       3.21 MB

     Dynamical RAM for          rho,v,vnew:       5.11 MB

     Dynamical RAM for           G-vectors:       3.23 MB

     Dynamical RAM for          h,s,v(r/c):       0.46 MB

     Dynamical RAM for          <psi|beta>:       0.22 MB

     Dynamical RAM for                 psi:       7.28 MB

     Dynamical RAM for                hpsi:       7.28 MB

     Dynamical RAM for                spsi:       7.28 MB

     Dynamical RAM for      wfcinit/wfcrot:       7.51 MB

     Dynamical RAM for           addusdens:     156.40 MB

     Estimated static dynamical RAM per process >      28.94 MB

     Estimated max dynamical RAM per process >     185.34 MB

     Estimated total dynamical RAM >       1.45 GB

     The potential is recalculated from file :
     ./mono/sns.save/charge-density


     negative rho (up, down):  1.019E-03 0.000E+00
     Starting wfcs are   52 randomized atomic wfcs +   48 random wfcs
     Checking if some PAW data can be deallocated... 
       PAW data deallocated on    4 nodes for type:  1
       PAW data deallocated on    4 nodes for type:  2

     Band Structure Calculation
     Davidson diagonalization with overlap

     Computing kpt #:     1  of    61
     total cpu time spent up to now is       20.1 secs

     Computing kpt #:     2  of    61
     total cpu time spent up to now is       32.0 secs

     Computing kpt #:     3  of    61
     total cpu time spent up to now is       49.9 secs

     Computing kpt #:     4  of    61
     total cpu time spent up to now is       59.5 secs

     Computing kpt #:     5  of    61
     total cpu time spent up to now is       74.7 secs

     Computing kpt #:     6  of    61
     total cpu time spent up to now is       84.4 secs

     Computing kpt #:     7  of    61
     total cpu time spent up to now is       94.6 secs

     Computing kpt #:     8  of    61
     total cpu time spent up to now is      104.1 secs

     Computing kpt #:     9  of    61
     total cpu time spent up to now is      114.1 secs

     Computing kpt #:    10  of    61
     total cpu time spent up to now is      123.0 secs

     Computing kpt #:    11  of    61
     total cpu time spent up to now is      131.8 secs

     Computing kpt #:    12  of    61
     total cpu time spent up to now is      141.2 secs

     Computing kpt #:    13  of    61
     total cpu time spent up to now is      151.2 secs

     Computing kpt #:    14  of    61
     total cpu time spent up to now is      163.5 secs

     Computing kpt #:    15  of    61
     total cpu time spent up to now is      173.2 secs

     Computing kpt #:    16  of    61
     total cpu time spent up to now is      185.2 secs

     Computing kpt #:    17  of    61
     total cpu time spent up to now is      196.1 secs

     Computing kpt #:    18  of    61
     total cpu time spent up to now is      207.8 secs

     Computing kpt #:    19  of    61
     total cpu time spent up to now is      217.2 secs

     Computing kpt #:    20  of    61
     total cpu time spent up to now is      226.4 secs

     Computing kpt #:    21  of    61
     total cpu time spent up to now is      237.1 secs

     Computing kpt #:    22  of    61
     total cpu time spent up to now is      248.5 secs

     Computing kpt #:    23  of    61
     total cpu time spent up to now is      257.8 secs

     Computing kpt #:    24  of    61
     total cpu time spent up to now is      268.0 secs

     Computing kpt #:    25  of    61
     total cpu time spent up to now is      278.5 secs

     Computing kpt #:    26  of    61
     total cpu time spent up to now is      288.1 secs

     Computing kpt #:    27  of    61
     total cpu time spent up to now is      297.1 secs

     Computing kpt #:    28  of    61
     total cpu time spent up to now is      305.7 secs

     Computing kpt #:    29  of    61
     total cpu time spent up to now is      314.1 secs

     Computing kpt #:    30  of    61
     total cpu time spent up to now is      323.4 secs

     Computing kpt #:    31  of    61
     total cpu time spent up to now is      332.2 secs

     Computing kpt #:    32  of    61
     total cpu time spent up to now is      340.8 secs

     Computing kpt #:    33  of    61
     total cpu time spent up to now is      349.3 secs

     Computing kpt #:    34  of    61
     total cpu time spent up to now is      358.4 secs

     Computing kpt #:    35  of    61
     total cpu time spent up to now is      367.7 secs

     Computing kpt #:    36  of    61
     total cpu time spent up to now is      377.0 secs

     Computing kpt #:    37  of    61
     total cpu time spent up to now is      386.1 secs

     Computing kpt #:    38  of    61
     total cpu time spent up to now is      395.0 secs

     Computing kpt #:    39  of    61
     total cpu time spent up to now is      403.9 secs

     Computing kpt #:    40  of    61
     total cpu time spent up to now is      413.2 secs

     Computing kpt #:    41  of    61
     total cpu time spent up to now is      422.6 secs

     Computing kpt #:    42  of    61
     total cpu time spent up to now is      432.3 secs

     Computing kpt #:    43  of    61
     total cpu time spent up to now is      442.4 secs

     Computing kpt #:    44  of    61
     total cpu time spent up to now is      455.6 secs

     Computing kpt #:    45  of    61
     total cpu time spent up to now is      474.0 secs

     Computing kpt #:    46  of    61
     total cpu time spent up to now is      487.1 secs

     Computing kpt #:    47  of    61
     total cpu time spent up to now is      497.8 secs

     Computing kpt #:    48  of    61
     total cpu time spent up to now is      509.0 secs

     Computing kpt #:    49  of    61
     total cpu time spent up to now is      519.4 secs

     Computing kpt #:    50  of    61
     total cpu time spent up to now is      529.3 secs

     Computing kpt #:    51  of    61
     total cpu time spent up to now is      539.0 secs

     Computing kpt #:    52  of    61
     total cpu time spent up to now is      548.4 secs

     Computing kpt #:    53  of    61
     total cpu time spent up to now is      558.9 secs

     Computing kpt #:    54  of    61
     total cpu time spent up to now is      569.7 secs

     Computing kpt #:    55  of    61
     total cpu time spent up to now is      581.1 secs

     Computing kpt #:    56  of    61
     total cpu time spent up to now is      594.5 secs

     Computing kpt #:    57  of    61
     total cpu time spent up to now is      604.7 secs

     Computing kpt #:    58  of    61
     total cpu time spent up to now is      613.6 secs

     Computing kpt #:    59  of    61
     total cpu time spent up to now is      622.3 secs

     Computing kpt #:    60  of    61
     total cpu time spent up to now is      631.8 secs

     Computing kpt #:    61  of    61
     total cpu time spent up to now is      642.3 secs

     ethr =  1.25E-11,  avg # of iterations = 64.0

     total cpu time spent up to now is      642.3 secs

     End of band structure calculation

          k = 0.0000 0.0000 0.0000 ( 19079 PWs)   bands (ev):

   -20.4890 -20.4838 -20.4706 -20.4680 -20.4611 -20.4588 -20.4546 -20.4534
   -20.4396 -20.4381 -20.4254 -20.4217 -20.4192 -20.4042 -20.4019 -20.4001
   -20.3978 -20.3890 -20.3859 -20.3820 -12.8247 -12.6905 -11.5316 -11.3577
    -6.2544  -5.7911  -4.1091  -3.8524  -3.6956  -2.9913  -2.6002  -2.3973
    -2.2941  -2.2357  -1.2692  -1.2513  -1.0904  -0.9332   0.1567   0.4464
     2.0487   3.0693   3.5006   3.5615   3.9400   4.1446   4.7228   4.7414
     5.0697   5.3009   5.3090   5.7051   6.0575   6.2709   6.7007   6.8273
     7.0413   7.4263   7.8865   7.9532   8.2677   8.4753   8.6462   8.7487
     9.3444   9.4794   9.5052   9.5985   9.8990   9.9628  10.4087  10.6198
    10.9264  11.1083  11.5414  11.5546  11.5897  11.6158  12.0750  12.0959
    12.3232  12.4218  12.4815  12.7220  12.8056  13.1130  13.3169  13.4919
    13.5449  13.6069  13.7242  13.8275  13.8561  14.0392  14.4511  14.4969
    14.5177  14.5565  14.9757  15.0583

          k = 0.0250 0.0000 0.0000 ( 19107 PWs)   bands (ev):

   -20.4889 -20.4837 -20.4704 -20.4678 -20.4612 -20.4589 -20.4547 -20.4535
   -20.4396 -20.4381 -20.4255 -20.4217 -20.4193 -20.4043 -20.4020 -20.4000
   -20.3977 -20.3891 -20.3859 -20.3820 -12.8208 -12.6868 -11.5299 -11.3566
    -6.2583  -5.7966  -4.1164  -3.8687  -3.6950  -2.9873  -2.5975  -2.4159
    -2.2771  -2.2403  -1.2753  -1.2508  -1.0912  -0.9188   0.1567   0.4453
     2.0536   3.0747   3.5192   3.5783   3.9469   4.1272   4.7111   4.7257
     5.0755   5.2046   5.3725   5.7225   6.0763   6.2404   6.7102   6.8023
     7.0397   7.4247   7.8696   7.9244   8.2206   8.4263   8.6708   8.7279
     9.3562   9.4824   9.5412   9.6072   9.9283  10.0033  10.4325  10.6440
    10.9468  11.1255  11.4835  11.5551  11.5949  11.7503  12.0827  12.1059
    12.3241  12.4338  12.4918  12.6937  12.8033  13.0981  13.3044  13.3999
    13.5207  13.5283  13.6772  13.8344  13.9893  14.0917  14.2200  14.2950
    14.6138  14.8709  14.9428  15.0560

          k = 0.0500 0.0000 0.0000 ( 19099 PWs)   bands (ev):

   -20.4883 -20.4833 -20.4699 -20.4674 -20.4615 -20.4592 -20.4550 -20.4538
   -20.4394 -20.4379 -20.4258 -20.4216 -20.4193 -20.4045 -20.4023 -20.3999
   -20.3974 -20.3893 -20.3858 -20.3819 -12.8093 -12.6757 -11.5249 -11.3532
    -6.2698  -5.8132  -4.1393  -3.9169  -3.6922  -2.9755  -2.5895  -2.4538
    -2.2530  -2.2428  -1.2901  -1.2501  -1.0923  -0.8795   0.1565   0.4417
     2.0681   3.0901   3.5728   3.6266   3.9650   4.0692   4.6389   4.7308
     5.0760   5.0922   5.4189   5.7652   6.1212   6.1556   6.7323   6.7344
     7.0357   7.4164   7.8154   7.8390   8.1047   8.3343   8.6961   8.7013
     9.3173   9.4963   9.6485   9.6764   9.9953  10.1026  10.5128  10.7180
    11.0060  11.1771  11.4135  11.5614  11.7442  11.8894  12.1025  12.1253
    12.3311  12.4513  12.5353  12.5868  12.8064  13.0328  13.1812  13.3877
    13.4553  13.5883  13.6132  13.6334  13.7431  14.0803  14.3549  14.3952
    14.6576  14.7286  14.7575  15.0484

          k = 0.0750 0.0000 0.0000 ( 19119 PWs)   bands (ev):

   -20.4875 -20.4826 -20.4691 -20.4666 -20.4620 -20.4598 -20.4555 -20.4542
   -20.4391 -20.4376 -20.4262 -20.4214 -20.4194 -20.4048 -20.4027 -20.3998
   -20.3971 -20.3897 -20.3856 -20.3818 -12.7900 -12.6573 -11.5167 -11.3479
    -6.2889  -5.8404  -4.1801  -3.9951  -3.6844  -2.9560  -2.5771  -2.4958
    -2.2710  -2.2045  -1.3071  -1.2511  -1.0900  -0.8232   0.1553   0.4351
     2.0921   3.1143   3.6553   3.6961   3.9647   3.9864   4.5591   4.7190
     4.9520   5.1188   5.4571   5.8143   6.0331   6.1706   6.6300   6.7620
     7.0354   7.3919   7.6999   7.7195   7.9846   8.2413   8.6943   8.7001
     9.2316   9.5237   9.7425   9.8415  10.0672  10.2280  10.6672  10.8397
    11.0874  11.2674  11.3901  11.5855  11.9602  11.9881  12.0899  12.1146
    12.3501  12.4580  12.4763  12.5873  12.8157  12.9605  13.1108  13.2466
    13.4229  13.4273  13.5527  13.6877  13.6961  13.8537  14.2676  14.3401
    14.7207  14.7619  14.8487  14.9885

          k = 0.1000 0.0000 0.0000 ( 19129 PWs)   bands (ev):

   -20.4864 -20.4817 -20.4679 -20.4657 -20.4626 -20.4605 -20.4560 -20.4548
   -20.4387 -20.4372 -20.4267 -20.4213 -20.4196 -20.4052 -20.4033 -20.3998
   -20.3966 -20.3901 -20.3854 -20.3817 -12.7633 -12.6317 -11.5057 -11.3409
    -6.3154  -5.8780  -4.2409  -4.1003  -3.6688  -2.9290  -2.5617  -2.5362
    -2.2895  -2.1648  -1.3214  -1.2558  -1.0801  -0.7566   0.1521   0.4245
     2.1254   3.1450   3.7103   3.7549   3.8820   3.9956   4.4889   4.6434
     4.9008   5.1551   5.4935   5.8222   5.9240   6.2048   6.5136   6.7832
     7.0498   7.3323   7.5388   7.5916   7.9074   8.1510   8.6995   8.7000
     9.1279   9.5597   9.8880   9.9800  10.1274  10.3723  10.8922  10.9951
    11.1583  11.3937  11.4015  11.6338  11.8887  12.0422  12.0699  12.2506
    12.3770  12.4498  12.5152  12.6121  12.7185  12.9427  13.0101  13.1750
    13.2903  13.4672  13.5185  13.6411  13.7554  13.7647  14.0853  14.1334
    14.7026  14.8215  14.9825  15.1754

          k = 0.1250 0.0000 0.0000 ( 19103 PWs)   bands (ev):

   -20.4850 -20.4807 -20.4666 -20.4649 -20.4629 -20.4614 -20.4567 -20.4554
   -20.4381 -20.4367 -20.4272 -20.4211 -20.4198 -20.4057 -20.4040 -20.3997
   -20.3960 -20.3905 -20.3851 -20.3815 -12.7292 -12.5990 -11.4923 -11.3328
    -6.3490  -5.9249  -4.3223  -4.2286  -3.6436  -2.8951  -2.5718  -2.5466
    -2.3017  -2.1235  -1.3309  -1.2642  -1.0603  -0.6847   0.1459   0.4095
     2.1677   3.1784   3.5439   3.8468   3.9486   3.9740   4.4262   4.5371
     4.9187   5.2016   5.5291   5.6836   5.9405   6.2024   6.4090   6.7975
     7.0805   7.1991   7.4422   7.4607   7.8734   8.0580   8.7004   8.7092
     9.0337   9.6016  10.0546  10.0813  10.1899  10.5373  11.1195  11.1711
    11.1934  11.4097  11.5192  11.6276  11.7837  11.9730  12.0617  12.3166
    12.4540  12.4691  12.5501  12.6527  12.6737  12.9613  13.1153  13.1275
    13.2270  13.2678  13.4650  13.7166  13.7220  13.8144  14.0524  14.1318
    14.5086  14.8581  14.9607  15.0909

          k = 0.1500 0.0000 0.0000 ( 19095 PWs)   bands (ev):

   -20.4835 -20.4796 -20.4653 -20.4651 -20.4622 -20.4621 -20.4573 -20.4561
   -20.4376 -20.4363 -20.4278 -20.4209 -20.4201 -20.4062 -20.4048 -20.3999
   -20.3953 -20.3909 -20.3848 -20.3813 -12.6880 -12.5597 -11.4772 -11.3241
    -6.3890  -5.9801  -4.4230  -4.3759  -3.6083  -2.8551  -2.5997  -2.5359
    -2.3000  -2.0802  -1.3350  -1.2747  -1.0310  -0.6112   0.1357   0.3897
     2.2185   3.1908   3.3498   3.8268   3.9791   4.0208   4.3741   4.4689
     4.9624   5.2581   5.5127   5.5622   5.9769   6.1382   6.3468   6.8088
     7.0286   7.1035   7.3814   7.4316   7.8659   7.9656   8.6771   8.7259
     8.9822   9.6485  10.1462  10.1548  10.3410  10.7062  11.1094  11.1221
    11.3761  11.4474  11.5468  11.6594  11.8901  11.9062  12.0415  12.0628
    12.4952  12.5185  12.6390  12.7666  12.9137  12.9401  13.0131  13.0901
    13.2649  13.3027  13.4137  13.7167  13.7532  13.9541  14.1029  14.2458
    14.3209  14.7411  14.9149  14.9965

          k = 0.1750 0.0000 0.0000 ( 19081 PWs)   bands (ev):

   -20.4819 -20.4786 -20.4660 -20.4650 -20.4618 -20.4608 -20.4578 -20.4567
   -20.4369 -20.4357 -20.4283 -20.4207 -20.4204 -20.4068 -20.4056 -20.4004
   -20.3945 -20.3910 -20.3845 -20.3811 -12.6400 -12.5139 -11.4611 -11.3158
    -6.4345  -6.0418  -4.5407  -4.5379  -3.5631  -2.8104  -2.6174  -2.5316
    -2.2791  -2.0345  -1.3340  -1.2853  -0.9934  -0.5394   0.1208   0.3656
     2.2775   3.0419   3.3091   3.6780   4.0141   4.0228   4.3520   4.4408
     5.0183   5.3083   5.3622   5.5912   6.0043   6.0219   6.3165   6.8127
     6.8996   7.0889   7.4180   7.4832   7.8688   7.8835   8.6335   8.7428
     8.9839   9.7003  10.1838  10.2050  10.5464  10.8086  10.8899  11.0084
    11.3479  11.5434  11.6325  11.7143  11.8532  11.8711  12.0791  12.1207
    12.5004  12.5802  12.6051  12.7573  12.8912  13.0070  13.1411  13.2384
    13.3801  13.4016  13.5199  13.7558  13.8022  13.9834  14.0745  14.2925
    14.3125  14.7207  14.7756  15.0918

          k = 0.2000 0.0000 0.0000 ( 19047 PWs)   bands (ev):

   -20.4804 -20.4777 -20.4670 -20.4660 -20.4603 -20.4591 -20.4581 -20.4573
   -20.4363 -20.4352 -20.4288 -20.4208 -20.4206 -20.4074 -20.4065 -20.4011
   -20.3937 -20.3910 -20.3841 -20.3808 -12.5854 -12.4621 -11.4448 -11.3086
    -6.4840  -6.1079  -4.7104  -4.6724  -3.5085  -2.7637  -2.6213  -2.5310
    -2.2391  -1.9865  -1.3291  -1.2953  -0.9489  -0.4727   0.1006   0.3385
     2.3438   2.8155   3.3497   3.4921   3.9430   4.0049   4.3432   4.4189
     5.0829   5.1872   5.4082   5.6147   5.8684   6.0137   6.2971   6.8145
     6.8642   7.0827   7.5446   7.5869   7.8237   7.8733   8.6014   8.7576
     9.0190   9.7562  10.2150  10.2173  10.5836  10.6774  10.8090  11.0580
    11.0747  11.6712  11.7078  11.7112  11.7227  11.8261  12.2442  12.2767
    12.3527  12.6812  12.7156  12.7404  12.9691  13.0271  13.2291  13.3843
    13.5472  13.5968  13.6959  13.7743  13.8887  13.8926  14.0539  14.3255
    14.3838  14.7579  14.8759  15.1853

          k = 0.2250 0.0000 0.0000 ( 19059 PWs)   bands (ev):

   -20.4790 -20.4772 -20.4680 -20.4673 -20.4585 -20.4581 -20.4575 -20.4574
   -20.4356 -20.4347 -20.4292 -20.4213 -20.4204 -20.4080 -20.4075 -20.4021
   -20.3928 -20.3906 -20.3836 -20.3804 -12.5248 -12.4047 -11.4294 -11.3036
    -6.5356  -6.1758  -4.8899  -4.8149  -3.4452  -2.7203  -2.6064  -2.5289
    -2.1837  -1.9370  -1.3215  -1.3046  -0.8989  -0.4149   0.0748   0.3099
     2.4158   2.5910   3.2981   3.3989   3.8186   3.9486   4.2983   4.3737
     5.0616   5.1543   5.4812   5.6138   5.6985   5.9978   6.2907   6.8498
     6.9411   7.1142   7.6827   7.7192   7.8291   7.8912   8.6032   8.7746
     9.0705   9.8079  10.1304  10.2232  10.4047  10.5349  10.7267  11.0053
    11.1072  11.5162  11.5509  11.7336  11.8379  11.8660  12.1821  12.4005
    12.5324  12.7954  12.8183  12.8862  12.9485  13.0940  13.2421  13.3808
    13.6581  13.7004  13.8170  13.9440  13.9985  14.0488  14.0709  14.4338
    14.4968  14.8469  14.9813  15.1490

          k = 0.2500 0.0000 0.0000 ( 19083 PWs)   bands (ev):

   -20.4779 -20.4770 -20.4691 -20.4688 -20.4579 -20.4577 -20.4562 -20.4556
   -20.4350 -20.4342 -20.4295 -20.4218 -20.4202 -20.4087 -20.4084 -20.4034
   -20.3919 -20.3901 -20.3832 -20.3801 -12.4587 -12.3422 -11.4161 -11.3019
    -6.5873  -6.2426  -5.0729  -4.9649  -3.3739  -2.6847  -2.5691  -2.5211
    -2.1166  -1.8871  -1.3142  -1.3126  -0.8449  -0.3699   0.0438   0.2817
     2.3822   2.4902   3.1113   3.4465   3.6737   3.8570   4.2086   4.2954
     4.9482   5.2274   5.4404   5.5389   5.6738   5.9641   6.3034   6.9389
     7.1161   7.1843   7.7158   7.7938   7.9983   8.0023   8.6444   8.8038
     9.1291   9.8125   9.9367  10.1250  10.3658  10.4447  10.4567  11.0785
    11.0882  11.3444  11.3798  11.6807  11.9309  12.0188  12.1936  12.5246
    12.6926  12.7781  12.8909  12.9183  13.0998  13.1503  13.1721  13.3692
    13.7826  13.8714  13.9023  14.0116  14.2090  14.2436  14.3234  14.4478
    14.6473  14.9902  15.0127  15.1447

          k = 0.2750 0.0000 0.0000 ( 19085 PWs)   bands (ev):

   -20.4772 -20.4772 -20.4703 -20.4702 -20.4575 -20.4569 -20.4542 -20.4540
   -20.4345 -20.4337 -20.4297 -20.4224 -20.4200 -20.4094 -20.4092 -20.4048
   -20.3909 -20.3894 -20.3827 -20.3798 -12.3875 -12.2754 -11.4059 -11.3045
    -6.6363  -6.3053  -5.2564  -5.1195  -3.2954  -2.6537  -2.5143  -2.5051
    -2.0406  -1.8386  -1.3253  -1.3038  -0.7885  -0.3407   0.0079   0.2540
     2.1983   2.5568   2.9474   3.4835   3.5191   3.7435   4.1005   4.1900
     4.8304   5.1963   5.3103   5.5559   5.6942   5.9455   6.3369   7.0527
     7.2983   7.3612   7.7510   7.8106   8.2041   8.2126   8.7219   8.8613
     9.1859   9.6880   9.7083  10.0599  10.1750  10.3669  10.4444  10.9373
    10.9850  11.1743  11.4594  11.6349  12.0439  12.1293  12.2708  12.4744
    12.7260  12.8124  12.8471  12.8916  13.1718  13.2375  13.3572  13.4585
    13.9371  14.0151  14.0339  14.1452  14.2367  14.3831  14.4141  14.6082
    14.7867  15.1199  15.1628  15.2087

          k = 0.3000 0.0000 0.0000 ( 19087 PWs)   bands (ev):

   -20.4777 -20.4769 -20.4717 -20.4713 -20.4568 -20.4558 -20.4524 -20.4524
   -20.4341 -20.4333 -20.4296 -20.4229 -20.4198 -20.4101 -20.4099 -20.4062
   -20.3899 -20.3886 -20.3822 -20.3794 -12.3121 -12.2049 -11.4001 -11.3128
    -6.6800  -6.3610  -5.4378  -5.2757  -3.2105  -2.6212  -2.4803  -2.4509
    -1.9578  -1.7937  -1.3393  -1.2962  -0.7319  -0.3276  -0.0316   0.2242
     2.0479   2.5788   2.8448   3.3597   3.4955   3.6204   4.0105   4.0701
     4.6998   4.9666   5.3514   5.5108   5.7330   5.9760   6.3915   7.1529
     7.4294   7.6265   7.8566   7.8679   8.3896   8.4233   8.8314   8.9678
     9.2151   9.4984   9.5114   9.8563  10.1915  10.2352  10.4401  10.7499
    10.8094  11.1554  11.6029  11.6096  12.0990  12.1738  12.2987  12.3277
    12.6860  12.7016  12.9685  12.9890  13.3051  13.3414  13.5591  13.5947
    14.0171  14.0600  14.0969  14.1433  14.3695  14.3716  14.5246  14.8813
    14.9121  15.1760  15.3674  15.4197

          k = 0.3250 0.0000 0.0000 ( 19085 PWs)   bands (ev):

   -20.4784 -20.4770 -20.4730 -20.4724 -20.4559 -20.4544 -20.4510 -20.4507
   -20.4338 -20.4329 -20.4294 -20.4235 -20.4196 -20.4109 -20.4105 -20.4077
   -20.3889 -20.3878 -20.3817 -20.3791 -12.2331 -12.1316 -11.4000 -11.3275
    -6.7156  -6.4068  -5.6146  -5.4306  -3.1203  -2.5853  -2.4469  -2.3846
    -1.8708  -1.7548  -1.3572  -1.2909  -0.6775  -0.3271  -0.0729   0.1860
     1.9393   2.5093   2.8476   3.1979   3.4689   3.5003   3.9483   3.9678
     4.5589   4.7366   5.3583   5.4169   5.8041   6.0510   6.4659   7.2316
     7.5341   7.7566   8.0810   8.0938   8.4867   8.6158   8.9548   9.0826
     9.1688   9.3433   9.4332   9.7064  10.0864  10.1567  10.4094  10.4854
    10.8332  11.1902  11.6102  11.7452  11.9004  12.1374  12.2324  12.3544
    12.6654  12.7304  13.0933  13.1384  13.4396  13.4487  13.6617  13.7522
    13.8747  14.0238  14.1160  14.1687  14.3625  14.5832  14.6613  15.0509
    15.1523  15.2263  15.5117  15.6130

          k = 0.3500 0.0000 0.0000 ( 19057 PWs)   bands (ev):

   -20.4791 -20.4774 -20.4742 -20.4734 -20.4547 -20.4530 -20.4498 -20.4492
   -20.4336 -20.4325 -20.4291 -20.4241 -20.4193 -20.4115 -20.4111 -20.4091
   -20.3880 -20.3870 -20.3811 -20.3788 -12.1514 -12.0565 -11.4066 -11.3496
    -6.7405  -6.4400  -5.7845  -5.5819  -3.0259  -2.5471  -2.4062  -2.3195
    -1.7821  -1.7242  -1.3792  -1.2884  -0.6281  -0.3331  -0.1136   0.1326
     1.8783   2.4048   2.8863   3.0354   3.4013   3.4126   3.8358   3.9715
     4.4153   4.5174   5.2994   5.3271   5.9077   6.1512   6.5574   7.2868
     7.6335   7.7958   8.3327   8.4208   8.5577   8.6951   8.9796   9.0017
     9.2394   9.3793   9.4249   9.7215   9.9652   9.9670  10.2272  10.4926
    10.9387  11.2189  11.6406  11.6536  11.8278  12.0201  12.1291  12.5005
    12.7290  12.7789  13.2061  13.2949  13.4551  13.5282  13.6447  13.8289
    13.9186  13.9803  14.0313  14.1524  14.4886  14.6273  14.9092  15.1961
    15.2639  15.3321  15.3896  15.4968

          k = 0.3750 0.0000 0.0000 ( 19071 PWs)   bands (ev):

   -20.4797 -20.4780 -20.4752 -20.4744 -20.4535 -20.4517 -20.4488 -20.4479
   -20.4334 -20.4323 -20.4287 -20.4247 -20.4189 -20.4121 -20.4117 -20.4104
   -20.3871 -20.3863 -20.3806 -20.3786 -12.0681 -11.9807 -11.4207 -11.3797
    -6.7521  -6.4587  -5.9455  -5.7270  -2.9291  -2.5095  -2.3600  -2.2591
    -1.7032  -1.6965  -1.4041  -1.2886  -0.5862  -0.3389  -0.1508   0.0612
     1.8658   2.3107   2.8750   2.8876   3.3521   3.3532   3.7414   3.9941
     4.2809   4.3160   5.1749   5.2700   6.0332   6.2648   6.6627   7.3180
     7.7518   7.8224   8.3381   8.5843   8.7684   8.7804   8.8482   9.1029
     9.3739   9.4268   9.4354   9.7230   9.9257   9.9338  10.0000  10.6101
    11.0689  11.1959  11.4142  11.7020  11.7063  12.0738  12.1069  12.6651
    12.7855  12.8034  13.2574  13.3029  13.4528  13.5957  13.6348  13.7661
    13.8066  14.0834  14.1869  14.1956  14.5708  14.5929  15.0592  15.0915
    15.2946  15.3365  15.3676  15.4338

          k = 0.4000 0.0000 0.0000 ( 19091 PWs)   bands (ev):

   -20.4803 -20.4788 -20.4760 -20.4752 -20.4523 -20.4504 -20.4480 -20.4470
   -20.4333 -20.4321 -20.4283 -20.4253 -20.4185 -20.4125 -20.4124 -20.4114
   -20.3863 -20.3856 -20.3802 -20.3784 -11.9843 -11.9054 -11.4430 -11.4179
    -6.7487  -6.4612  -6.0956  -5.8638  -2.8319  -2.4771  -2.3108  -2.2074
    -1.6910  -1.6226  -1.4258  -1.2908  -0.5527  -0.3397  -0.1820  -0.0259
     1.8974   2.2398   2.7207   2.8218   3.3061   3.3697   3.6722   3.9940
     4.1411   4.1813   5.0565   5.1982   6.1709   6.3838   6.7789   7.3280
     7.8306   7.8903   8.2182   8.4610   8.6318   9.0379   9.1722   9.2227
     9.3534   9.4803   9.5235   9.5440   9.8692   9.9827  10.1714  10.7302
    11.1014  11.1042  11.2908  11.5704  11.7907  12.1119  12.2494  12.7598
    12.7953  12.8493  13.1084  13.2773  13.4838  13.5173  13.6110  13.7045
    13.9567  14.1699  14.2995  14.3561  14.5224  14.5912  14.8376  15.0030
    15.1203  15.1572  15.4784  15.4845

          k = 0.4250 0.0000 0.0000 ( 19086 PWs)   bands (ev):

   -20.4807 -20.4795 -20.4765 -20.4759 -20.4511 -20.4494 -20.4474 -20.4463
   -20.4331 -20.4321 -20.4279 -20.4257 -20.4180 -20.4134 -20.4128 -20.4120
   -20.3856 -20.3851 -20.3797 -20.3784 -11.9014 -11.8323 -11.4734 -11.4639
    -6.7285  -6.4470  -6.2326  -5.9903  -2.7373  -2.4555  -2.2616  -2.1682
    -1.6841  -1.5808  -1.4269  -1.2945  -0.5248  -0.3339  -0.2068  -0.1211
     1.9651   2.1976   2.5775   2.7102   3.2831   3.4129   3.6330   3.9289
     4.0081   4.1458   4.9586   5.1195   6.3124   6.4992   6.9027   7.3190
     7.7965   8.0089   8.0917   8.3930   8.5367   9.0107   9.2508   9.2819
     9.4761   9.5061   9.5939   9.6259   9.9668  10.0850  10.3715  10.8079
    10.9336  10.9732  11.3301  11.5937  11.8990  12.2177  12.3943  12.6459
    12.7629  12.9775  13.0491  13.0831  13.2556  13.5546  13.6573  13.8234
    14.1041  14.1623  14.4259  14.4377  14.5233  14.5891  14.6644  14.7759
    14.9253  15.0134  15.2484  15.4289

          k = 0.4500 0.0000 0.0000 ( 19084 PWs)   bands (ev):

   -20.4810 -20.4802 -20.4769 -20.4765 -20.4501 -20.4487 -20.4469 -20.4460
   -20.4328 -20.4321 -20.4276 -20.4262 -20.4175 -20.4144 -20.4129 -20.4125
   -20.3851 -20.3847 -20.3793 -20.3784 -11.8212 -11.7637 -11.5162 -11.5115
    -6.6907  -6.4202  -6.3501  -6.1046  -2.6488  -2.4509  -2.2159  -2.1448
    -1.6767  -1.5854  -1.3957  -1.3000  -0.4956  -0.3252  -0.2271  -0.2131
     2.0601   2.1864   2.4506   2.5792   3.2858   3.4324   3.6250   3.8354
     3.9419   4.1260   4.8974   5.0404   6.4483   6.5964   7.0295   7.2960
     7.7182   7.8658   8.2307   8.4020   8.4990   8.8827   9.0938   9.1036
     9.6080   9.6875   9.7876   9.8343  10.0978  10.2470  10.4567  10.7292
    10.8450  10.8639  11.3985  11.7805  12.0107  12.3318  12.4946  12.5297
    12.7127  12.7709  12.9627  13.0229  13.2335  13.6123  13.6235  13.9692
    14.1414  14.1856  14.3679  14.3751  14.5157  14.5895  14.6832  14.6888
    14.8496  14.9638  15.0174  15.2373

          k = 0.4750 0.0000 0.0000 ( 19090 PWs)   bands (ev):

   -20.4811 -20.4807 -20.4771 -20.4768 -20.4493 -20.4485 -20.4465 -20.4459
   -20.4326 -20.4322 -20.4273 -20.4266 -20.4168 -20.4153 -20.4130 -20.4127
   -20.3847 -20.3845 -20.3790 -20.3785 -11.7470 -11.7059 -11.5694 -11.5548
    -6.6349  -6.4725  -6.3550  -6.2048  -2.5710  -2.4684  -2.1776  -2.1391
    -1.6631  -1.6121  -1.3567  -1.3097  -0.4563  -0.3412  -0.2684  -0.2457
     2.1738   2.2069   2.3457   2.4428   3.3128   3.4073   3.6423   3.7499
     3.9552   4.0819   4.8832   4.9679   6.5647   6.6513   7.1479   7.2692
     7.6394   7.7142   8.4037   8.4550   8.5070   8.7495   8.9390   8.9417
     9.7335   9.7673   9.9863   9.9917  10.1818  10.3692  10.4336  10.6646
    10.7629  10.8025  11.5907  11.9981  12.0337  12.3513  12.4004  12.6021
    12.6220  12.6674  12.8301  12.8745  13.4373  13.5728  13.6653  13.9108
    14.1347  14.2237  14.2808  14.3759  14.4061  14.5628  14.7458  14.7661
    14.7907  14.9369  15.0623  15.0892

          k = 0.5000 0.0000 0.0000 ( 19080 PWs)   bands (ev):

   -20.4810 -20.4809 -20.4771 -20.4770 -20.4488 -20.4487 -20.4461 -20.4460
   -20.4324 -20.4324 -20.4270 -20.4269 -20.4161 -20.4161 -20.4130 -20.4129
   -20.3846 -20.3844 -20.3787 -20.3787 -11.6925 -11.6923 -11.5901 -11.5900
    -6.5615  -6.5614  -6.2893  -6.2892  -2.5093  -2.5092  -2.1508  -2.1508
    -1.6408  -1.6407  -1.3274  -1.3273  -0.4017  -0.4017  -0.2630  -0.2629
     2.2523   2.2524   2.3142   2.3143   3.3582   3.3583   3.6839   3.6840
     4.0160   4.0161   4.9112   4.9112   6.6401   6.6402   7.2312   7.2313
     7.6256   7.6257   8.4899   8.4905   8.6022   8.6022   8.8696   8.8696
     9.7939   9.7940  10.0638  10.0638  10.2483  10.2484  10.5738  10.5738
    10.7598  10.7599  11.8400  11.8401  12.2081  12.2081  12.4669  12.4670
    12.6756  12.6757  12.7910  12.7910  13.5709  13.5709  13.7250  13.7251
    14.1603  14.1605  14.3249  14.3250  14.5005  14.5007  14.7331  14.7334
    14.8529  14.8534  15.1939  15.1941

          k = 0.5000 0.0218 0.0000 ( 19100 PWs)   bands (ev):

   -20.4811 -20.4810 -20.4772 -20.4770 -20.4488 -20.4487 -20.4461 -20.4460
   -20.4324 -20.4324 -20.4270 -20.4268 -20.4161 -20.4161 -20.4129 -20.4128
   -20.3846 -20.3844 -20.3787 -20.3787 -11.6914 -11.6913 -11.5891 -11.5890
    -6.5589  -6.5588  -6.2874  -6.2873  -2.5174  -2.5174  -2.1636  -2.1635
    -1.6551  -1.6550  -1.3294  -1.3293  -0.4030  -0.4030  -0.2629  -0.2627
     2.2316   2.2317   2.3326   2.3326   3.3787   3.3788   3.7184   3.7185
     4.0255   4.0256   4.9117   4.9117   6.6410   6.6412   7.2343   7.2344
     7.6232   7.6234   8.4824   8.4829   8.5413   8.5414   8.9414   8.9414
     9.7739   9.7740  10.0520  10.0520  10.2434  10.2435  10.6153  10.6153
    10.7667  10.7668  11.8376  11.8376  12.2180  12.2180  12.4674  12.4675
    12.6799  12.6800  12.7926  12.7926  13.4532  13.4533  13.7553  13.7554
    14.1367  14.1369  14.2757  14.2759  14.4514  14.4515  14.7256  14.7259
    14.8697  14.8702  15.1826  15.1829

          k = 0.5000 0.0436 0.0000 ( 19104 PWs)   bands (ev):

   -20.4812 -20.4811 -20.4773 -20.4771 -20.4489 -20.4488 -20.4461 -20.4460
   -20.4323 -20.4323 -20.4268 -20.4267 -20.4162 -20.4162 -20.4127 -20.4127
   -20.3846 -20.3844 -20.3787 -20.3786 -11.6881 -11.6880 -11.5860 -11.5859
    -6.5512  -6.5511  -6.2817  -6.2816  -2.5421  -2.5420  -2.2009  -2.2008
    -1.6930  -1.6929  -1.3377  -1.3376  -0.4136  -0.4135  -0.2586  -0.2585
     2.1954   2.1955   2.3695   2.3696   3.4402   3.4403   3.8085   3.8086
     4.0584   4.0584   4.9135   4.9135   6.6438   6.6439   7.2436   7.2437
     7.6154   7.6156   8.4038   8.4038   8.5026   8.5031   9.0631   9.0631
     9.7250   9.7251  10.0215  10.0215  10.2472  10.2473  10.7038  10.7039
    10.7964  10.7965  11.8318  11.8318  12.2438  12.2439  12.4671  12.4672
    12.6918  12.6918  12.7972  12.7972  13.2690  13.2691  13.6352  13.6353
    14.0818  14.0819  14.2578  14.2578  14.3622  14.3625  14.5575  14.5577
    15.0047  15.0052  15.2625  15.2628

          k = 0.5000 0.0655 0.0000 ( 19092 PWs)   bands (ev):

   -20.4815 -20.4814 -20.4775 -20.4773 -20.4490 -20.4488 -20.4461 -20.4460
   -20.4322 -20.4322 -20.4266 -20.4265 -20.4163 -20.4163 -20.4125 -20.4124
   -20.3846 -20.3845 -20.3787 -20.3786 -11.6828 -11.6827 -11.5810 -11.5808
    -6.5384  -6.5383  -6.2723  -6.2722  -2.5837  -2.5836  -2.2601  -2.2601
    -1.7443  -1.7442  -1.3566  -1.3565  -0.4444  -0.4444  -0.2464  -0.2463
     2.1641   2.1641   2.4235   2.4235   3.5373   3.5373   3.9200   3.9201
     4.1312   4.1313   4.9185   4.9185   6.6480   6.6482   7.2587   7.2589
     7.6005   7.6007   8.2993   8.2993   8.4987   8.4992   9.1564   9.1565
     9.6808   9.6809   9.9819   9.9819  10.2752  10.2752  10.7670  10.7671
    10.8860  10.8860  11.8253  11.8253  12.2748  12.2749  12.4618  12.4619
    12.7077  12.7077  12.8033  12.8034  13.0907  13.0908  13.4016  13.4018
    13.9483  13.9484  14.1310  14.1311  14.3734  14.3736  14.4922  14.4922
    15.0244  15.0248  15.3854  15.3858

          k = 0.5000 0.0873 0.0000 ( 19080 PWs)   bands (ev):

   -20.4818 -20.4817 -20.4778 -20.4776 -20.4491 -20.4489 -20.4461 -20.4460
   -20.4321 -20.4321 -20.4264 -20.4262 -20.4164 -20.4164 -20.4122 -20.4121
   -20.3847 -20.3845 -20.3786 -20.3786 -11.6755 -11.6754 -11.5740 -11.5739
    -6.5207  -6.5206  -6.2595  -6.2594  -2.6423  -2.6423  -2.3369  -2.3368
    -1.8006  -1.8005  -1.3884  -1.3883  -0.4973  -0.4972  -0.2318  -0.2317
     2.1496   2.1496   2.5019   2.5019   3.6546   3.6546   4.0199   4.0200
     4.2635   4.2636   4.9302   4.9303   6.6533   6.6534   7.2790   7.2791
     7.5774   7.5775   8.2172   8.2172   8.4966   8.4971   9.1774   9.1775
     9.6796   9.6796   9.9443   9.9443  10.3242  10.3243  10.8134  10.8135
    11.0119  11.0120  11.8185  11.8186  12.2909  12.2909  12.4489  12.4489
    12.7166  12.7166  12.8063  12.8064  12.9444  12.9444  13.1586  13.1589
    13.7591  13.7592  13.9320  13.9322  14.3681  14.3683  14.5573  14.5574
    14.9578  14.9581  15.4088  15.4089

          k = 0.5000 0.1091 0.0000 ( 19070 PWs)   bands (ev):

   -20.4822 -20.4821 -20.4781 -20.4780 -20.4492 -20.4491 -20.4461 -20.4460
   -20.4320 -20.4320 -20.4260 -20.4259 -20.4165 -20.4165 -20.4118 -20.4118
   -20.3847 -20.3846 -20.3786 -20.3785 -11.6664 -11.6663 -11.5653 -11.5652
    -6.4984  -6.4983  -6.2435  -6.2434  -2.7169  -2.7169  -2.4255  -2.4255
    -1.8579  -1.8579  -1.4334  -1.4334  -0.5664  -0.5663  -0.2243  -0.2243
     2.1610   2.1611   2.6085   2.6085   3.7699   3.7699   4.1178   4.1178
     4.4372   4.4373   4.9568   4.9568   6.6588   6.6589   7.3026   7.3027
     7.5490   7.5492   8.1638   8.1638   8.4936   8.4941   9.1302   9.1304
     9.7081   9.7081   9.9270   9.9271  10.3806  10.3806  10.8811  10.8812
    11.1354  11.1355  11.8085  11.8086  12.2578  12.2578  12.4372  12.4372
    12.6746  12.6747  12.7817  12.7817  12.8693  12.8694  12.9743  12.9745
    13.5761  13.5762  13.7233  13.7235  14.3644  14.3646  14.5994  14.5994
    14.8545  14.8548  15.2537  15.2537

          k = 0.5000 0.1309 0.0000 ( 19040 PWs)   bands (ev):

   -20.4827 -20.4826 -20.4785 -20.4784 -20.4493 -20.4492 -20.4461 -20.4460
   -20.4318 -20.4318 -20.4256 -20.4255 -20.4166 -20.4166 -20.4114 -20.4114
   -20.3848 -20.3846 -20.3785 -20.3785 -11.6557 -11.6556 -11.5551 -11.5550
    -6.4717  -6.4716  -6.2245  -6.2245  -2.8050  -2.8050  -2.5207  -2.5206
    -1.9161  -1.9161  -1.4914  -1.4913  -0.6447  -0.6447  -0.2295  -0.2294
     2.2029   2.2029   2.7423   2.7423   3.8637   3.8637   4.2330   4.2330
     4.6182   4.6183   5.0141   5.0141   6.6641   6.6641   7.3254   7.3255
     7.5250   7.5252   8.1361   8.1361   8.4886   8.4890   9.0572   9.0574
     9.7136   9.7136   9.9523   9.9524  10.4254  10.4255  10.9862  10.9863
    11.2403  11.2404  11.7904  11.7904  12.1671  12.1672  12.4070  12.4072
    12.5407  12.5408  12.7690  12.7690  12.8030  12.8031  12.9275  12.9276
    13.4337  13.4338  13.5400  13.5403  14.3289  14.3291  14.5809  14.5810
    14.7513  14.7515  15.0506  15.0506

          k = 0.5000 0.1528 0.0000 ( 19052 PWs)   bands (ev):

   -20.4833 -20.4832 -20.4790 -20.4788 -20.4495 -20.4494 -20.4461 -20.4461
   -20.4316 -20.4316 -20.4252 -20.4250 -20.4167 -20.4166 -20.4110 -20.4110
   -20.3848 -20.3847 -20.3785 -20.3784 -11.6436 -11.6434 -11.5436 -11.5435
    -6.4411  -6.4410  -6.2032  -6.2031  -2.9027  -2.9026  -2.6177  -2.6177
    -1.9776  -1.9775  -1.5613  -1.5612  -0.7254  -0.7253  -0.2478  -0.2478
     2.2747   2.2747   2.8993   2.8993   3.9319   3.9319   4.3571   4.3571
     4.7811   4.7811   5.1253   5.1253   6.6688   6.6688   7.3412   7.3413
     7.5200   7.5202   8.1257   8.1258   8.4810   8.4814   8.9902   8.9903
     9.6885   9.6885  10.0100  10.0101  10.4501  10.4502  11.1161  11.1162
    11.3176  11.3176  11.7625  11.7626  12.0436  12.0437  12.2751  12.2753
    12.4820  12.4821  12.6901  12.6901  12.7779  12.7779  12.9404  12.9405
    13.3102  13.3103  13.4489  13.4491  14.2467  14.2469  14.4668  14.4669
    14.6803  14.6805  14.8677  14.8678

          k = 0.5000 0.1746 0.0000 ( 19028 PWs)   bands (ev):

   -20.4839 -20.4838 -20.4795 -20.4793 -20.4496 -20.4495 -20.4462 -20.4461
   -20.4314 -20.4314 -20.4247 -20.4246 -20.4167 -20.4167 -20.4106 -20.4105
   -20.3849 -20.3847 -20.3784 -20.3784 -11.6303 -11.6302 -11.5310 -11.5309
    -6.4070  -6.4070  -6.1799  -6.1798  -3.0054  -3.0054  -2.7134  -2.7133
    -2.0454  -2.0454  -1.6417  -1.6416  -0.8022  -0.8022  -0.2765  -0.2765
     2.3722   2.3722   3.0739   3.0740   3.9808   3.9808   4.4660   4.4660
     4.9281   4.9282   5.2934   5.2935   6.6735   6.6735   7.3483   7.3484
     7.5424   7.5426   8.1224   8.1225   8.4738   8.4741   8.9464   8.9466
     9.6501   9.6502  10.0770  10.0771  10.4605  10.4606  11.1834  11.1835
    11.4090  11.4090  11.7075  11.7076  11.9309  11.9310  12.1301  12.1302
    12.4364  12.4365  12.6070  12.6070  12.7667  12.7668  12.9368  12.9369
    13.1992  13.1993  13.4698  13.4700  14.1266  14.1267  14.3003  14.3005
    14.5815  14.5816  14.7237  14.7237

          k = 0.5000 0.1964 0.0000 ( 19014 PWs)   bands (ev):

   -20.4845 -20.4844 -20.4800 -20.4799 -20.4498 -20.4497 -20.4462 -20.4461
   -20.4311 -20.4311 -20.4242 -20.4241 -20.4168 -20.4167 -20.4101 -20.4101
   -20.3850 -20.3848 -20.3784 -20.3783 -11.6163 -11.6162 -11.5176 -11.5175
    -6.3701  -6.3701  -6.1553  -6.1552  -3.1088  -3.1088  -2.8049  -2.8049
    -2.1226  -2.1225  -1.7307  -1.7307  -0.8704  -0.8704  -0.3113  -0.3113
     2.4890   2.4890   3.2596   3.2597   4.0161   4.0161   4.5470   4.5470
     5.0820   5.0821   5.4922   5.4922   6.6803   6.6803   7.3554   7.3556
     7.5870   7.5872   8.1171   8.1172   8.4748   8.4750   8.9327   8.9329
     9.6063   9.6063  10.1420  10.1420  10.4676  10.4678  11.1172  11.1174
    11.5069  11.5070  11.6110  11.6111  11.9062  11.9063  12.0048  12.0048
    12.3719  12.3720  12.5820  12.5821  12.7000  12.7002  12.9323  12.9323
    13.1386  13.1386  13.5331  13.5333  13.9733  13.9733  14.1524  14.1526
    14.4300  14.4300  14.5990  14.5991

          k = 0.5000 0.2182 0.0000 ( 19020 PWs)   bands (ev):

   -20.4852 -20.4851 -20.4805 -20.4804 -20.4500 -20.4499 -20.4462 -20.4461
   -20.4309 -20.4309 -20.4237 -20.4236 -20.4168 -20.4167 -20.4097 -20.4096
   -20.3850 -20.3849 -20.3783 -20.3783 -11.6018 -11.6016 -11.5038 -11.5037
    -6.3311  -6.3310  -6.1299  -6.1298  -3.2091  -3.2090  -2.8903  -2.8902
    -2.2101  -2.2101  -1.8266  -1.8265  -0.9268  -0.9267  -0.3483  -0.3483
     2.6181   2.6182   3.4481   3.4482   4.0423   4.0423   4.6066   4.6066
     5.2462   5.2462   5.6985   5.6986   6.6924   6.6924   7.3706   7.3708
     7.6455   7.6457   8.1080   8.1082   8.4925   8.4927   8.9476   8.9479
     9.5590   9.5591  10.1975  10.1975  10.4805  10.4807  10.9844  10.9846
    11.3439  11.3440  11.6829  11.6832  11.8204  11.8204  12.0212  12.0212
    12.3388  12.3389  12.5364  12.5367  12.6407  12.6407  12.9260  12.9261
    13.1205  13.1205  13.5742  13.5744  13.8072  13.8072  14.0408  14.0409
    14.2909  14.2909  14.4711  14.4712

          k = 0.5000 0.2401 0.0000 ( 19024 PWs)   bands (ev):

   -20.4858 -20.4858 -20.4811 -20.4809 -20.4502 -20.4501 -20.4463 -20.4462
   -20.4307 -20.4306 -20.4233 -20.4231 -20.4167 -20.4167 -20.4092 -20.4092
   -20.3851 -20.3850 -20.3782 -20.3782 -11.5871 -11.5870 -11.4899 -11.4898
    -6.2907  -6.2906  -6.1045  -6.1044  -3.3031  -3.3030  -2.9677  -2.9676
    -2.3068  -2.3068  -1.9275  -1.9275  -0.9697  -0.9697  -0.3847  -0.3847
     2.7533   2.7533   3.6265   3.6266   4.0679   4.0679   4.6557   4.6557
     5.4093   5.4093   5.9002   5.9002   6.7140   6.7140   7.3961   7.3962
     7.7123   7.7125   8.1035   8.1037   8.5289   8.5290   8.9861   8.9863
     9.5102   9.5103  10.2354  10.2355  10.4982  10.4984  10.8335  10.8336
    11.1553  11.1554  11.5382  11.5384  11.8762  11.8762  12.0495  12.0496
    12.3519  12.3521  12.4472  12.4474  12.6501  12.6501  12.8999  12.9000
    13.1345  13.1345  13.5464  13.5466  13.6686  13.6687  13.9248  13.9248
    14.2002  14.2002  14.4012  14.4014

          k = 0.5000 0.2619 0.0000 ( 19034 PWs)   bands (ev):

   -20.4864 -20.4864 -20.4816 -20.4815 -20.4504 -20.4502 -20.4463 -20.4462
   -20.4304 -20.4304 -20.4228 -20.4227 -20.4167 -20.4167 -20.4088 -20.4088
   -20.3852 -20.3850 -20.3782 -20.3781 -11.5727 -11.5725 -11.4762 -11.4761
    -6.2499  -6.2499  -6.0798  -6.0797  -3.3884  -3.3883  -3.0359  -3.0359
    -2.4095  -2.4094  -2.0320  -2.0320  -0.9995  -0.9995  -0.4188  -0.4188
     2.8891   2.8891   3.7697   3.7697   4.1146   4.1146   4.7007   4.7007
     5.5594   5.5594   6.0904   6.0904   6.7489   6.7489   7.4304   7.4305
     7.7842   7.7844   8.1163   8.1165   8.5800   8.5800   9.0421   9.0423
     9.4635   9.4637  10.2469  10.2470  10.4808  10.4811  10.7227  10.7228
    10.9870  10.9872  11.3355  11.3357  11.9015  11.9016  12.0259  12.0262
    12.3324  12.3326  12.4132  12.4133  12.7021  12.7021  12.8661  12.8661
    13.1664  13.1664  13.4672  13.4673  13.5800  13.5801  13.8064  13.8064
    14.1019  14.1019  14.4603  14.4604

          k = 0.5000 0.2837 0.0000 ( 19022 PWs)   bands (ev):

   -20.4870 -20.4870 -20.4821 -20.4820 -20.4505 -20.4504 -20.4464 -20.4463
   -20.4302 -20.4302 -20.4224 -20.4223 -20.4166 -20.4166 -20.4084 -20.4084
   -20.3853 -20.3851 -20.3781 -20.3781 -11.5588 -11.5587 -11.4631 -11.4630
    -6.2098  -6.2097  -6.0564  -6.0564  -3.4631  -3.4630  -3.0943  -3.0942
    -2.5134  -2.5133  -2.1381  -2.1381  -1.0175  -1.0175  -0.4500  -0.4499
     3.0210   3.0210   3.8446   3.8446   4.2122   4.2122   4.7430   4.7430
     5.6872   5.6873   6.2653   6.2654   6.7997   6.7997   7.4716   7.4717
     7.8597   7.8599   8.1550   8.1552   8.6407   8.6408   9.1086   9.1088
     9.4251   9.4253  10.2148  10.2150  10.3765  10.3767  10.7067  10.7067
    10.8598  10.8599  11.1372  11.1374  11.7954  11.7957  12.0267  12.0268
    12.2441  12.2442  12.4135  12.4135  12.7420  12.7420  12.8695  12.8695
    13.2016  13.2016  13.3811  13.3812  13.5535  13.5536  13.7215  13.7216
    14.0252  14.0252  14.5750  14.5752

          k = 0.5000 0.3055 0.0000 ( 19022 PWs)   bands (ev):

   -20.4876 -20.4875 -20.4825 -20.4824 -20.4507 -20.4506 -20.4464 -20.4463
   -20.4300 -20.4300 -20.4220 -20.4219 -20.4166 -20.4166 -20.4081 -20.4080
   -20.3853 -20.3852 -20.3781 -20.3780 -11.5460 -11.5458 -11.4509 -11.4508
    -6.1714  -6.1713  -6.0352  -6.0351  -3.5260  -3.5260  -3.1426  -3.1426
    -2.6134  -2.6133  -2.2436  -2.2436  -1.0259  -1.0259  -0.4778  -0.4778
     3.1456   3.1456   3.8600   3.8601   4.3490   4.3491   4.7823   4.7823
     5.7867   5.7868   6.4234   6.4234   6.8671   6.8671   7.5174   7.5175
     7.9391   7.9393   8.2208   8.2210   8.7070   8.7071   9.1742   9.1743
     9.4052   9.4055  10.1036  10.1039  10.2737  10.2738  10.6695  10.6695
    10.8072  10.8073  10.9845  10.9848  11.6346  11.6349  12.0017  12.0018
    12.1100  12.1100  12.4567  12.4567  12.6624  12.6624  12.9554  12.9554
    13.1853  13.1854  13.3357  13.3358  13.5798  13.5799  13.7015  13.7016
    14.0109  14.0110  14.6646  14.6647

          k = 0.5000 0.3274 0.0000 ( 19004 PWs)   bands (ev):

   -20.4881 -20.4880 -20.4830 -20.4828 -20.4508 -20.4507 -20.4464 -20.4464
   -20.4298 -20.4298 -20.4217 -20.4216 -20.4165 -20.4165 -20.4078 -20.4077
   -20.3854 -20.3852 -20.3780 -20.3780 -11.5344 -11.5343 -11.4400 -11.4399
    -6.1359  -6.1359  -6.0166  -6.0165  -3.5764  -3.5764  -3.1818  -3.1818
    -2.7040  -2.7039  -2.3455  -2.3454  -1.0272  -1.0272  -0.5023  -0.5023
     3.2603   3.2603   3.8473   3.8473   4.4905   4.4905   4.8177   4.8177
     5.8564   5.8564   6.5649   6.5649   6.9480   6.9480   7.5637   7.5638
     8.0232   8.0234   8.3100   8.3102   8.7748   8.7749   9.2185   9.2185
     9.4203   9.4207   9.9385   9.9388  10.1963  10.1965  10.5712  10.5712
    10.7246  10.7247  10.9790  10.9792  11.4567  11.4570  11.8996  11.8996
    12.0191  12.0192  12.5102  12.5103  12.5531  12.5531  13.0286  13.0286
    13.1189  13.1190  13.3242  13.3242  13.6175  13.6175  13.7582  13.7583
    14.0818  14.0818  14.6581  14.6582

          k = 0.5000 0.3492 0.0000 ( 18998 PWs)   bands (ev):

   -20.4885 -20.4884 -20.4833 -20.4832 -20.4509 -20.4508 -20.4465 -20.4464
   -20.4297 -20.4296 -20.4214 -20.4213 -20.4164 -20.4164 -20.4075 -20.4075
   -20.3854 -20.3853 -20.3780 -20.3779 -11.5245 -11.5243 -11.4306 -11.4304
    -6.1046  -6.1045  -6.0011  -6.0011  -3.6143  -3.6143  -3.2135  -3.2135
    -2.7798  -2.7797  -2.4405  -2.4405  -1.0239  -1.0238  -0.5233  -0.5232
     3.3636   3.3636   3.8220   3.8220   4.6170   4.6171   4.8486   4.8486
     5.8993   5.8994   6.6909   6.6910   7.0350   7.0350   7.6042   7.6042
     8.1132   8.1134   8.4177   8.4179   8.8360   8.8361   9.2348   9.2348
     9.4670   9.4673   9.7733   9.7736  10.1250  10.1252  10.4360  10.4361
    10.6382  10.6383  11.0460  11.0461  11.2767  11.2769  11.7533  11.7533
    11.9856  11.9858  12.4042  12.4042  12.5933  12.5934  12.9812  12.9813
    13.1465  13.1465  13.3209  13.3210  13.6593  13.6593  13.8418  13.8420
    14.2229  14.2229  14.5864  14.5865

          k = 0.5000 0.3710 0.0000 ( 19010 PWs)   bands (ev):

   -20.4889 -20.4888 -20.4836 -20.4834 -20.4510 -20.4509 -20.4465 -20.4464
   -20.4295 -20.4295 -20.4212 -20.4211 -20.4163 -20.4163 -20.4073 -20.4072
   -20.3854 -20.3853 -20.3779 -20.3779 -11.5164 -11.5163 -11.4229 -11.4228
    -6.0785  -6.0784  -5.9892  -5.9891  -3.6406  -3.6405  -3.2395  -3.2395
    -2.8362  -2.8362  -2.5249  -2.5248  -1.0183  -1.0183  -0.5404  -0.5404
     3.4545   3.4545   3.7901   3.7901   4.7193   4.7193   4.8747   4.8748
     5.9225   5.9226   6.8004   6.8005   7.1176   7.1176   7.6330   7.6330
     8.2091   8.2093   8.5389   8.5391   8.8729   8.8729   9.2526   9.2527
     9.4692   9.4694   9.6727   9.6731  10.0583  10.0585  10.2982  10.2983
    10.5804  10.5805  11.0592  11.0593  11.1542  11.1543  11.6361  11.6362
    11.9667  11.9669  12.2847  12.2848  12.6416  12.6416  12.8881  12.8882
    13.2113  13.2113  13.3313  13.3313  13.7143  13.7143  13.9228  13.9229
    14.3676  14.3677  14.5243  14.5244

          k = 0.5000 0.3928 0.0000 ( 18998 PWs)   bands (ev):

   -20.4891 -20.4890 -20.4838 -20.4836 -20.4511 -20.4510 -20.4465 -20.4465
   -20.4294 -20.4294 -20.4211 -20.4210 -20.4163 -20.4163 -20.4071 -20.4071
   -20.3855 -20.3853 -20.3779 -20.3779 -11.5105 -11.5104 -11.4173 -11.4172
    -6.0587  -6.0587  -5.9808  -5.9807  -3.6567  -3.6567  -3.2605  -3.2605
    -2.8714  -2.8713  -2.5935  -2.5935  -1.0125  -1.0125  -0.5533  -0.5532
     3.5327   3.5328   3.7534   3.7534   4.7927   4.7928   4.8953   4.8953
     5.9335   5.9335   6.8883   6.8883   7.1854   7.1854   7.6485   7.6486
     8.3064   8.3066   8.6658   8.6661   8.8699   8.8699   9.2900   9.2903
     9.3634   9.3634   9.6832   9.6835   9.9985   9.9987  10.1903  10.1905
    10.5518  10.5519  10.9135  10.9137  11.1707  11.1707  11.5877  11.5878
    11.9337  11.9338  12.2029  12.2030  12.6665  12.6666  12.8070  12.8071
    13.2689  13.2689  13.3497  13.3498  13.7816  13.7817  13.9858  13.9860
    14.4022  14.4023  14.5478  14.5478

          k = 0.5000 0.4146 0.0000 ( 18990 PWs)   bands (ev):

   -20.4893 -20.4892 -20.4839 -20.4838 -20.4511 -20.4510 -20.4466 -20.4465
   -20.4294 -20.4294 -20.4210 -20.4209 -20.4162 -20.4162 -20.4070 -20.4070
   -20.3855 -20.3853 -20.3779 -20.3778 -11.5069 -11.5067 -11.4139 -11.4138
    -6.0463  -6.0463  -5.9760  -5.9759  -3.6650  -3.6650  -3.2751  -3.2751
    -2.8880  -2.8879  -2.6400  -2.6400  -1.0083  -1.0083  -0.5613  -0.5613
     3.5983   3.5983   3.7127   3.7127   4.8362   4.8363   4.9089   4.9089
     5.9380   5.9381   6.9462   6.9462   7.2299   7.2300   7.6543   7.6543
     8.3905   8.3908   8.7603   8.7605   8.8700   8.8701   9.1913   9.1914
     9.3954   9.3956   9.6715   9.6716   9.9843   9.9845  10.1103  10.1106
    10.5639  10.5641  10.7757  10.7758  11.1659  11.1659  11.6159  11.6160
    11.8647  11.8649  12.1776  12.1778  12.6634  12.6635  12.7609  12.7610
    13.3091  13.3092  13.3668  13.3669  13.8486  13.8487  14.0114  14.0115
    14.3984  14.3986  14.5515  14.5516

          k = 0.5000 0.4365 0.0000 ( 18968 PWs)   bands (ev):

   -20.4893 -20.4892 -20.4839 -20.4838 -20.4511 -20.4510 -20.4466 -20.4465
   -20.4294 -20.4293 -20.4210 -20.4209 -20.4162 -20.4162 -20.4070 -20.4070
   -20.3855 -20.3853 -20.3779 -20.3778 -11.5056 -11.5055 -11.4128 -11.4126
    -6.0421  -6.0421  -5.9744  -5.9743  -3.6675  -3.6675  -3.2804  -3.2804
    -2.8923  -2.8922  -2.6567  -2.6567  -1.0068  -1.0068  -0.5640  -0.5640
     3.6387   3.6388   3.6804   3.6805   4.8505   4.8506   4.9137   4.9137
     5.9392   5.9393   6.9667   6.9667   7.2455   7.2455   7.6553   7.6554
     8.4278   8.4280   8.7653   8.7654   8.9262   8.9265   9.1025   9.1025
     9.4448   9.4451   9.6377   9.6377  10.0162  10.0162  10.0562  10.0568
    10.5950  10.5952  10.7010  10.7012  11.1581  11.1581  11.6542  11.6543
    11.8139  11.8140  12.1771  12.1773  12.6537  12.6537  12.7505  12.7506
    13.3233  13.3233  13.3742  13.3742  13.8824  13.8825  14.0092  14.0093
    14.4092  14.4094  14.5291  14.5292

          k = 0.4750 0.4146 0.0000 ( 18996 PWs)   bands (ev):

   -20.4893 -20.4889 -20.4838 -20.4836 -20.4513 -20.4510 -20.4468 -20.4465
   -20.4297 -20.4290 -20.4211 -20.4209 -20.4165 -20.4160 -20.4074 -20.4066
   -20.3856 -20.3854 -20.3783 -20.3776 -11.5213 -11.5003 -11.4175 -11.4171
    -6.0860  -6.0119  -5.9781  -5.9622  -3.7140  -3.6383  -3.2988  -3.2573
    -2.9033  -2.8587  -2.6416  -2.5615  -1.0345  -0.9882  -0.5626  -0.5540
     3.5138   3.6468   3.6649   3.8006   4.8121   4.8401   4.8904   4.9297
     5.9133   5.9677   6.9027   6.9644   7.1995   7.2293   7.6422   7.6454
     8.2823   8.4080   8.6558   8.7160   8.9152   8.9451   9.1199   9.2448
     9.3390   9.5369   9.6090   9.7107   9.8892  10.0318  10.1563  10.2385
    10.5036  10.6248  10.6588  10.9216  11.0916  11.2435  11.4878  11.7041
    11.7896  11.9724  12.0861  12.2659  12.6291  12.6701  12.6762  12.8113
    13.1547  13.2647  13.3562  13.5087  13.8053  13.9053  13.9554  14.0925
    14.3740  14.4846  14.5114  14.6617

          k = 0.4500 0.3928 0.0000 ( 19021 PWs)   bands (ev):

   -20.4890 -20.4881 -20.4833 -20.4831 -20.4517 -20.4510 -20.4474 -20.4466
   -20.4301 -20.4287 -20.4213 -20.4209 -20.4168 -20.4156 -20.4078 -20.4063
   -20.3858 -20.3856 -20.3789 -20.3774 -11.5506 -11.5093 -11.4278 -11.4262
    -6.1411  -5.9956  -5.9825  -5.9333  -3.7863  -3.5864  -3.3643  -3.1896
    -2.8913  -2.7426  -2.5944  -2.3659  -1.0898  -0.9527  -0.5626  -0.5228
     3.3350   3.6560   3.6937   3.9032   4.7130   4.7904   4.8439   4.9627
     5.8743   5.9987   6.7494   6.9202   7.0883   7.1816   7.5776   7.6417
     8.0283   8.2300   8.5308   8.6671   8.9208   8.9552   9.1153   9.2137
     9.3330   9.5747   9.7407   9.7847   9.9579  10.0595  10.2904  10.4398
    10.5477  10.6797  10.6987  10.9376  11.2077  11.3273  11.4511  11.6903
    11.8150  12.0070  12.1680  12.2982  12.4810  12.6040  12.6582  12.8678
    12.9581  13.2753  13.3393  13.5816  13.7599  13.9321  13.9526  14.0917
    14.3961  14.5105  14.6455  14.8227

          k = 0.4250 0.3710 0.0000 ( 19027 PWs)   bands (ev):

   -20.4883 -20.4869 -20.4826 -20.4823 -20.4523 -20.4512 -20.4481 -20.4471
   -20.4305 -20.4285 -20.4217 -20.4210 -20.4171 -20.4153 -20.4082 -20.4060
   -20.3862 -20.3858 -20.3796 -20.3774 -11.5978 -11.5414 -11.4375 -11.4303
    -6.2059  -5.9987  -5.9733  -5.8927  -3.8496  -3.5353  -3.4131  -3.0824
    -2.8691  -2.5831  -2.4899  -2.1386  -1.1613  -0.8932  -0.5701  -0.4689
     3.1336   3.6766   3.7294   3.9816   4.5401   4.7121   4.8000   5.0039
     5.8037   6.0062   6.5178   6.8442   6.9721   7.1011   7.4523   7.6264
     7.7894   7.9984   8.4161   8.6824   8.7908   8.9347   9.0802   9.2633
     9.3373   9.5663   9.7621  10.0036  10.0957  10.2075  10.2797  10.5666
    10.6620  10.7934  10.8133  10.9448  11.3016  11.3864  11.5789  11.7087
    11.8799  11.9806  12.2340  12.2477  12.3470  12.4222  12.6100  12.9094
    12.9394  13.2588  13.4807  13.5908  13.7636  13.8790  14.0852  14.1660
    14.4249  14.5504  14.7459  14.8446

          k = 0.4000 0.3492 0.0000 ( 19010 PWs)   bands (ev):

   -20.4874 -20.4854 -20.4816 -20.4811 -20.4530 -20.4516 -20.4491 -20.4477
   -20.4309 -20.4282 -20.4223 -20.4211 -20.4174 -20.4148 -20.4086 -20.4056
   -20.3868 -20.3862 -20.3804 -20.3775 -11.6635 -11.5968 -11.4443 -11.4269
    -6.2778  -6.0184  -5.9458  -5.8423  -3.8869  -3.5600  -3.3430  -2.9484
    -2.8353  -2.4715  -2.2863  -1.9056  -1.2295  -0.8073  -0.5855  -0.3918
     2.9208   3.6899   3.7734   4.0337   4.3192   4.6146   4.7444   5.0494
     5.6825   5.9608   6.2317   6.7844   6.8836   6.9898   7.2738   7.4329
     7.7287   7.8407   8.2679   8.6573   8.7010   8.9244   9.0238   9.3396
     9.4270   9.6079   9.7750  10.1148  10.1288  10.2044  10.3884  10.6007
    10.7898  10.8261  10.9527  11.2454  11.3339  11.4089  11.5063  11.8253
    11.8926  12.0057  12.1161  12.2706  12.3060  12.3791  12.6241  12.8483
    13.1049  13.2995  13.3677  13.7385  13.8121  14.0279  14.2144  14.2753
    14.4308  14.6654  14.8049  14.8560

          k = 0.3750 0.3274 0.0000 ( 19024 PWs)   bands (ev):

   -20.4861 -20.4837 -20.4804 -20.4797 -20.4540 -20.4523 -20.4501 -20.4486
   -20.4312 -20.4279 -20.4230 -20.4212 -20.4177 -20.4141 -20.4088 -20.4053
   -20.3875 -20.3866 -20.3813 -20.3777 -11.7446 -11.6693 -11.4486 -11.4195
    -6.3525  -6.0455  -5.9043  -5.7811  -3.8937  -3.5919  -3.2208  -2.8431
    -2.7512  -2.3662  -2.0582  -1.6844  -1.2717  -0.7023  -0.5931  -0.2939
     2.7128   3.6577   3.8204   4.0610   4.1061   4.4892   4.6620   5.0882
     5.5122   5.8824   5.9152   6.7144   6.8222   6.9030   7.0788   7.1901
     7.6260   7.8229   8.1423   8.5089   8.7213   8.9521   9.0520   9.3986
     9.5009   9.6999   9.8017  10.0195  10.1048  10.2541  10.4392  10.5864
    10.7977  10.9668  11.0258  11.1973  11.3925  11.4490  11.6282  11.8551
    11.8815  12.0245  12.1372  12.3084  12.3879  12.5573  12.6485  12.7911
    13.0719  13.3221  13.5608  13.8306  13.9533  14.1462  14.2428  14.4277
    14.5227  14.7758  14.8777  14.9883

          k = 0.3500 0.3055 0.0000 ( 19031 PWs)   bands (ev):

   -20.4848 -20.4818 -20.4790 -20.4781 -20.4552 -20.4532 -20.4512 -20.4497
   -20.4316 -20.4278 -20.4238 -20.4214 -20.4180 -20.4134 -20.4090 -20.4049
   -20.3882 -20.3871 -20.3822 -20.3780 -11.8371 -11.7538 -11.4516 -11.4105
    -6.4249  -6.0765  -5.8473  -5.7074  -3.8708  -3.5969  -3.0893  -2.8055
    -2.6025  -2.2544  -1.8417  -1.4884  -1.2653  -0.6580  -0.5037  -0.1838
     2.5313   3.5243   3.8484   3.9606   4.0923   4.3288   4.5345   5.0866
     5.3597   5.5938   5.8136   6.5941   6.6665   6.8024   6.9591   7.0943
     7.4856   7.7671   8.1450   8.3643   8.7515   9.0126   9.1049   9.4061
     9.6035   9.7843   9.7948   9.9202  10.0882  10.2719  10.4125  10.4849
    10.7266  10.8724  11.0296  11.2547  11.3570  11.4621  11.7103  11.9072
    12.0409  12.1385  12.3083  12.3266  12.4750  12.6130  12.7488  12.9067
    13.0346  13.4830  13.6852  13.9187  14.0830  14.2492  14.3668  14.5339
    14.6020  14.7964  14.9549  15.0646

          k = 0.3250 0.2837 0.0000 ( 19034 PWs)   bands (ev):

   -20.4833 -20.4798 -20.4776 -20.4764 -20.4565 -20.4545 -20.4524 -20.4510
   -20.4318 -20.4277 -20.4249 -20.4215 -20.4182 -20.4125 -20.4090 -20.4044
   -20.3891 -20.3876 -20.3830 -20.3784 -11.9372 -11.8464 -11.4543 -11.4009
    -6.4900  -6.1072  -5.7740  -5.6201  -3.8213  -3.5726  -2.9701  -2.7832
    -2.4631  -2.1358  -1.6509  -1.3273  -1.1956  -0.6523  -0.3360  -0.0782
     2.4031   3.3187   3.8284   3.8730   4.1034   4.1759   4.3543   5.0063
     5.2638   5.3485   5.7635   6.4289   6.4911   6.6078   6.7950   7.2598
     7.3256   7.6903   8.2297   8.2443   8.7858   9.0529   9.1676   9.3851
     9.6739   9.7251   9.7999   9.9328  10.0507  10.1666  10.2806  10.4427
    10.6427  10.8467  11.0574  11.2542  11.3320  11.4554  11.6379  11.9627
    12.1528  12.2195  12.3677  12.5014  12.6211  12.7244  12.8860  13.0932
    13.3458  13.3731  13.9088  14.0565  14.2234  14.2866  14.4316  14.5738
    14.6482  14.8462  14.9467  15.1791

          k = 0.3000 0.2619 0.0000 ( 19062 PWs)   bands (ev):

   -20.4818 -20.4780 -20.4761 -20.4746 -20.4578 -20.4559 -20.4538 -20.4524
   -20.4320 -20.4278 -20.4261 -20.4216 -20.4185 -20.4115 -20.4089 -20.4038
   -20.3900 -20.3883 -20.3838 -20.3788 -12.0412 -11.9436 -11.4574 -11.3915
    -6.5435  -6.1334  -5.6841  -5.5188  -3.7493  -3.5214  -2.9127  -2.7346
    -2.3466  -2.0182  -1.4925  -1.2125  -1.0623  -0.6202  -0.1716   0.0093
     2.3546   3.1277   3.7001   3.8244   3.9098   4.1170   4.2610   4.9006
     5.0505   5.3443   5.7229   6.2301   6.3130   6.4205   6.6673   7.1684
     7.3927   7.7238   8.1159   8.3388   8.8173   9.0499   9.1912   9.3921
     9.5225   9.6548   9.7651   9.9275  10.0330  10.0591  10.2170  10.4689
    10.6835  10.8807  11.0010  11.1575  11.3775  11.5275  11.5825  11.7785
    12.2189  12.2852  12.3753  12.6953  12.7237  13.0019  13.0605  13.2610
    13.5602  13.7256  14.0181  14.1222  14.2553  14.3236  14.3846  14.6511
    14.6981  14.7967  15.0621  15.2614

          k = 0.2750 0.2401 0.0000 ( 19065 PWs)   bands (ev):

   -20.4805 -20.4768 -20.4743 -20.4728 -20.4589 -20.4572 -20.4553 -20.4539
   -20.4321 -20.4281 -20.4273 -20.4216 -20.4187 -20.4104 -20.4085 -20.4031
   -20.3909 -20.3890 -20.3844 -20.3793 -12.1462 -12.0424 -11.4613 -11.3829
    -6.5820  -6.1510  -5.5778  -5.4034  -3.6595  -3.4472  -2.9408  -2.6399
    -2.2406  -1.9187  -1.3729  -1.1491  -0.8904  -0.5461  -0.0823   0.1035
     2.3937   3.0043   3.5194   3.6600   3.7717   3.9674   4.3083   4.8037
     4.9245   5.3537   5.6809   6.0326   6.1304   6.2476   6.5573   7.0377
     7.3907   7.9285   8.0330   8.3830   8.8308   9.0063   9.1377   9.3016
     9.4147   9.4965   9.6604   9.8905  10.0794  10.1209  10.2475  10.4792
    10.7390  10.9527  10.9646  11.1086  11.3033  11.5236  11.6696  11.6943
    12.2054  12.2867  12.3953  12.7610  12.8530  13.1451  13.3448  13.6005
    13.8395  13.9678  14.0465  14.0841  14.1702  14.3557  14.4956  14.6719
    14.7941  14.8432  15.1159  15.3322

          k = 0.2500 0.2182 0.0000 ( 19089 PWs)   bands (ev):

   -20.4795 -20.4764 -20.4724 -20.4710 -20.4596 -20.4584 -20.4569 -20.4555
   -20.4323 -20.4291 -20.4279 -20.4216 -20.4190 -20.4094 -20.4081 -20.4023
   -20.3918 -20.3897 -20.3850 -20.3797 -12.2494 -12.1399 -11.4665 -11.3753
    -6.6034  -6.1571  -5.4556  -5.2744  -3.5582  -3.3548  -3.0043  -2.5459
    -2.1336  -1.8425  -1.3018  -1.1423  -0.7188  -0.4372  -0.0763   0.2042
     2.4874   2.9699   3.3395   3.4479   3.6723   3.8857   4.3062   4.7861
     4.8621   5.3273   5.6279   5.8559   5.9611   6.0960   6.4499   6.9443
     7.3569   7.8860   8.2769   8.3510   8.7569   8.9440   9.0207   9.0700
     9.3008   9.4982   9.6333   9.8516  10.1065  10.2357  10.3141  10.5226
    10.7377  10.9048  11.0144  11.1628  11.2614  11.4877  11.6706  11.7625
    12.1569  12.3747  12.5013  12.7591  12.9462  13.2482  13.6572  13.7657
    13.8248  13.9155  14.0258  14.0343  14.3227  14.5325  14.5790  14.8548
    14.9154  14.9831  15.2804  15.3053

          k = 0.2250 0.1964 0.0000 ( 19087 PWs)   bands (ev):

   -20.4792 -20.4765 -20.4707 -20.4692 -20.4601 -20.4591 -20.4583 -20.4571
   -20.4327 -20.4304 -20.4280 -20.4215 -20.4192 -20.4083 -20.4075 -20.4014
   -20.3926 -20.3904 -20.3854 -20.3802 -12.3485 -12.2340 -11.4730 -11.3690
    -6.6067  -6.1497  -5.3184  -5.1327  -3.4577  -3.2513  -3.0679  -2.4773
    -2.0222  -1.7768  -1.2898  -1.1981  -0.5855  -0.3254  -0.0828   0.2748
     2.5560   2.9866   3.2433   3.3004   3.6236   3.8460   4.2613   4.8135
     4.8640   5.2535   5.5387   5.6968   5.8396   5.9883   6.3477   6.8833
     7.3295   7.7989   8.2606   8.5131   8.5937   8.8141   8.8873   8.9112
     9.3054   9.4282   9.7484   9.8166  10.0768  10.3187  10.4280  10.6069
    10.6819  10.8715  11.1192  11.1913  11.2805  11.5081  11.6660  11.7749
    12.3411  12.4460  12.6259  12.7030  13.0113  13.2667  13.5301  13.7309
    13.7931  13.8884  14.0198  14.1582  14.4434  14.5172  14.8691  14.9390
    15.0997  15.2531  15.3294  15.4112

          k = 0.2000 0.1746 0.0000 ( 19103 PWs)   bands (ev):

   -20.4798 -20.4771 -20.4691 -20.4676 -20.4610 -20.4593 -20.4588 -20.4584
   -20.4334 -20.4318 -20.4280 -20.4213 -20.4194 -20.4074 -20.4068 -20.4006
   -20.3935 -20.3909 -20.3856 -20.3806 -12.4415 -12.3227 -11.4806 -11.3641
    -6.5923  -6.1283  -5.1676  -4.9799  -3.3912  -3.1550  -3.0777  -2.4446
    -1.9075  -1.7056  -1.3564  -1.2983  -0.5155  -0.2525  -0.0666   0.3182
     2.5415   2.9633   3.1858   3.4090   3.6019   3.8782   4.2137   4.7877
     4.9634   5.1571   5.4303   5.5502   5.7422   5.9495   6.2663   6.8423
     7.3126   7.7184   8.1479   8.3533   8.4987   8.6600   8.7422   8.9974
     9.3215   9.4784   9.7343   9.9111  10.0880  10.2804  10.5125  10.6359
    10.7121  10.9858  11.1136  11.2511  11.3231  11.5625  11.7245  11.9034
    12.3872  12.5520  12.6205  12.8016  13.0231  13.1407  13.3382  13.6809
    13.8124  13.9629  14.0168  14.1190  14.2532  14.6880  14.9182  14.9936
    15.2412  15.2990  15.4124  15.5146

          k = 0.1750 0.1528 0.0000 ( 19122 PWs)   bands (ev):

   -20.4811 -20.4779 -20.4677 -20.4664 -20.4622 -20.4604 -20.4587 -20.4580
   -20.4344 -20.4331 -20.4277 -20.4212 -20.4195 -20.4067 -20.4059 -20.4000
   -20.3943 -20.3912 -20.3858 -20.3810 -12.5268 -12.4042 -11.4890 -11.3606
    -6.5614  -6.0933  -5.0052  -4.8182  -3.4023  -3.0697  -2.9905  -2.4465
    -1.7939  -1.6342  -1.4984  -1.4101  -0.5132  -0.2362  -0.0397   0.3427
     2.4720   2.9701   3.2015   3.5569   3.6383   3.9650   4.1798   4.7744
     5.0427   5.0827   5.3767   5.4447   5.6519   5.9380   6.2216   6.8142
     7.3077   7.6371   7.9971   8.1668   8.3461   8.4998   8.6516   9.0359
     9.3452   9.5537   9.7917  10.0489  10.0972  10.2390  10.5369  10.6287
    10.8199  10.9948  11.1892  11.3256  11.4576  11.6527  11.8605  12.0169
    12.2569  12.5108  12.7287  12.8824  12.9941  13.0745  13.2665  13.5759
    13.7965  13.9012  13.9360  14.0738  14.2853  14.4987  14.8551  14.9708
    15.1478  15.3093  15.3161  15.4398

          k = 0.1500 0.1309 0.0000 ( 19112 PWs)   bands (ev):

   -20.4827 -20.4790 -20.4666 -20.4661 -20.4628 -20.4614 -20.4581 -20.4571
   -20.4355 -20.4343 -20.4274 -20.4211 -20.4196 -20.4060 -20.4050 -20.3996
   -20.3950 -20.3912 -20.3859 -20.3813 -12.6031 -12.4773 -11.4979 -11.3585
    -6.5168  -6.0469  -4.8342  -4.6507  -3.4585  -2.9595  -2.8860  -2.4701
    -1.7347  -1.6852  -1.5565  -1.4848  -0.5773  -0.2746  -0.0156   0.3550
     2.3816   3.0591   3.2775   3.5421   3.8187   4.0001   4.1674   4.7858
     5.0231   5.1103   5.3336   5.5025   5.6065   5.9215   6.2069   6.7985
     7.3163   7.5458   7.8202   8.0301   8.1975   8.3742   8.6271   8.9963
     9.2871   9.5797   9.9597  10.0501  10.1045  10.3946  10.5120  10.6555
    10.8270  11.1145  11.2401  11.3892  11.5258  11.7874  11.9464  12.1018
    12.2810  12.3934  12.7524  12.8672  13.0617  13.1274  13.1987  13.3834
    13.5042  13.8237  14.0461  14.0594  14.2481  14.4154  14.5501  14.8241
    14.9058  15.0008  15.3203  15.3956

          k = 0.1250 0.1091 0.0000 ( 19102 PWs)   bands (ev):

   -20.4843 -20.4802 -20.4671 -20.4658 -20.4630 -20.4613 -20.4573 -20.4561
   -20.4366 -20.4353 -20.4269 -20.4211 -20.4196 -20.4055 -20.4042 -20.3995
   -20.3958 -20.3908 -20.3859 -20.3815 -12.6692 -12.5408 -11.5067 -11.3573
    -6.4624  -5.9924  -4.6592  -4.4816  -3.5210  -2.8482  -2.8032  -2.4918
    -1.9151  -1.7464  -1.5508  -1.3988  -0.6953  -0.3721   0.0148   0.3677
     2.2888   3.1833   3.3343   3.6504   3.8578   3.9664   4.1807   4.8128
     4.9676   5.2497   5.2982   5.5097   5.7890   5.9170   6.1982   6.7914
     7.3247   7.4489   7.6860   7.9191   8.0905   8.3005   8.6354   8.9390
     9.2242   9.5624   9.9772  10.0384  10.1983  10.3989  10.5380  10.7598
    10.9126  11.1257  11.2846  11.3884  11.6037  11.8124  12.1012  12.1404
    12.3552  12.4557  12.5818  12.8667  12.9568  13.1558  13.2102  13.3519
    13.4325  13.5567  13.9681  14.0690  14.1754  14.2943  14.3300  14.5389
    14.6800  14.9440  15.1560  15.3351

          k = 0.1000 0.0873 0.0000 ( 19109 PWs)   bands (ev):

   -20.4859 -20.4814 -20.4682 -20.4661 -20.4628 -20.4606 -20.4564 -20.4552
   -20.4376 -20.4362 -20.4265 -20.4212 -20.4195 -20.4051 -20.4034 -20.3996
   -20.3964 -20.3904 -20.3859 -20.3817 -12.7244 -12.5939 -11.5148 -11.3570
    -6.4035  -5.9345  -4.4877  -4.3160  -3.5765  -2.8061  -2.7215  -2.4807
    -2.0853  -1.9020  -1.4622  -1.3090  -0.8401  -0.5147   0.0537   0.3869
     2.2053   3.1965   3.4647   3.7790   3.8132   3.9373   4.2322   4.8195
     4.9475   5.2010   5.4749   5.5581   5.8578   6.1223   6.1870   6.7816
     7.2498   7.4360   7.6312   7.8421   8.0453   8.2742   8.6449   8.8742
     9.2074   9.5385   9.9095  10.0156  10.1366  10.4837  10.5256  10.6877
    11.0459  11.0675  11.3505  11.5304  11.6594  11.8845  11.9340  12.2548
    12.3312  12.4929  12.6671  12.6891  12.8569  13.1347  13.2547  13.3419
    13.4889  13.5645  13.6821  13.8733  14.0393  14.2099  14.3000  14.4349
    14.5767  14.8494  14.9781  15.1023

          k = 0.0750 0.0655 0.0000 ( 19107 PWs)   bands (ev):

   -20.4872 -20.4824 -20.4692 -20.4668 -20.4622 -20.4598 -20.4557 -20.4544
   -20.4385 -20.4370 -20.4261 -20.4214 -20.4194 -20.4047 -20.4028 -20.3997
   -20.3970 -20.3898 -20.3859 -20.3819 -12.7679 -12.6358 -11.5218 -11.3571
    -6.3464  -5.8791  -4.3320  -4.1594  -3.6203  -2.8479  -2.6363  -2.4457
    -2.2114  -2.0470  -1.3828  -1.2366  -0.9796  -0.6710   0.0936   0.4090
     2.1374   3.1527   3.5886   3.7035   3.7901   4.0393   4.3664   4.7882
     4.9956   5.1469   5.4421   5.8043   5.8609   6.1589   6.4130   6.7619
     7.1478   7.4506   7.6750   7.8188   8.0621   8.2945   8.6405   8.8129
     9.2424   9.5195   9.7990   9.9470  10.0303  10.2988  10.6427  10.6856
    10.8713  11.2259  11.4193  11.5547  11.7184  11.7624  12.0462  12.1439
    12.3008  12.4791  12.5778  12.6976  13.0876  13.1126  13.2070  13.2387
    13.4069  13.4524  13.6957  13.8031  14.0038  14.2360  14.3263  14.4642
    14.5577  14.6396  14.7743  14.8548

          k = 0.0500 0.0436 0.0000 ( 19119 PWs)   bands (ev):

   -20.4882 -20.4832 -20.4700 -20.4674 -20.4616 -20.4593 -20.4551 -20.4539
   -20.4391 -20.4376 -20.4257 -20.4216 -20.4193 -20.4045 -20.4023 -20.3999
   -20.3974 -20.3894 -20.3859 -20.3819 -12.7994 -12.6661 -11.5271 -11.3574
    -6.2982  -5.8328  -4.2092  -4.0177  -3.6527  -2.9135  -2.5889  -2.4279
    -2.2621  -2.1640  -1.3208  -1.2057  -1.0734  -0.8092   0.1271   0.4287
     2.0882   3.1096   3.5678   3.6338   3.8497   4.0994   4.5556   4.7538
     5.0876   5.1051   5.4087   5.7656   6.0777   6.1240   6.6379   6.7384
     7.0798   7.4445   7.7732   7.8586   8.1346   8.3539   8.6376   8.7631
     9.3035   9.5023   9.6881   9.7475   9.9949  10.1420  10.5498  10.6288
    10.9771  11.1949  11.3837  11.5553  11.7128  11.8003  11.8346  12.2489
    12.2988  12.4215  12.6798  12.7243  12.9517  13.0597  13.1291  13.2426
    13.3884  13.5826  13.7839  13.8487  14.0574  14.1468  14.2556  14.4346
    14.5637  14.6476  14.7696  14.7928

          k = 0.0250 0.0218 0.0000 ( 19105 PWs)   bands (ev):

   -20.4888 -20.4837 -20.4705 -20.4678 -20.4612 -20.4589 -20.4548 -20.4535
   -20.4395 -20.4380 -20.4255 -20.4217 -20.4193 -20.4043 -20.4020 -20.4000
   -20.3977 -20.3891 -20.3859 -20.3820 -12.8183 -12.6844 -11.5305 -11.3576
    -6.2659  -5.8020  -4.1338  -3.9036  -3.6793  -2.9693  -2.5909  -2.4115
    -2.2721  -2.2312  -1.2808  -1.2345  -1.0911  -0.9019   0.1491   0.4418
     2.0585   3.0799   3.5192   3.5807   3.9174   4.1321   4.6936   4.7313
     5.0787   5.2035   5.3687   5.7224   6.0769   6.2243   6.7075   6.7848
     7.0485   7.4327   7.8514   7.9278   8.2264   8.4296   8.6591   8.7285
     9.3519   9.4900   9.5569   9.6212   9.9325  10.0215  10.4413  10.6160
    10.9834  11.1177  11.4441  11.5517  11.6186  11.7243  11.9590  12.1541
    12.2615  12.4663  12.6770  12.7261  12.7993  12.9920  13.2795  13.3400
    13.4865  13.6651  13.7621  13.8743  14.0203  14.0933  14.2283  14.2874
    14.5514  14.8568  14.9164  14.9737

          k = 0.0000 0.0000 0.0000 ( 19079 PWs)   bands (ev):

   -20.4890 -20.4838 -20.4706 -20.4680 -20.4611 -20.4588 -20.4546 -20.4534
   -20.4396 -20.4381 -20.4254 -20.4217 -20.4192 -20.4042 -20.4019 -20.4001
   -20.3978 -20.3890 -20.3859 -20.3820 -12.8247 -12.6905 -11.5316 -11.3577
    -6.2544  -5.7911  -4.1091  -3.8524  -3.6956  -2.9913  -2.6002  -2.3973
    -2.2941  -2.2357  -1.2692  -1.2513  -1.0904  -0.9332   0.1567   0.4464
     2.0487   3.0693   3.5006   3.5615   3.9400   4.1446   4.7228   4.7414
     5.0697   5.3009   5.3090   5.7051   6.0575   6.2709   6.7007   6.8273
     7.0413   7.4263   7.8865   7.9532   8.2677   8.4753   8.6462   8.7487
     9.3444   9.4794   9.5052   9.5985   9.8990   9.9628  10.4087  10.6198
    10.9264  11.1083  11.5414  11.5546  11.5897  11.6158  12.0750  12.0959
    12.3232  12.4218  12.4815  12.7220  12.8056  13.1130  13.3169  13.4919
    13.5449  13.6069  13.7242  13.8275  13.8561  14.0392  14.4511  14.4969
    14.5177  14.5565  14.9757  15.0583

     Writing all to output data dir ./mono/sns.save/

     init_run     :      3.00s CPU      2.07s WALL (       1 calls)
     electrons    :   1240.82s CPU    640.07s WALL (       1 calls)

     Called by init_run:
     wfcinit      :      0.00s CPU      0.00s WALL (       1 calls)
     wfcinit:atom :      0.30s CPU      0.18s WALL (      61 calls)
     wfcinit:wfcr :     18.33s CPU      9.57s WALL (      61 calls)
     potinit      :      0.36s CPU      0.27s WALL (       1 calls)
     hinit0       :      1.58s CPU      1.16s WALL (       1 calls)

     Called by electrons:
     c_bands      :   1240.79s CPU    640.04s WALL (       1 calls)
     v_of_rho     :      0.10s CPU      0.07s WALL (       1 calls)
     v_h          :      0.01s CPU      0.00s WALL (       1 calls)
     v_xc         :      0.09s CPU      0.07s WALL (       1 calls)
     newd         :      0.77s CPU      0.43s WALL (       1 calls)
     PAW_pot      :      0.13s CPU      0.07s WALL (       1 calls)

     Called by c_bands:
     init_us_2    :      0.33s CPU      0.18s WALL (      61 calls)
     init_us_2:cp :      0.33s CPU      0.18s WALL (      61 calls)
     cegterg      :   1219.77s CPU    628.91s WALL (     227 calls)

     Called by sum_band:

     Called by *egterg:
     cdiaghg      :     51.55s CPU     26.39s WALL (    3966 calls)
     cegterg:over :     91.10s CPU     46.95s WALL (    3905 calls)
     cegterg:upda :    108.55s CPU     55.39s WALL (    3905 calls)
     cegterg:last :    161.98s CPU     82.89s WALL (    1729 calls)
     cdiaghg:chol :      3.40s CPU      1.72s WALL (    3966 calls)
     cdiaghg:inve :      0.82s CPU      0.41s WALL (    3966 calls)
     cdiaghg:para :      9.07s CPU      4.85s WALL (    7932 calls)
     h_psi        :    689.85s CPU    357.23s WALL (    4193 calls)
     s_psi        :     47.30s CPU     24.48s WALL (    4193 calls)
     g_psi        :      9.78s CPU      5.04s WALL (    3905 calls)

     Called by h_psi:
     h_psi:calbec :     67.59s CPU     34.50s WALL (    4193 calls)
     vloc_psi     :    569.08s CPU    295.15s WALL (    4193 calls)
     add_vuspsi   :     38.28s CPU     19.64s WALL (    4193 calls)

     General routines
     calbec       :     67.57s CPU     34.49s WALL (    4193 calls)
     fft          :      0.28s CPU      0.26s WALL (      13 calls)
     ffts         :      0.12s CPU      0.11s WALL (       1 calls)
     fftw         :    501.75s CPU    260.34s WALL (  343528 calls)
     interpolate  :      0.13s CPU      0.12s WALL (       1 calls)
     davcio       :      0.38s CPU      0.41s WALL (     122 calls)

     Parallel routines

     PAW routines
     PAW_pot      :      0.13s CPU      0.07s WALL (       1 calls)

     PWSCF        :  20m44.65s CPU  10m44.00s WALL


   This run was terminated on:   4:37:38   3Jul2025            

=------------------------------------------------------------------------------=
   JOB DONE.
=------------------------------------------------------------------------------=
