
     Program PWSCF v.7.0 starts on  3Jul2025 at  3:22:53 

     This program is part of the open-source Quantum ESPRESSO suite
     for quantum simulation of materials; please cite
         "P. Giannozzi et al., J. Phys.:Condens. Matter 21 395502 (2009);
         "P. Giannozzi et al., J. Phys.:Condens. Matter 29 465901 (2017);
         "P. Giannozzi et al., J. Chem. Phys. 152 154105 (2020);
          URL http://www.quantum-espresso.org", 
     in publications or presentations arising from this work. More details at
     http://www.quantum-espresso.org/quote

     Parallel version (MPI & OpenMP), running on      16 processor cores
     Number of MPI processes:                 8
     Threads/MPI process:                     2

     MPI processes distributed on     1 nodes
     R & G space division:  proc/nbgrp/npool/nimage =       8
     1383 MiB available memory on the printing compute node when the environment starts

     Waiting for input...
     Reading input from standard input

     Current dimensions of program PWSCF are:
     Max number of different atomic species (ntypx) = 10
     Max number of k-points (npk) =  40000
     Max angular momentum in pseudopotentials (lmaxx) =  4
     file Sn.pbe-dn-kjpaw_psl.1.0.0.UPF: wavefunction(s)  5S 5P 4D renormalized
     file S.pbe-n-kjpaw_psl.1.0.0.UPF: wavefunction(s)  3S 3P renormalized

     IMPORTANT: XC functional enforced from input :
     Exchange-correlation= PBE
                           (   1   4   3   4   0   0   0)
     Any further DFT definition will be discarded
     Please, verify this is what you really want

     Message from routine setup:
     using ibrav=0 with symmetry is DISCOURAGED, use correct ibrav instead

     Subspace diagonalization in iterative solution of the eigenvalue problem:
     one sub-group per band group will be used
     scalapack distributed-memory algorithm (size of sub-group:  2*  2 procs)


     Parallelization info
     --------------------
     sticks:   dense  smooth     PW     G-vecs:    dense   smooth      PW
     Min         255     126     36                53947    19058    2986
     Max         256     127     37                53962    19079    2997
     Sum        2045    1015    295               431609   152539   23947

     Using Slab Decomposition



     bravais-lattice index     =            0
     lattice parameter (alat)  =       7.4774  a.u.
     unit-cell volume          =    3194.3827 (a.u.)^3
     number of atoms/cell      =            8
     number of atomic types    =            2
     number of electrons       =        80.00
     number of Kohn-Sham states=          100
     kinetic-energy cutoff     =      50.0000  Ry
     charge density cutoff     =     400.0000  Ry
     scf convergence threshold =      1.0E-08
     mixing beta               =       0.3000
     number of iterations used =            8  plain     mixing
     Exchange-correlation= PBE
                           (   1   4   3   4   0   0   0)

     celldm(1)=   7.477373  celldm(2)=   0.000000  celldm(3)=   0.000000
     celldm(4)=   0.000000  celldm(5)=   0.000000  celldm(6)=   0.000000

     crystal axes: (cart. coord. in units of alat)
               a(1) = (   1.000000   0.000000   0.000000 )  
               a(2) = (   0.000000   1.145559   0.000000 )  
               a(3) = (   0.000000   0.000000   6.669948 )  

     reciprocal axes: (cart. coord. in units 2 pi/alat)
               b(1) = (  1.000000  0.000000  0.000000 )  
               b(2) = (  0.000000  0.872936  0.000000 )  
               b(3) = (  0.000000  0.000000  0.149926 )  


     PseudoPot. # 1 for Sn read from file:
     ./Sn.pbe-dn-kjpaw_psl.1.0.0.UPF
     MD5 check sum: 2f92149585f6306fdaeeb1c6304ac66c
     Pseudo is Projector augmented-wave + core cor, Zval = 14.0
     Generated using &quot;atomic&quot; code by A. Dal Corso  v.6.3
     Shape of augmentation charge: PSQ
     Using radial grid of 1243 points,  6 beta functions with: 
                l(1) =   0
                l(2) =   0
                l(3) =   1
                l(4) =   1
                l(5) =   2
                l(6) =   2
     Q(r) pseudized with 0 coefficients 


     PseudoPot. # 2 for S  read from file:
     ./S.pbe-n-kjpaw_psl.1.0.0.UPF
     MD5 check sum: 3ec093b2a8bef16a6eea98fa2dbb72c3
     Pseudo is Projector augmented-wave + core cor, Zval =  6.0
     Generated using &quot;atomic&quot; code by A. Dal Corso  v.6.3
     Shape of augmentation charge: PSQ
     Using radial grid of 1151 points,  6 beta functions with: 
                l(1) =   0
                l(2) =   0
                l(3) =   1
                l(4) =   1
                l(5) =   2
                l(6) =   2
     Q(r) pseudized with 0 coefficients 


     atomic species   valence    mass     pseudopotential
        Sn            14.00   118.71000     Sn( 1.00)
        S              6.00    32.06500     S ( 1.00)

      2 Sym. Ops. (no inversion) found ( 1 have fractional translation)


                                    s                        frac. trans.

      isym =  1     identity                                     

 cryst.   s( 1) = (     1          0          0      )
                  (     0          1          0      )
                  (     0          0          1      )

 cart.    s( 1) = (  1.0000000  0.0000000  0.0000000 )
                  (  0.0000000  1.0000000  0.0000000 )
                  (  0.0000000  0.0000000  1.0000000 )


      isym =  2     inv. 180 deg rotation - cart. axis [1,0,0]   

 cryst.   s( 2) = (    -1          0          0      )    f =(  0.5000000 )
                  (     0          1          0      )       (  0.0000000 )
                  (     0          0          1      )       (  0.0000000 )

 cart.    s( 2) = ( -1.0000000  0.0000000  0.0000000 )    f =(  0.5000000 )
                  (  0.0000000  1.0000000  0.0000000 )       (  0.0000000 )
                  (  0.0000000  0.0000000  1.0000000 )       (  0.0000000 )


   Cartesian axes

     site n.     atom                  positions (alat units)
         1           Sn  tau(   1) = (   0.2500000   0.4233297   1.7897172  )
         2           Sn  tau(   2) = (   0.7500000   0.7222292   1.0893415  )
         3           Sn  tau(   3) = (   0.7500000   0.9961091   2.5288709  )
         4           Sn  tau(   4) = (   0.2500000   0.1494498   0.3501878  )
         5           S   tau(   5) = (   0.2500000   0.0121393   1.0004656  )
         6           S   tau(   6) = (   0.7500000   1.1334196   1.8785931  )
         7           S   tau(   7) = (   0.7500000   0.5849187   0.4390638  )
         8           S   tau(   8) = (   0.2500000   0.5606402   2.4399950  )

   Crystallographic axes

     site n.     atom                  positions (cryst. coord.)
         1           Sn  tau(   1) = (  0.2500000  0.3695398  0.2683255  )
         2           Sn  tau(   2) = (  0.7500000  0.6304602  0.1633208  )
         3           Sn  tau(   3) = (  0.7500000  0.8695398  0.3791440  )
         4           Sn  tau(   4) = (  0.2500000  0.1304602  0.0525023  )
         5           S   tau(   5) = (  0.2500000  0.0105968  0.1499960  )
         6           S   tau(   6) = (  0.7500000  0.9894032  0.2816503  )
         7           S   tau(   7) = (  0.7500000  0.5105968  0.0658272  )
         8           S   tau(   8) = (  0.2500000  0.4894032  0.3658192  )

     number of k points=    16
                       cart. coord. in units 2pi/alat
        k(    1) = (   0.0000000   0.0000000   0.0000000), wk =   0.0555556
        k(    2) = (   0.0000000   0.1454894   0.0000000), wk =   0.1111111
        k(    3) = (   0.0000000   0.2909788   0.0000000), wk =   0.1111111
        k(    4) = (   0.0000000  -0.4364682   0.0000000), wk =   0.0555556
        k(    5) = (   0.1666667   0.0000000   0.0000000), wk =   0.1111111
        k(    6) = (   0.1666667   0.1454894   0.0000000), wk =   0.2222222
        k(    7) = (   0.1666667   0.2909788   0.0000000), wk =   0.2222222
        k(    8) = (   0.1666667  -0.4364682   0.0000000), wk =   0.1111111
        k(    9) = (   0.3333333   0.0000000   0.0000000), wk =   0.1111111
        k(   10) = (   0.3333333   0.1454894   0.0000000), wk =   0.2222222
        k(   11) = (   0.3333333   0.2909788   0.0000000), wk =   0.2222222
        k(   12) = (   0.3333333  -0.4364682   0.0000000), wk =   0.1111111
        k(   13) = (  -0.5000000   0.0000000   0.0000000), wk =   0.0555556
        k(   14) = (  -0.5000000   0.1454894   0.0000000), wk =   0.1111111
        k(   15) = (  -0.5000000   0.2909788   0.0000000), wk =   0.1111111
        k(   16) = (  -0.5000000  -0.4364682   0.0000000), wk =   0.0555556

                       cryst. coord.
        k(    1) = (   0.0000000   0.0000000   0.0000000), wk =   0.0555556
        k(    2) = (   0.0000000   0.1666667   0.0000000), wk =   0.1111111
        k(    3) = (   0.0000000   0.3333333   0.0000000), wk =   0.1111111
        k(    4) = (   0.0000000  -0.5000000   0.0000000), wk =   0.0555556
        k(    5) = (   0.1666667   0.0000000   0.0000000), wk =   0.1111111
        k(    6) = (   0.1666667   0.1666667   0.0000000), wk =   0.2222222
        k(    7) = (   0.1666667   0.3333333   0.0000000), wk =   0.2222222
        k(    8) = (   0.1666667  -0.5000000   0.0000000), wk =   0.1111111
        k(    9) = (   0.3333333   0.0000000   0.0000000), wk =   0.1111111
        k(   10) = (   0.3333333   0.1666667   0.0000000), wk =   0.2222222
        k(   11) = (   0.3333333   0.3333333   0.0000000), wk =   0.2222222
        k(   12) = (   0.3333333  -0.5000000   0.0000000), wk =   0.1111111
        k(   13) = (  -0.5000000   0.0000000   0.0000000), wk =   0.0555556
        k(   14) = (  -0.5000000   0.1666667   0.0000000), wk =   0.1111111
        k(   15) = (  -0.5000000   0.3333333   0.0000000), wk =   0.1111111
        k(   16) = (  -0.5000000  -0.5000000   0.0000000), wk =   0.0555556

     Dense  grid:   431609 G-vectors     FFT dimensions: (  48,  60, 320)

     Smooth grid:   152539 G-vectors     FFT dimensions: (  36,  40, 225)

     Dynamical RAM for                 wfc:       3.64 MB

     Dynamical RAM for     wfc (w. buffer):      61.84 MB

     Dynamical RAM for           str. fact:       1.65 MB

     Dynamical RAM for           local pot:       0.00 MB

     Dynamical RAM for          nlocal pot:       5.24 MB

     Dynamical RAM for                qrad:       3.21 MB

     Dynamical RAM for          rho,v,vnew:       5.11 MB

     Dynamical RAM for               rhoin:       1.70 MB

     Dynamical RAM for            rho*nmix:      13.17 MB

     Dynamical RAM for           G-vectors:       3.23 MB

     Dynamical RAM for          h,s,v(r/c):       0.46 MB

     Dynamical RAM for          <psi|beta>:       0.22 MB

     Dynamical RAM for                 psi:       7.28 MB

     Dynamical RAM for                hpsi:       7.28 MB

     Dynamical RAM for                spsi:       7.28 MB

     Dynamical RAM for      wfcinit/wfcrot:       7.51 MB

     Dynamical RAM for           addusdens:     156.40 MB

     Dynamical RAM for          addusforce:     161.77 MB

     Dynamical RAM for         addusstress:     165.46 MB

     Estimated static dynamical RAM per process >      88.84 MB

     Estimated max dynamical RAM per process >     267.47 MB

     Estimated total dynamical RAM >       2.09 GB

     Initial potential from superposition of free atoms

     starting charge      79.9943, renormalised to      80.0000

     negative rho (up, down):  9.889E-04 0.000E+00
     Starting wfcs are   52 randomized atomic wfcs +   48 random wfcs
     Checking if some PAW data can be deallocated... 
       PAW data deallocated on    4 nodes for type:  1
       PAW data deallocated on    4 nodes for type:  2

     total cpu time spent up to now is        5.4 secs

     per-process dynamical memory:   112.3 Mb

     Self-consistent Calculation

     iteration #  1     ecut=    50.00 Ry     beta= 0.30
     Davidson diagonalization with overlap

---- Real-time Memory Report at c_bands before calling an iterative solver
           239 MiB given to the printing process from OS
           109 MiB allocation reported by mallinfo(arena+hblkhd)
          1127 MiB available memory on the node where the printing process lives
------------------
     ethr =  1.00E-02,  avg # of iterations =  7.5

     Threshold (ethr) on eigenvalues was too large:
     Diagonalizing with lowered threshold

     Davidson diagonalization with overlap

---- Real-time Memory Report at c_bands before calling an iterative solver
           323 MiB given to the printing process from OS
           133 MiB allocation reported by mallinfo(arena+hblkhd)
          1465 MiB available memory on the node where the printing process lives
------------------
     ethr =  5.37E-04,  avg # of iterations =  2.4

     negative rho (up, down):  9.823E-04 0.000E+00

     total cpu time spent up to now is       40.3 secs

     total energy              =   -2033.57355559 Ry
     estimated scf accuracy    <       0.42530879 Ry

     iteration #  2     ecut=    50.00 Ry     beta= 0.30
     Davidson diagonalization with overlap

---- Real-time Memory Report at c_bands before calling an iterative solver
           323 MiB given to the printing process from OS
           133 MiB allocation reported by mallinfo(arena+hblkhd)
          1497 MiB available memory on the node where the printing process lives
------------------
     ethr =  5.32E-04,  avg # of iterations =  4.5

     negative rho (up, down):  9.826E-04 0.000E+00

     total cpu time spent up to now is       55.1 secs

     total energy              =   -2033.62014994 Ry
     estimated scf accuracy    <       0.04742523 Ry

     iteration #  3     ecut=    50.00 Ry     beta= 0.30
     Davidson diagonalization with overlap

---- Real-time Memory Report at c_bands before calling an iterative solver
           328 MiB given to the printing process from OS
           135 MiB allocation reported by mallinfo(arena+hblkhd)
          1429 MiB available memory on the node where the printing process lives
------------------
     ethr =  5.93E-05,  avg # of iterations =  9.4

     negative rho (up, down):  9.837E-04 0.000E+00

     total cpu time spent up to now is       74.5 secs

     total energy              =   -2033.62180295 Ry
     estimated scf accuracy    <       0.02823914 Ry

     iteration #  4     ecut=    50.00 Ry     beta= 0.30
     Davidson diagonalization with overlap

---- Real-time Memory Report at c_bands before calling an iterative solver
           328 MiB given to the printing process from OS
           137 MiB allocation reported by mallinfo(arena+hblkhd)
          1544 MiB available memory on the node where the printing process lives
------------------
     c_bands:  1 eigenvalues not converged
     ethr =  3.53E-05,  avg # of iterations =  6.1

     negative rho (up, down):  1.013E-03 0.000E+00

     total cpu time spent up to now is       90.5 secs

     total energy              =   -2033.62469213 Ry
     estimated scf accuracy    <       0.00853291 Ry

     iteration #  5     ecut=    50.00 Ry     beta= 0.30
     Davidson diagonalization with overlap

---- Real-time Memory Report at c_bands before calling an iterative solver
           328 MiB given to the printing process from OS
           137 MiB allocation reported by mallinfo(arena+hblkhd)
          1535 MiB available memory on the node where the printing process lives
------------------
     c_bands:  1 eigenvalues not converged
     ethr =  1.07E-05,  avg # of iterations =  6.6

     negative rho (up, down):  1.033E-03 0.000E+00

     total cpu time spent up to now is      106.3 secs

     total energy              =   -2033.62529431 Ry
     estimated scf accuracy    <       0.00078978 Ry

     iteration #  6     ecut=    50.00 Ry     beta= 0.30
     Davidson diagonalization with overlap

---- Real-time Memory Report at c_bands before calling an iterative solver
           328 MiB given to the printing process from OS
           137 MiB allocation reported by mallinfo(arena+hblkhd)
          1560 MiB available memory on the node where the printing process lives
------------------
     ethr =  9.87E-07,  avg # of iterations =  9.3

     negative rho (up, down):  1.032E-03 0.000E+00

     total cpu time spent up to now is      125.6 secs

     total energy              =   -2033.62532825 Ry
     estimated scf accuracy    <       0.00006823 Ry

     iteration #  7     ecut=    50.00 Ry     beta= 0.30
     Davidson diagonalization with overlap

---- Real-time Memory Report at c_bands before calling an iterative solver
           329 MiB given to the printing process from OS
           137 MiB allocation reported by mallinfo(arena+hblkhd)
          1520 MiB available memory on the node where the printing process lives
------------------
     ethr =  8.53E-08,  avg # of iterations =  2.0

     negative rho (up, down):  1.028E-03 0.000E+00

     total cpu time spent up to now is      136.2 secs

     total energy              =   -2033.62533830 Ry
     estimated scf accuracy    <       0.00000732 Ry

     iteration #  8     ecut=    50.00 Ry     beta= 0.30
     Davidson diagonalization with overlap

---- Real-time Memory Report at c_bands before calling an iterative solver
           336 MiB given to the printing process from OS
           143 MiB allocation reported by mallinfo(arena+hblkhd)
          1493 MiB available memory on the node where the printing process lives
------------------
     ethr =  9.15E-09,  avg # of iterations =  1.0

     negative rho (up, down):  1.025E-03 0.000E+00

     total cpu time spent up to now is      145.3 secs

     total energy              =   -2033.62533974 Ry
     estimated scf accuracy    <       0.00000267 Ry

     iteration #  9     ecut=    50.00 Ry     beta= 0.30
     Davidson diagonalization with overlap

---- Real-time Memory Report at c_bands before calling an iterative solver
           336 MiB given to the printing process from OS
           143 MiB allocation reported by mallinfo(arena+hblkhd)
          1463 MiB available memory on the node where the printing process lives
------------------
     ethr =  3.34E-09,  avg # of iterations =  1.0

     negative rho (up, down):  1.023E-03 0.000E+00

     total cpu time spent up to now is      154.0 secs

     total energy              =   -2033.62534028 Ry
     estimated scf accuracy    <       0.00000072 Ry

     iteration # 10     ecut=    50.00 Ry     beta= 0.30
     Davidson diagonalization with overlap

---- Real-time Memory Report at c_bands before calling an iterative solver
           336 MiB given to the printing process from OS
           143 MiB allocation reported by mallinfo(arena+hblkhd)
          1501 MiB available memory on the node where the printing process lives
------------------
     ethr =  9.00E-10,  avg # of iterations =  2.0

     negative rho (up, down):  1.022E-03 0.000E+00

     total cpu time spent up to now is      165.2 secs

     total energy              =   -2033.62534040 Ry
     estimated scf accuracy    <       0.00000005 Ry

     iteration # 11     ecut=    50.00 Ry     beta= 0.30
     Davidson diagonalization with overlap

---- Real-time Memory Report at c_bands before calling an iterative solver
           336 MiB given to the printing process from OS
           143 MiB allocation reported by mallinfo(arena+hblkhd)
          1473 MiB available memory on the node where the printing process lives
------------------
     ethr =  6.02E-11,  avg # of iterations =  2.0

     negative rho (up, down):  1.019E-03 0.000E+00

     total cpu time spent up to now is      176.6 secs

     End of self-consistent calculation

          k = 0.0000 0.0000 0.0000 ( 19079 PWs)   bands (ev):

   -20.4890 -20.4838 -20.4706 -20.4679 -20.4611 -20.4588 -20.4547 -20.4534
   -20.4396 -20.4381 -20.4254 -20.4217 -20.4192 -20.4043 -20.4020 -20.4001
   -20.3978 -20.3891 -20.3859 -20.3819 -12.8247 -12.6905 -11.5317 -11.3578
    -6.2544  -5.7911  -4.1091  -3.8524  -3.6955  -2.9913  -2.6002  -2.3973
    -2.2941  -2.2357  -1.2692  -1.2513  -1.0904  -0.9332   0.1567   0.4464
     2.0487   3.0693   3.5006   3.5615   3.9400   4.1446   4.7224   4.7414
     5.0694   5.3006   5.3090   5.7049   6.0574   6.2709   6.7004   6.8274
     7.0411   7.4261   7.8864   7.9531   8.2676   8.4752   8.6462   8.7487
     9.3445   9.4793   9.5051   9.5986   9.8987   9.9628  10.4084  10.6197
    10.9263  11.1082  11.5415  11.5544  11.5897  11.6156  12.0746  12.0958
    12.3226  12.4214  12.4812  12.7217  12.8056  13.1127  13.3165  13.4916
    13.5445  13.6067  13.7241  13.8274  13.8560  14.0392  14.4511  14.4963
    14.5173  14.5560  14.9752  15.0581

     occupation numbers 
     1.0000   1.0000   1.0000   1.0000   1.0000   1.0000   1.0000   1.0000
     1.0000   1.0000   1.0000   1.0000   1.0000   1.0000   1.0000   1.0000
     1.0000   1.0000   1.0000   1.0000   1.0000   1.0000   1.0000   1.0000
     1.0000   1.0000   1.0000   1.0000   1.0000   1.0000   1.0000   1.0000
     1.0000   1.0000   1.0000   1.0000   1.0000   1.0000   1.0000   1.0000
     0.0000   0.0000   0.0000   0.0000   0.0000   0.0000   0.0000   0.0000
     0.0000   0.0000   0.0000   0.0000   0.0000   0.0000   0.0000   0.0000
     0.0000   0.0000   0.0000   0.0000   0.0000   0.0000   0.0000   0.0000
     0.0000   0.0000   0.0000   0.0000   0.0000   0.0000   0.0000   0.0000
     0.0000   0.0000   0.0000   0.0000   0.0000   0.0000   0.0000   0.0000
     0.0000   0.0000   0.0000   0.0000   0.0000   0.0000   0.0000   0.0000
     0.0000   0.0000   0.0000   0.0000   0.0000   0.0000   0.0000   0.0000
     0.0000   0.0000   0.0000   0.0000

          k = 0.0000 0.1455 0.0000 ( 19135 PWs)   bands (ev):

   -20.4875 -20.4828 -20.4714 -20.4685 -20.4619 -20.4590 -20.4558 -20.4543
   -20.4368 -20.4355 -20.4250 -20.4215 -20.4192 -20.4040 -20.4022 -20.3996
   -20.3973 -20.3900 -20.3871 -20.3822 -12.7167 -12.5854 -11.5621 -11.4077
    -6.5220  -5.9911  -4.7900  -4.4931  -3.4809  -2.5208  -2.2758  -2.2678
    -2.1138  -1.9229  -1.2436  -1.0849  -0.7514  -0.4340  -0.1004   0.2978
     2.2736   3.0839   3.2986   3.5849   3.6001   3.8968   4.2811   4.8766
     4.8965   5.2205   5.4597   5.6873   5.7656   6.1069   6.2253   6.6980
     7.1365   7.5541   7.6193   7.9312   8.2821   8.4367   8.7166   8.7690
     9.2525   9.6945   9.7410   9.8072  10.0192  10.1756  10.3750  10.5386
    10.7678  10.8497  11.1740  11.6715  11.7662  11.8805  12.2126  12.3083
    12.5143  12.5686  12.6204  12.6547  13.0391  13.1815  13.4700  13.5620
    13.5751  13.7521  14.0965  14.2201  14.3542  14.5314  14.6938  14.7256
    14.7448  14.9929  15.0289  15.2973

     occupation numbers 
     1.0000   1.0000   1.0000   1.0000   1.0000   1.0000   1.0000   1.0000
     1.0000   1.0000   1.0000   1.0000   1.0000   1.0000   1.0000   1.0000
     1.0000   1.0000   1.0000   1.0000   1.0000   1.0000   1.0000   1.0000
     1.0000   1.0000   1.0000   1.0000   1.0000   1.0000   1.0000   1.0000
     1.0000   1.0000   1.0000   1.0000   1.0000   1.0000   1.0000   1.0000
     0.0000   0.0000   0.0000   0.0000   0.0000   0.0000   0.0000   0.0000
     0.0000   0.0000   0.0000   0.0000   0.0000   0.0000   0.0000   0.0000
     0.0000   0.0000   0.0000   0.0000   0.0000   0.0000   0.0000   0.0000
     0.0000   0.0000   0.0000   0.0000   0.0000   0.0000   0.0000   0.0000
     0.0000   0.0000   0.0000   0.0000   0.0000   0.0000   0.0000   0.0000
     0.0000   0.0000   0.0000   0.0000   0.0000   0.0000   0.0000   0.0000
     0.0000   0.0000   0.0000   0.0000   0.0000   0.0000   0.0000   0.0000
     0.0000   0.0000   0.0000   0.0000

          k = 0.0000 0.2910 0.0000 ( 19113 PWs)   bands (ev):

   -20.4836 -20.4798 -20.4739 -20.4705 -20.4634 -20.4594 -20.4581 -20.4564
   -20.4303 -20.4294 -20.4241 -20.4218 -20.4201 -20.4033 -20.4027 -20.3980
   -20.3958 -20.3923 -20.3898 -20.3827 -12.4253 -12.2987 -11.7033 -11.5905
    -6.8410  -6.2343  -5.7999  -5.3500  -3.0233  -1.9449  -1.9259  -1.8460
    -1.7921  -1.3299  -1.2594  -1.1504  -0.6236   0.0059   0.2395   0.4370
     2.2694   2.6080   2.9574   3.2128   3.4815   3.6566   4.0317   4.3336
     4.6728   4.9425   5.2197   5.5752   5.8119   5.9467   6.2854   6.9237
     7.3746   7.6972   7.8803   7.9473   8.1946   8.5044   8.7728   8.9406
     9.0495   9.1184   9.1524   9.6852  10.0853  10.3132  10.3373  10.7491
    10.8684  10.9845  11.2230  11.4732  11.7887  11.8736  12.2822  12.4783
    12.6621  12.7573  12.8766  13.1170  13.2199  13.4564  13.8418  13.9924
    14.0527  14.1800  14.3482  14.3635  14.6178  14.6661  14.7969  14.9278
    15.2010  15.2371  15.3707  15.3771

     occupation numbers 
     1.0000   1.0000   1.0000   1.0000   1.0000   1.0000   1.0000   1.0000
     1.0000   1.0000   1.0000   1.0000   1.0000   1.0000   1.0000   1.0000
     1.0000   1.0000   1.0000   1.0000   1.0000   1.0000   1.0000   1.0000
     1.0000   1.0000   1.0000   1.0000   1.0000   1.0000   1.0000   1.0000
     1.0000   1.0000   1.0000   1.0000   1.0000   1.0000   1.0000   1.0000
     0.0000   0.0000   0.0000   0.0000   0.0000   0.0000   0.0000   0.0000
     0.0000   0.0000   0.0000   0.0000   0.0000   0.0000   0.0000   0.0000
     0.0000   0.0000   0.0000   0.0000   0.0000   0.0000   0.0000   0.0000
     0.0000   0.0000   0.0000   0.0000   0.0000   0.0000   0.0000   0.0000
     0.0000   0.0000   0.0000   0.0000   0.0000   0.0000   0.0000   0.0000
     0.0000   0.0000   0.0000   0.0000   0.0000   0.0000   0.0000   0.0000
     0.0000   0.0000   0.0000   0.0000   0.0000   0.0000   0.0000   0.0000
     0.0000   0.0000   0.0000   0.0000

          k = 0.0000-0.4365 0.0000 ( 19084 PWs)   bands (ev):

   -20.4795 -20.4772 -20.4771 -20.4728 -20.4641 -20.4595 -20.4588 -20.4579
   -20.4255 -20.4237 -20.4237 -20.4234 -20.4233 -20.4029 -20.4029 -20.3958
   -20.3950 -20.3943 -20.3918 -20.3830 -12.1233 -11.9345 -11.9305 -11.9110
    -6.8509  -6.3167  -6.1910  -5.8497  -2.4257  -2.2715  -1.5880  -1.4551
    -1.4270  -1.4208  -1.3963  -1.3598  -0.2164   0.1098   0.1666   0.6600
     2.3774   2.5368   2.6146   2.8113   3.4799   3.7693   3.9478   4.1595
     4.2135   4.5588   4.6816   5.6723   6.2767   6.5075   6.7327   6.8207
     7.0357   7.3650   7.8576   8.2600   8.6004   8.6544   8.6985   9.3252
     9.5187   9.5951   9.6694   9.7056   9.8531   9.8974  10.1666  10.1985
    10.4097  10.8607  10.9640  11.2653  11.4562  11.5227  11.5453  11.6815
    12.0067  12.7742  13.1314  13.1886  13.3871  13.4753  13.8196  13.8958
    14.3271  14.5416  14.8663  15.0082  15.0826  15.2826  15.7334  15.7701
    15.8164  15.8535  15.8699  15.9888

     occupation numbers 
     1.0000   1.0000   1.0000   1.0000   1.0000   1.0000   1.0000   1.0000
     1.0000   1.0000   1.0000   1.0000   1.0000   1.0000   1.0000   1.0000
     1.0000   1.0000   1.0000   1.0000   1.0000   1.0000   1.0000   1.0000
     1.0000   1.0000   1.0000   1.0000   1.0000   1.0000   1.0000   1.0000
     1.0000   1.0000   1.0000   1.0000   1.0000   1.0000   1.0000   1.0000
     0.0000   0.0000   0.0000   0.0000   0.0000   0.0000   0.0000   0.0000
     0.0000   0.0000   0.0000   0.0000   0.0000   0.0000   0.0000   0.0000
     0.0000   0.0000   0.0000   0.0000   0.0000   0.0000   0.0000   0.0000
     0.0000   0.0000   0.0000   0.0000   0.0000   0.0000   0.0000   0.0000
     0.0000   0.0000   0.0000   0.0000   0.0000   0.0000   0.0000   0.0000
     0.0000   0.0000   0.0000   0.0000   0.0000   0.0000   0.0000   0.0000
     0.0000   0.0000   0.0000   0.0000   0.0000   0.0000   0.0000   0.0000
     0.0000   0.0000   0.0000   0.0000

          k = 0.1667 0.0000 0.0000 ( 19079 PWs)   bands (ev):

   -20.4825 -20.4789 -20.4656 -20.4649 -20.4621 -20.4613 -20.4577 -20.4565
   -20.4371 -20.4359 -20.4281 -20.4208 -20.4203 -20.4066 -20.4054 -20.4002
   -20.3948 -20.3911 -20.3846 -20.3811 -12.6567 -12.5299 -11.4665 -11.3185
    -6.4188  -6.0206  -4.4997  -4.4825  -3.5792  -2.8257  -2.6128  -2.5324
    -2.2883  -2.0499  -1.3348  -1.2818  -1.0068  -0.5630   0.1263   0.3741
     2.2570   3.1104   3.3038   3.7340   4.0062   4.0324   4.3555   4.4477
     4.9982   5.2981   5.4031   5.5818   5.9965   6.0649   6.3249   6.8124
     6.9343   7.0961   7.3926   7.4595   7.8672   7.9090   8.6484   8.7373
     8.9784   9.6824  10.1721  10.1911  10.4788  10.7945  10.9675  11.0375
    11.4029  11.4901  11.6337  11.6749  11.8825  11.8902  12.0276  12.0859
    12.5321  12.5728  12.5733  12.8038  12.8536  13.0034  13.1127  13.1449
    13.3442  13.3547  13.4679  13.7444  13.7812  14.0387  14.0414  14.2967
    14.2968  14.6971  14.8107  15.0571

     occupation numbers 
     1.0000   1.0000   1.0000   1.0000   1.0000   1.0000   1.0000   1.0000
     1.0000   1.0000   1.0000   1.0000   1.0000   1.0000   1.0000   1.0000
     1.0000   1.0000   1.0000   1.0000   1.0000   1.0000   1.0000   1.0000
     1.0000   1.0000   1.0000   1.0000   1.0000   1.0000   1.0000   1.0000
     1.0000   1.0000   1.0000   1.0000   1.0000   1.0000   1.0000   1.0000
     0.0000   0.0000   0.0000   0.0000   0.0000   0.0000   0.0000   0.0000
     0.0000   0.0000   0.0000   0.0000   0.0000   0.0000   0.0000   0.0000
     0.0000   0.0000   0.0000   0.0000   0.0000   0.0000   0.0000   0.0000
     0.0000   0.0000   0.0000   0.0000   0.0000   0.0000   0.0000   0.0000
     0.0000   0.0000   0.0000   0.0000   0.0000   0.0000   0.0000   0.0000
     0.0000   0.0000   0.0000   0.0000   0.0000   0.0000   0.0000   0.0000
     0.0000   0.0000   0.0000   0.0000   0.0000   0.0000   0.0000   0.0000
     0.0000   0.0000   0.0000   0.0000

          k = 0.1667 0.1455 0.0000 ( 19116 PWs)   bands (ev):

   -20.4816 -20.4782 -20.4672 -20.4662 -20.4625 -20.4608 -20.4585 -20.4577
   -20.4347 -20.4335 -20.4276 -20.4212 -20.4195 -20.4065 -20.4057 -20.3998
   -20.3946 -20.3913 -20.3858 -20.3810 -12.5533 -12.4296 -11.4920 -11.3598
    -6.5478  -6.0790  -4.9490  -4.7628  -3.4187  -3.0349  -2.9549  -2.4529
    -1.7580  -1.6330  -1.5314  -1.4510  -0.5274  -0.2427  -0.0316   0.3476
     2.4431   2.9908   3.2240   3.5448   3.7095   3.9860   4.1731   4.7752
     5.0484   5.0754   5.3708   5.4387   5.6275   5.9328   6.2144   6.8074
     7.3089   7.6082   7.9376   8.1170   8.2943   8.4521   8.6376   9.0264
     9.3318   9.5692   9.8484  10.0422  10.1238  10.2622  10.5564  10.6119
    10.8217  11.0250  11.2241  11.3515  11.4853  11.6906  11.9301  12.0135
    12.2383  12.4774  12.7705  12.8544  13.0325  13.0637  13.2559  13.5038
    13.6949  13.8936  13.9799  14.0757  14.2711  14.4634  14.7422  14.9512
    15.0673  15.2138  15.3324  15.4744

     occupation numbers 
     1.0000   1.0000   1.0000   1.0000   1.0000   1.0000   1.0000   1.0000
     1.0000   1.0000   1.0000   1.0000   1.0000   1.0000   1.0000   1.0000
     1.0000   1.0000   1.0000   1.0000   1.0000   1.0000   1.0000   1.0000
     1.0000   1.0000   1.0000   1.0000   1.0000   1.0000   1.0000   1.0000
     1.0000   1.0000   1.0000   1.0000   1.0000   1.0000   1.0000   1.0000
     0.0000   0.0000   0.0000   0.0000   0.0000   0.0000   0.0000   0.0000
     0.0000   0.0000   0.0000   0.0000   0.0000   0.0000   0.0000   0.0000
     0.0000   0.0000   0.0000   0.0000   0.0000   0.0000   0.0000   0.0000
     0.0000   0.0000   0.0000   0.0000   0.0000   0.0000   0.0000   0.0000
     0.0000   0.0000   0.0000   0.0000   0.0000   0.0000   0.0000   0.0000
     0.0000   0.0000   0.0000   0.0000   0.0000   0.0000   0.0000   0.0000
     0.0000   0.0000   0.0000   0.0000   0.0000   0.0000   0.0000   0.0000
     0.0000   0.0000   0.0000   0.0000

          k = 0.1667 0.2910 0.0000 ( 19056 PWs)   bands (ev):

   -20.4790 -20.4762 -20.4710 -20.4691 -20.4628 -20.4607 -20.4605 -20.4598
   -20.4304 -20.4282 -20.4259 -20.4214 -20.4191 -20.4065 -20.4058 -20.3991
   -20.3937 -20.3917 -20.3879 -20.3812 -12.2773 -12.1590 -11.6144 -11.5163
    -6.7163  -6.1558  -5.7393  -5.3590  -3.1562  -2.9476  -2.7912  -2.1840
    -2.0574  -1.7665  -1.3858  -1.0574  -0.3561  -0.1151  -0.0954   0.2828
     2.7062   3.0249   3.2603   3.4037   3.5988   3.8802   4.1235   4.4180
     4.9070   4.9890   5.4558   5.7916   5.8770   6.0706   6.4822   7.0094
     7.5515   7.7931   7.9980   8.3249   8.4754   8.5999   8.9001   9.1039
     9.1320   9.3907   9.4744   9.6553   9.8829  10.2252  10.3717  10.6027
    10.8947  11.1643  11.2989  11.4393  11.6962  11.8597  11.8980  12.2191
    12.3047  12.5468  12.6570  12.9615  13.0387  13.2527  13.4181  13.5626
    13.6852  13.9130  13.9345  14.1912  14.2226  14.3544  14.5822  14.6322
    14.7179  14.9312  15.0031  15.1409

     occupation numbers 
     1.0000   1.0000   1.0000   1.0000   1.0000   1.0000   1.0000   1.0000
     1.0000   1.0000   1.0000   1.0000   1.0000   1.0000   1.0000   1.0000
     1.0000   1.0000   1.0000   1.0000   1.0000   1.0000   1.0000   1.0000
     1.0000   1.0000   1.0000   1.0000   1.0000   1.0000   1.0000   1.0000
     1.0000   1.0000   1.0000   1.0000   1.0000   1.0000   1.0000   1.0000
     0.0000   0.0000   0.0000   0.0000   0.0000   0.0000   0.0000   0.0000
     0.0000   0.0000   0.0000   0.0000   0.0000   0.0000   0.0000   0.0000
     0.0000   0.0000   0.0000   0.0000   0.0000   0.0000   0.0000   0.0000
     0.0000   0.0000   0.0000   0.0000   0.0000   0.0000   0.0000   0.0000
     0.0000   0.0000   0.0000   0.0000   0.0000   0.0000   0.0000   0.0000
     0.0000   0.0000   0.0000   0.0000   0.0000   0.0000   0.0000   0.0000
     0.0000   0.0000   0.0000   0.0000   0.0000   0.0000   0.0000   0.0000
     0.0000   0.0000   0.0000   0.0000

          k = 0.1667-0.4365 0.0000 ( 19088 PWs)   bands (ev):

   -20.4761 -20.4745 -20.4736 -20.4722 -20.4625 -20.4621 -20.4608 -20.4607
   -20.4290 -20.4244 -20.4238 -20.4225 -20.4195 -20.4068 -20.4055 -20.3988
   -20.3928 -20.3924 -20.3890 -20.3814 -11.9989 -11.8184 -11.8147 -11.8060
    -6.6905  -6.1884  -6.0838  -5.7595  -2.8263  -2.6215  -2.5112  -2.4811
    -2.1548  -1.9036  -1.4106  -1.3068  -0.1704  -0.0391   0.0116   0.0760
     2.7504   2.8300   3.3069   3.3171   3.8182   4.1919   4.2669   4.4334
     4.7393   4.9883   5.2202   5.7452   6.4497   6.6135   6.9061   6.9981
     7.2237   7.3954   7.9855   8.0078   8.2133   8.3099   8.6507   9.0458
     9.6033   9.6655   9.7127   9.9202  10.1468  10.2178  10.2611  10.4614
    10.7046  11.0923  11.2881  11.4495  11.8361  11.9294  12.1789  12.1808
    12.5070  12.5151  12.7646  13.0135  13.0970  13.1646  13.2146  13.4349
    13.5429  13.6948  13.8097  14.0784  14.2596  14.2941  14.3168  14.5323
    14.7562  14.8260  15.0275  15.0731

     occupation numbers 
     1.0000   1.0000   1.0000   1.0000   1.0000   1.0000   1.0000   1.0000
     1.0000   1.0000   1.0000   1.0000   1.0000   1.0000   1.0000   1.0000
     1.0000   1.0000   1.0000   1.0000   1.0000   1.0000   1.0000   1.0000
     1.0000   1.0000   1.0000   1.0000   1.0000   1.0000   1.0000   1.0000
     1.0000   1.0000   1.0000   1.0000   1.0000   1.0000   1.0000   1.0000
     0.0000   0.0000   0.0000   0.0000   0.0000   0.0000   0.0000   0.0000
     0.0000   0.0000   0.0000   0.0000   0.0000   0.0000   0.0000   0.0000
     0.0000   0.0000   0.0000   0.0000   0.0000   0.0000   0.0000   0.0000
     0.0000   0.0000   0.0000   0.0000   0.0000   0.0000   0.0000   0.0000
     0.0000   0.0000   0.0000   0.0000   0.0000   0.0000   0.0000   0.0000
     0.0000   0.0000   0.0000   0.0000   0.0000   0.0000   0.0000   0.0000
     0.0000   0.0000   0.0000   0.0000   0.0000   0.0000   0.0000   0.0000
     0.0000   0.0000   0.0000   0.0000

          k = 0.3333 0.0000 0.0000 ( 19081 PWs)   bands (ev):

   -20.4786 -20.4771 -20.4735 -20.4728 -20.4555 -20.4540 -20.4505 -20.4501
   -20.4337 -20.4328 -20.4293 -20.4238 -20.4195 -20.4111 -20.4108 -20.4081
   -20.3887 -20.3876 -20.3815 -20.3790 -12.2061 -12.1067 -11.4014 -11.3340
    -6.7252  -6.4193  -5.6721  -5.4815  -3.0892  -2.5727  -2.4341  -2.3626
    -1.8412  -1.7436  -1.3641  -1.2898  -0.6603  -0.3288  -0.0867   0.1701
     1.9135   2.4749   2.8610   3.1437   3.4522   3.4637   3.9093   3.9649
     4.5109   4.6620   5.3516   5.3794   5.8350   6.0820   6.4944   7.2524
     7.5659   7.7722   8.1825   8.1899   8.5044   8.6619   8.9802   9.0752
     9.1653   9.3365   9.4299   9.6882  10.0404  10.1018  10.3975  10.4288
    10.8630  11.2027  11.6168  11.7842  11.8224  12.0851  12.2003  12.3982
    12.6830  12.7472  13.1322  13.1898  13.4700  13.4865  13.6385  13.8070
    13.8746  13.9975  14.1120  14.1303  14.4039  14.6104  14.7403  15.1041
    15.2334  15.2400  15.4623  15.5913

     occupation numbers 
     1.0000   1.0000   1.0000   1.0000   1.0000   1.0000   1.0000   1.0000
     1.0000   1.0000   1.0000   1.0000   1.0000   1.0000   1.0000   1.0000
     1.0000   1.0000   1.0000   1.0000   1.0000   1.0000   1.0000   1.0000
     1.0000   1.0000   1.0000   1.0000   1.0000   1.0000   1.0000   1.0000
     1.0000   1.0000   1.0000   1.0000   1.0000   1.0000   1.0000   1.0000
     0.0000   0.0000   0.0000   0.0000   0.0000   0.0000   0.0000   0.0000
     0.0000   0.0000   0.0000   0.0000   0.0000   0.0000   0.0000   0.0000
     0.0000   0.0000   0.0000   0.0000   0.0000   0.0000   0.0000   0.0000
     0.0000   0.0000   0.0000   0.0000   0.0000   0.0000   0.0000   0.0000
     0.0000   0.0000   0.0000   0.0000   0.0000   0.0000   0.0000   0.0000
     0.0000   0.0000   0.0000   0.0000   0.0000   0.0000   0.0000   0.0000
     0.0000   0.0000   0.0000   0.0000   0.0000   0.0000   0.0000   0.0000
     0.0000   0.0000   0.0000   0.0000

          k = 0.3333 0.1455 0.0000 ( 19071 PWs)   bands (ev):

   -20.4806 -20.4778 -20.4752 -20.4741 -20.4559 -20.4540 -20.4506 -20.4503
   -20.4330 -20.4305 -20.4282 -20.4231 -20.4190 -20.4120 -20.4103 -20.4067
   -20.3889 -20.3874 -20.3821 -20.3786 -12.1207 -12.0250 -11.4046 -11.3427
    -6.6479  -6.3210  -5.6689  -5.5356  -3.3667  -3.1212  -2.9224  -2.4401
    -1.8469  -1.7382  -1.4594  -1.2957  -0.8572  -0.4599  -0.0605   0.0033
     2.4008   2.6984   2.8033   3.0205   3.5807   3.7553   4.2523   4.5197
     4.7297   5.1446   5.5322   5.8390   5.9960   6.2241   6.5742   7.2116
     7.3130   7.9775   8.2508   8.4246   8.5378   8.7822   8.8094   9.1807
     9.2642   9.4209   9.6323   9.8591  10.0045  10.1661  10.5608  10.6723
    10.8473  10.9882  11.1943  11.4008  11.5199  11.6780  11.8024  12.1122
    12.1810  12.5701  12.7495  12.9505  13.0448  13.3924  13.5234  13.5918
    13.8143  13.9916  14.1164  14.2004  14.3318  14.4302  14.7162  14.8444
    14.9892  15.0463  15.2396  15.5692

     occupation numbers 
     1.0000   1.0000   1.0000   1.0000   1.0000   1.0000   1.0000   1.0000
     1.0000   1.0000   1.0000   1.0000   1.0000   1.0000   1.0000   1.0000
     1.0000   1.0000   1.0000   1.0000   1.0000   1.0000   1.0000   1.0000
     1.0000   1.0000   1.0000   1.0000   1.0000   1.0000   1.0000   1.0000
     1.0000   1.0000   1.0000   1.0000   1.0000   1.0000   1.0000   1.0000
     0.0000   0.0000   0.0000   0.0000   0.0000   0.0000   0.0000   0.0000
     0.0000   0.0000   0.0000   0.0000   0.0000   0.0000   0.0000   0.0000
     0.0000   0.0000   0.0000   0.0000   0.0000   0.0000   0.0000   0.0000
     0.0000   0.0000   0.0000   0.0000   0.0000   0.0000   0.0000   0.0000
     0.0000   0.0000   0.0000   0.0000   0.0000   0.0000   0.0000   0.0000
     0.0000   0.0000   0.0000   0.0000   0.0000   0.0000   0.0000   0.0000
     0.0000   0.0000   0.0000   0.0000   0.0000   0.0000   0.0000   0.0000
     0.0000   0.0000   0.0000   0.0000

          k = 0.3333 0.2910 0.0000 ( 19035 PWs)   bands (ev):

   -20.4837 -20.4804 -20.4782 -20.4770 -20.4560 -20.4541 -20.4520 -20.4505
   -20.4317 -20.4277 -20.4245 -20.4215 -20.4182 -20.4128 -20.4091 -20.4046
   -20.3888 -20.3875 -20.3827 -20.3782 -11.9032 -11.8149 -11.4534 -11.4041
    -6.4694  -6.0972  -5.8002  -5.6507  -3.8405  -3.5839  -3.0064  -2.7906
    -2.5069  -2.1759  -1.7112  -1.3765  -1.2263  -0.6558  -0.3944  -0.1117
     2.4381   3.3892   3.8449   3.8973   4.1170   4.2107   4.4184   5.0392
     5.3076   5.4024   5.7785   6.4892   6.5496   6.6727   6.8450   7.1992
     7.3797   7.7112   8.2032   8.2768   8.7743   9.0437   9.1464   9.3942
     9.6691   9.7349   9.8061   9.9289  10.0669  10.2132  10.3243  10.4448
    10.6557  10.8461  11.0598  11.2864  11.3062  11.4500  11.6627  12.0001
    12.1170  12.1993  12.3206  12.4546  12.5360  12.6965  12.8510  12.9931
    13.2362  13.3985  13.8387  14.0221  14.1778  14.2818  14.4132  14.5725
    14.6403  14.8200  14.9391  15.1439

     occupation numbers 
     1.0000   1.0000   1.0000   1.0000   1.0000   1.0000   1.0000   1.0000
     1.0000   1.0000   1.0000   1.0000   1.0000   1.0000   1.0000   1.0000
     1.0000   1.0000   1.0000   1.0000   1.0000   1.0000   1.0000   1.0000
     1.0000   1.0000   1.0000   1.0000   1.0000   1.0000   1.0000   1.0000
     1.0000   1.0000   1.0000   1.0000   1.0000   1.0000   1.0000   1.0000
     0.0000   0.0000   0.0000   0.0000   0.0000   0.0000   0.0000   0.0000
     0.0000   0.0000   0.0000   0.0000   0.0000   0.0000   0.0000   0.0000
     0.0000   0.0000   0.0000   0.0000   0.0000   0.0000   0.0000   0.0000
     0.0000   0.0000   0.0000   0.0000   0.0000   0.0000   0.0000   0.0000
     0.0000   0.0000   0.0000   0.0000   0.0000   0.0000   0.0000   0.0000
     0.0000   0.0000   0.0000   0.0000   0.0000   0.0000   0.0000   0.0000
     0.0000   0.0000   0.0000   0.0000   0.0000   0.0000   0.0000   0.0000
     0.0000   0.0000   0.0000   0.0000

          k = 0.3333-0.4365 0.0000 ( 19070 PWs)   bands (ev):

   -20.4851 -20.4822 -20.4790 -20.4788 -20.4554 -20.4544 -20.4530 -20.4508
   -20.4312 -20.4264 -20.4223 -20.4210 -20.4176 -20.4131 -20.4083 -20.4037
   -20.3884 -20.3882 -20.3828 -20.3781 -11.7107 -11.5864 -11.5594 -11.5574
    -6.3319  -5.9859  -5.9468  -5.7365  -3.6755  -3.6636  -3.3384  -3.3358
    -2.3278  -2.2938  -1.9009  -1.8397  -1.0623  -0.8944  -0.4741  -0.4150
     3.0914   3.2768   3.8526   4.3990   4.5124   4.6394   4.8296   4.8752
     5.5797   5.8595   6.2233   6.4668   6.8248   6.9045   7.2009   7.5374
     7.6222   7.6891   7.8399   8.0085   8.5195   8.5317   8.9035   9.2316
     9.2728   9.8598  10.1318  10.3863  10.4941  10.5004  10.6176  10.7351
    10.8159  10.9056  11.0321  11.1252  11.2039  11.3116  11.5321  11.7560
    11.9801  11.9879  12.0783  12.3628  12.3971  12.4911  12.8314  12.8787
    13.3390  13.4350  13.4854  13.7515  13.8853  14.1197  14.1540  14.2857
    14.3376  14.5077  14.5424  14.6562

     occupation numbers 
     1.0000   1.0000   1.0000   1.0000   1.0000   1.0000   1.0000   1.0000
     1.0000   1.0000   1.0000   1.0000   1.0000   1.0000   1.0000   1.0000
     1.0000   1.0000   1.0000   1.0000   1.0000   1.0000   1.0000   1.0000
     1.0000   1.0000   1.0000   1.0000   1.0000   1.0000   1.0000   1.0000
     1.0000   1.0000   1.0000   1.0000   1.0000   1.0000   1.0000   1.0000
     0.0000   0.0000   0.0000   0.0000   0.0000   0.0000   0.0000   0.0000
     0.0000   0.0000   0.0000   0.0000   0.0000   0.0000   0.0000   0.0000
     0.0000   0.0000   0.0000   0.0000   0.0000   0.0000   0.0000   0.0000
     0.0000   0.0000   0.0000   0.0000   0.0000   0.0000   0.0000   0.0000
     0.0000   0.0000   0.0000   0.0000   0.0000   0.0000   0.0000   0.0000
     0.0000   0.0000   0.0000   0.0000   0.0000   0.0000   0.0000   0.0000
     0.0000   0.0000   0.0000   0.0000   0.0000   0.0000   0.0000   0.0000
     0.0000   0.0000   0.0000   0.0000

          k =-0.5000 0.0000 0.0000 ( 19080 PWs)   bands (ev):

   -20.4809 -20.4809 -20.4771 -20.4771 -20.4488 -20.4488 -20.4461 -20.4460
   -20.4324 -20.4324 -20.4270 -20.4270 -20.4161 -20.4161 -20.4129 -20.4129
   -20.3846 -20.3845 -20.3787 -20.3786 -11.6924 -11.6924 -11.5901 -11.5901
    -6.5614  -6.5614  -6.2892  -6.2892  -2.5093  -2.5093  -2.1508  -2.1508
    -1.6408  -1.6407  -1.3274  -1.3274  -0.4018  -0.4017  -0.2631  -0.2630
     2.2523   2.2523   2.3142   2.3142   3.3583   3.3583   3.6840   3.6840
     4.0161   4.0161   4.9112   4.9112   6.6399   6.6401   7.2308   7.2308
     7.6251   7.6253   8.4896   8.4901   8.6022   8.6022   8.8694   8.8694
     9.7937   9.7937  10.0636  10.0637  10.2481  10.2481  10.5736  10.5737
    10.7596  10.7597  11.8399  11.8399  12.2079  12.2079  12.4668  12.4669
    12.6756  12.6757  12.7909  12.7910  13.5708  13.5708  13.7249  13.7251
    14.1601  14.1603  14.3247  14.3248  14.5001  14.5002  14.7326  14.7329
    14.8524  14.8529  15.1938  15.1939

     occupation numbers 
     1.0000   1.0000   1.0000   1.0000   1.0000   1.0000   1.0000   1.0000
     1.0000   1.0000   1.0000   1.0000   1.0000   1.0000   1.0000   1.0000
     1.0000   1.0000   1.0000   1.0000   1.0000   1.0000   1.0000   1.0000
     1.0000   1.0000   1.0000   1.0000   1.0000   1.0000   1.0000   1.0000
     1.0000   1.0000   1.0000   1.0000   1.0000   1.0000   1.0000   1.0000
     0.0000   0.0000   0.0000   0.0000   0.0000   0.0000   0.0000   0.0000
     0.0000   0.0000   0.0000   0.0000   0.0000   0.0000   0.0000   0.0000
     0.0000   0.0000   0.0000   0.0000   0.0000   0.0000   0.0000   0.0000
     0.0000   0.0000   0.0000   0.0000   0.0000   0.0000   0.0000   0.0000
     0.0000   0.0000   0.0000   0.0000   0.0000   0.0000   0.0000   0.0000
     0.0000   0.0000   0.0000   0.0000   0.0000   0.0000   0.0000   0.0000
     0.0000   0.0000   0.0000   0.0000   0.0000   0.0000   0.0000   0.0000
     0.0000   0.0000   0.0000   0.0000

          k =-0.5000 0.1455 0.0000 ( 19044 PWs)   bands (ev):

   -20.4830 -20.4830 -20.4788 -20.4788 -20.4494 -20.4494 -20.4461 -20.4461
   -20.4316 -20.4316 -20.4253 -20.4253 -20.4166 -20.4166 -20.4111 -20.4111
   -20.3848 -20.3848 -20.3785 -20.3785 -11.6477 -11.6477 -11.5475 -11.5475
    -6.4516  -6.4516  -6.2105  -6.2105  -2.8693  -2.8693  -2.5854  -2.5853
    -1.9565  -1.9565  -1.5367  -1.5367  -0.6987  -0.6987  -0.2404  -0.2404
     2.2476   2.2476   2.8447   2.8447   3.9116   3.9116   4.3162   4.3162
     4.7296   4.7296   5.0812   5.0812   6.6671   6.6673   7.3368   7.3369
     7.5183   7.5185   8.1276   8.1276   8.4835   8.4838   9.0104   9.0105
     9.6988   9.6989   9.9886   9.9887  10.4438  10.4438  11.0729  11.0730
    11.2943  11.2944  11.7727  11.7728  12.0869  12.0870  12.3259  12.3261
    12.4932  12.4933  12.7271  12.7272  12.7756  12.7756  12.9368  12.9369
    13.3525  13.3525  13.4637  13.4639  14.2787  14.2789  14.5146  14.5146
    14.7021  14.7022  14.9248  14.9248

     occupation numbers 
     1.0000   1.0000   1.0000   1.0000   1.0000   1.0000   1.0000   1.0000
     1.0000   1.0000   1.0000   1.0000   1.0000   1.0000   1.0000   1.0000
     1.0000   1.0000   1.0000   1.0000   1.0000   1.0000   1.0000   1.0000
     1.0000   1.0000   1.0000   1.0000   1.0000   1.0000   1.0000   1.0000
     1.0000   1.0000   1.0000   1.0000   1.0000   1.0000   1.0000   1.0000
     0.0000   0.0000   0.0000   0.0000   0.0000   0.0000   0.0000   0.0000
     0.0000   0.0000   0.0000   0.0000   0.0000   0.0000   0.0000   0.0000
     0.0000   0.0000   0.0000   0.0000   0.0000   0.0000   0.0000   0.0000
     0.0000   0.0000   0.0000   0.0000   0.0000   0.0000   0.0000   0.0000
     0.0000   0.0000   0.0000   0.0000   0.0000   0.0000   0.0000   0.0000
     0.0000   0.0000   0.0000   0.0000   0.0000   0.0000   0.0000   0.0000
     0.0000   0.0000   0.0000   0.0000   0.0000   0.0000   0.0000   0.0000
     0.0000   0.0000   0.0000   0.0000

          k =-0.5000 0.2910 0.0000 ( 19022 PWs)   bands (ev):

   -20.4872 -20.4871 -20.4822 -20.4822 -20.4505 -20.4505 -20.4463 -20.4463
   -20.4301 -20.4301 -20.4223 -20.4222 -20.4166 -20.4166 -20.4083 -20.4083
   -20.3853 -20.3852 -20.3781 -20.3781 -11.5544 -11.5543 -11.4589 -11.4589
    -6.1967  -6.1967  -6.0490  -6.0490  -3.4854  -3.4854  -3.1114  -3.1114
    -2.5474  -2.5474  -2.1735  -2.1735  -1.0213  -1.0213  -0.4596  -0.4596
     3.0634   3.0634   3.8546   3.8546   4.2554   4.2554   4.7565   4.7565
     5.7237   5.7237   6.3199   6.3199   6.8204   6.8204   7.4865   7.4866
     7.8854   7.8856   8.1737   8.1739   8.6620   8.6621   9.1312   9.1313
     9.4154   9.4157  10.1875  10.1877  10.3373  10.3375  10.7032  10.7032
    10.8337  10.8338  11.0769  11.0770  11.7446  11.7449  12.0231  12.0232
    12.2015  12.2016  12.4235  12.4236  12.7242  12.7242  12.8946  12.8946
    13.2056  13.2057  13.3590  13.3591  13.5580  13.5581  13.7058  13.7059
    14.0119  14.0119  14.6115  14.6116

     occupation numbers 
     1.0000   1.0000   1.0000   1.0000   1.0000   1.0000   1.0000   1.0000
     1.0000   1.0000   1.0000   1.0000   1.0000   1.0000   1.0000   1.0000
     1.0000   1.0000   1.0000   1.0000   1.0000   1.0000   1.0000   1.0000
     1.0000   1.0000   1.0000   1.0000   1.0000   1.0000   1.0000   1.0000
     1.0000   1.0000   1.0000   1.0000   1.0000   1.0000   1.0000   1.0000
     0.0000   0.0000   0.0000   0.0000   0.0000   0.0000   0.0000   0.0000
     0.0000   0.0000   0.0000   0.0000   0.0000   0.0000   0.0000   0.0000
     0.0000   0.0000   0.0000   0.0000   0.0000   0.0000   0.0000   0.0000
     0.0000   0.0000   0.0000   0.0000   0.0000   0.0000   0.0000   0.0000
     0.0000   0.0000   0.0000   0.0000   0.0000   0.0000   0.0000   0.0000
     0.0000   0.0000   0.0000   0.0000   0.0000   0.0000   0.0000   0.0000
     0.0000   0.0000   0.0000   0.0000   0.0000   0.0000   0.0000   0.0000
     0.0000   0.0000   0.0000   0.0000

          k =-0.5000-0.4365 0.0000 ( 18968 PWs)   bands (ev):

   -20.4892 -20.4892 -20.4839 -20.4839 -20.4511 -20.4511 -20.4465 -20.4465
   -20.4293 -20.4293 -20.4210 -20.4209 -20.4162 -20.4162 -20.4070 -20.4070
   -20.3855 -20.3854 -20.3779 -20.3778 -11.5056 -11.5056 -11.4127 -11.4127
    -6.0421  -6.0420  -5.9743  -5.9743  -3.6675  -3.6675  -3.2804  -3.2804
    -2.8923  -2.8922  -2.6567  -2.6567  -1.0068  -1.0068  -0.5640  -0.5640
     3.6388   3.6388   3.6804   3.6804   4.8504   4.8505   4.9136   4.9136
     5.9392   5.9392   6.9666   6.9666   7.2455   7.2455   7.6553   7.6553
     8.4276   8.4280   8.7651   8.7652   8.9259   8.9260   9.1020   9.1020
     9.4445   9.4447   9.6373   9.6373  10.0159  10.0159  10.0559  10.0565
    10.5948  10.5950  10.7008  10.7009  11.1578  11.1579  11.6539  11.6539
    11.8136  11.8138  12.1768  12.1771  12.6534  12.6535  12.7505  12.7505
    13.3232  13.3233  13.3742  13.3742  13.8822  13.8823  14.0089  14.0091
    14.4089  14.4092  14.5290  14.5291

     occupation numbers 
     1.0000   1.0000   1.0000   1.0000   1.0000   1.0000   1.0000   1.0000
     1.0000   1.0000   1.0000   1.0000   1.0000   1.0000   1.0000   1.0000
     1.0000   1.0000   1.0000   1.0000   1.0000   1.0000   1.0000   1.0000
     1.0000   1.0000   1.0000   1.0000   1.0000   1.0000   1.0000   1.0000
     1.0000   1.0000   1.0000   1.0000   1.0000   1.0000   1.0000   1.0000
     0.0000   0.0000   0.0000   0.0000   0.0000   0.0000   0.0000   0.0000
     0.0000   0.0000   0.0000   0.0000   0.0000   0.0000   0.0000   0.0000
     0.0000   0.0000   0.0000   0.0000   0.0000   0.0000   0.0000   0.0000
     0.0000   0.0000   0.0000   0.0000   0.0000   0.0000   0.0000   0.0000
     0.0000   0.0000   0.0000   0.0000   0.0000   0.0000   0.0000   0.0000
     0.0000   0.0000   0.0000   0.0000   0.0000   0.0000   0.0000   0.0000
     0.0000   0.0000   0.0000   0.0000   0.0000   0.0000   0.0000   0.0000
     0.0000   0.0000   0.0000   0.0000

     highest occupied, lowest unoccupied level (ev):     0.6600    1.9135

!    total energy              =   -2033.62534042 Ry

     total all-electron energy =    -52612.540968 Ry
     estimated scf accuracy    <          9.8E-09 Ry

     The total energy is the sum of the following terms:
     one-electron contribution =   -3781.76252429 Ry
     hartree contribution      =    1924.62685117 Ry
     xc contribution           =    -212.74637004 Ry
     ewald contribution        =    1344.56064942 Ry
     one-center paw contrib.   =   -1308.30394667 Ry
      -> PAW hartree energy AE =     109.33746806 Ry
      -> PAW hartree energy PS =    -108.58193085 Ry
      -> PAW xc energy AE      =    -329.01778491 Ry
      -> PAW xc energy PS      =      47.32025618 Ry
      -> total E_H with PAW    =    1925.38238839 Ry
      -> total E_XC with PAW   =    -494.44389878 Ry

     convergence has been achieved in  11 iterations

     negative rho (up, down):  1.019E-03 0.000E+00

     Forces acting on atoms (cartesian axes, Ry/au):

     atom    1 type  1   force =     0.00000000    0.00664608   -0.00498544
     atom    2 type  1   force =     0.00000000   -0.00664420    0.00499846
     atom    3 type  1   force =     0.00000000    0.00708650    0.00115245
     atom    4 type  1   force =     0.00000000   -0.00708427   -0.00117675
     atom    5 type  2   force =     0.00000000    0.00774830   -0.00000893
     atom    6 type  2   force =     0.00000000   -0.00775089    0.00001206
     atom    7 type  2   force =     0.00000000    0.00641302   -0.00354214
     atom    8 type  2   force =     0.00000000   -0.00641455    0.00355029
     The non-local contrib.  to forces
     atom    1 type  1   force =     0.00000000   -0.31283467    0.38269040
     atom    2 type  1   force =     0.00000000    0.31283549   -0.38268366
     atom    3 type  1   force =     0.00000000   -0.31044321   -0.46394292
     atom    4 type  1   force =     0.00000000    0.31044778    0.46392845
     atom    5 type  2   force =     0.00000000   -0.08725247   -0.09664947
     atom    6 type  2   force =     0.00000000    0.08725319    0.09664999
     atom    7 type  2   force =     0.00000000   -0.09048998    0.09942974
     atom    8 type  2   force =     0.00000000    0.09049041   -0.09942871
     The ionic contribution  to forces
     atom    1 type  1   force =     0.00000000    1.30941805   27.29213372
     atom    2 type  1   force =     0.00000000   -1.30941772  -27.29213245
     atom    3 type  1   force =    -0.00000000    2.29845485   96.49652634
     atom    4 type  1   force =     0.00000000   -2.29845464  -96.49652839
     atom    5 type  2   force =     0.00000000    1.91869604  -14.14240992
     atom    6 type  2   force =    -0.00000000   -1.91869604   14.14240994
     atom    7 type  2   force =     0.00000000    2.28934445  -39.31975074
     atom    8 type  2   force =    -0.00000000   -2.28934499   39.31975150
     The local contribution  to forces
     atom    1 type  1   force =     0.00000000   -0.98946568  -27.68029817
     atom    2 type  1   force =     0.00000000    0.98945601   27.68028971
     atom    3 type  1   force =     0.00000000   -1.97926842  -96.03104857
     atom    4 type  1   force =     0.00000000    1.97926390   96.03114280
     atom    5 type  2   force =     0.00000000   -1.82480686   14.23745997
     atom    6 type  2   force =    -0.00000000    1.82480588  -14.23745827
     atom    7 type  2   force =    -0.00000000   -2.19356650   39.21839564
     atom    8 type  2   force =    -0.00000000    2.19356889  -39.21835645
     The core correction contribution to forces
     atom    1 type  1   force =    -0.00000000   -0.00043021    0.00033828
     atom    2 type  1   force =    -0.00000000    0.00042952   -0.00033664
     atom    3 type  1   force =     0.00000000   -0.00155206    0.00006654
     atom    4 type  1   force =     0.00000000    0.00155221   -0.00006486
     atom    5 type  2   force =     0.00000000    0.00109794    0.00159975
     atom    6 type  2   force =    -0.00000000   -0.00109797   -0.00159976
     atom    7 type  2   force =     0.00000000    0.00111139   -0.00160089
     atom    8 type  2   force =     0.00000000   -0.00111139    0.00160107
     The Hubbard contrib.    to forces
     atom    1 type  1   force =     0.00000000    0.00000000    0.00000000
     atom    2 type  1   force =     0.00000000    0.00000000    0.00000000
     atom    3 type  1   force =     0.00000000    0.00000000    0.00000000
     atom    4 type  1   force =     0.00000000    0.00000000    0.00000000
     atom    5 type  2   force =     0.00000000    0.00000000    0.00000000
     atom    6 type  2   force =     0.00000000    0.00000000    0.00000000
     atom    7 type  2   force =     0.00000000    0.00000000    0.00000000
     atom    8 type  2   force =     0.00000000    0.00000000    0.00000000
     The SCF correction term to forces
     atom    1 type  1   force =    -0.00000000   -0.00004007    0.00014896
     atom    2 type  1   force =    -0.00000000    0.00005382   -0.00013986
     atom    3 type  1   force =     0.00000000   -0.00010332   -0.00045030
     atom    4 type  1   force =     0.00000000    0.00010781    0.00034390
     atom    5 type  2   force =     0.00000000    0.00001497   -0.00001062
     atom    6 type  2   force =     0.00000000   -0.00001462    0.00000881
     atom    7 type  2   force =    -0.00000000    0.00001499   -0.00001725
     atom    8 type  2   force =    -0.00000000   -0.00001613   -0.00001848

     Total force =     0.021652     Total SCF correction =     0.000626


     Computing stress (Cartesian axis) and pressure


     negative rho (up, down):  1.019E-03 0.000E+00
          total   stress  (Ry/bohr**3)                   (kbar)     P=        3.60
   0.00003799   0.00000000   0.00000000            5.59        0.00        0.00
   0.00000000   0.00002517   0.00000122            0.00        3.70        0.18
   0.00000000   0.00000122   0.00001034            0.00        0.18        1.52

     kinetic stress (kbar)   7824.14      0.00      0.00
                                0.00   7853.67      1.15
                                0.00      1.15   7856.61

     local   stress (kbar)-163820.11     -0.00      0.00
                               -0.00-162048.95    203.75
                                0.00    203.75 161418.04

     nonloc. stress (kbar)  -1320.76      0.00      0.00
                                0.00  -1325.72     -0.59
                                0.00     -0.59  -1312.68

     hartree stress (kbar)  83366.62     -0.00      0.00
                               -0.00  82664.02    -86.78
                                0.00    -86.78 -77399.32

     exc-cor stress (kbar)   3705.18      0.00      0.00
                                0.00   3704.57      0.03
                                0.00      0.03   3703.83

     corecor stress (kbar)  -5592.21      0.00     -0.00
                                0.00  -5592.12      0.04
                               -0.00      0.04  -5592.61

     ewald   stress (kbar)  75842.72     -0.00     -0.00
                               -0.00  74748.23   -117.42
                               -0.00   -117.42 -88672.35

     hubbard stress (kbar)      0.00      0.00      0.00
                                0.00      0.00      0.00
                                0.00      0.00      0.00

     DFT-D   stress (kbar)      0.00      0.00      0.00
                                0.00      0.00      0.00
                                0.00      0.00      0.00

     XDM     stress (kbar)      0.00      0.00      0.00
                                0.00      0.00      0.00
                                0.00      0.00      0.00

     dft-nl  stress (kbar)      0.00      0.00      0.00
                                0.00      0.00      0.00
                                0.00      0.00      0.00

     TS-vdW  stress (kbar)      0.00      0.00      0.00
                                0.00      0.00      0.00
                                0.00      0.00      0.00


                                0.00      0.00      0.00
                                0.00      0.00      0.00


                                0.00      0.00      0.00


     Writing all to output data dir ./mono/sns.save/

     init_run     :      8.95s CPU      5.22s WALL (       1 calls)
     electrons    :    329.10s CPU    171.23s WALL (       1 calls)
     forces       :      4.77s CPU      2.49s WALL (       1 calls)
     stress       :     24.07s CPU     12.72s WALL (       1 calls)

     Called by init_run:
     wfcinit      :      5.25s CPU      2.77s WALL (       1 calls)
     wfcinit:atom :      0.04s CPU      0.02s WALL (      16 calls)
     wfcinit:wfcr :      4.96s CPU      2.62s WALL (      16 calls)
     potinit      :      1.03s CPU      0.59s WALL (       1 calls)
     hinit0       :      1.51s CPU      1.08s WALL (       1 calls)

     Called by electrons:
     c_bands      :    268.25s CPU    137.03s WALL (      12 calls)
     sum_band     :     50.51s CPU     28.22s WALL (      12 calls)
     v_of_rho     :      1.26s CPU      0.69s WALL (      12 calls)
     v_h          :      0.09s CPU      0.05s WALL (      12 calls)
     v_xc         :      1.39s CPU      0.77s WALL (      14 calls)
     newd         :      8.24s CPU      4.86s WALL (      12 calls)
     PAW_pot      :      1.56s CPU      0.86s WALL (      12 calls)
     mix_rho      :      0.20s CPU      0.12s WALL (      12 calls)

     Called by c_bands:
     init_us_2    :      2.47s CPU      1.26s WALL (     432 calls)
     init_us_2:cp :      2.46s CPU      1.26s WALL (     432 calls)
     cegterg      :    261.65s CPU    133.62s WALL (     192 calls)

     Called by sum_band:
     sum_band:wei :      0.00s CPU      0.00s WALL (      12 calls)
     sum_band:loo :     37.76s CPU     19.31s WALL (      12 calls)
     sum_band:buf :      0.63s CPU      0.35s WALL (     192 calls)
     sum_band:ini :      1.31s CPU      0.67s WALL (     192 calls)
     sum_band:cal :      4.19s CPU      2.12s WALL (     192 calls)
     sum_band:bec :      0.74s CPU      0.35s WALL (     192 calls)
     addusdens    :     11.61s CPU      8.02s WALL (      12 calls)
     addusd:skk   :      0.23s CPU      0.12s WALL (      24 calls)
     addusd:dgemm :      3.84s CPU      3.98s WALL (      24 calls)
     addusd:qvan2 :      7.08s CPU      3.59s WALL (      24 calls)

     Called by *egterg:
     cdiaghg      :     10.33s CPU      5.26s WALL (    1036 calls)
     cegterg:over :     17.99s CPU      9.21s WALL (     860 calls)
     cegterg:upda :     17.34s CPU      8.67s WALL (     860 calls)
     cegterg:last :     22.62s CPU     11.52s WALL (     399 calls)
     cdiaghg:chol :      0.73s CPU      0.36s WALL (    1036 calls)
     cdiaghg:inve :      0.18s CPU      0.09s WALL (    1036 calls)
     cdiaghg:para :      1.72s CPU      0.93s WALL (    2072 calls)
     h_psi        :    164.07s CPU     84.21s WALL (    1068 calls)
     s_psi        :     12.32s CPU      6.37s WALL (    1068 calls)
     g_psi        :      1.61s CPU      0.84s WALL (     860 calls)

     Called by h_psi:
     h_psi:calbec :     16.46s CPU      8.36s WALL (    1068 calls)
     vloc_psi     :    135.10s CPU     69.49s WALL (    1068 calls)
     add_vuspsi   :      9.17s CPU      4.66s WALL (    1068 calls)

     General routines
     calbec       :     24.89s CPU     12.99s WALL (    1340 calls)
     fft          :      0.99s CPU      0.68s WALL (     180 calls)
     ffts         :      0.55s CPU      0.33s WALL (      24 calls)
     fftw         :    148.16s CPU     76.03s WALL (  113416 calls)
     interpolate  :      0.18s CPU      0.15s WALL (      12 calls)

     Parallel routines

     PAW routines
     PAW_pot      :      1.56s CPU      0.86s WALL (      12 calls)
     PAW_symme    :      0.05s CPU      0.03s WALL (      24 calls)

     PWSCF        :   6m 7.26s CPU   3m12.33s WALL


   This run was terminated on:   3:26: 6   3Jul2025            

=------------------------------------------------------------------------------=
   JOB DONE.
=------------------------------------------------------------------------------=
