
     Program PWSCF v.7.0 starts on  3Jul2025 at  3:54:34 

     This program is part of the open-source Quantum ESPRESSO suite
     for quantum simulation of materials; please cite
         "P. Giannozzi et al., J. Phys.:Condens. Matter 21 395502 (2009);
         "P. Giannozzi et al., J. Phys.:Condens. Matter 29 465901 (2017);
         "P. Giannozzi et al., J. Chem. Phys. 152 154105 (2020);
          URL http://www.quantum-espresso.org", 
     in publications or presentations arising from this work. More details at
     http://www.quantum-espresso.org/quote

     Parallel version (MPI & OpenMP), running on      16 processor cores
     Number of MPI processes:                 8
     Threads/MPI process:                     2

     MPI processes distributed on     1 nodes
     R & G space division:  proc/nbgrp/npool/nimage =       8
     3015 MiB available memory on the printing compute node when the environment starts

     Waiting for input...
     Reading input from standard input

     Current dimensions of program PWSCF are:
     Max number of different atomic species (ntypx) = 10
     Max number of k-points (npk) =  40000
     Max angular momentum in pseudopotentials (lmaxx) =  4
     file Sn.pbe-dn-kjpaw_psl.1.0.0.UPF: wavefunction(s)  5S 5P 4D renormalized
     file S.pbe-n-kjpaw_psl.1.0.0.UPF: wavefunction(s)  3S 3P renormalized

     IMPORTANT: XC functional enforced from input :
     Exchange-correlation= PBE
                           (   1   4   3   4   0   0   0)
     Any further DFT definition will be discarded
     Please, verify this is what you really want

     Message from routine setup:
     using ibrav=0 with symmetry is DISCOURAGED, use correct ibrav instead

     Subspace diagonalization in iterative solution of the eigenvalue problem:
     one sub-group per band group will be used
     scalapack distributed-memory algorithm (size of sub-group:  2*  2 procs)


     Parallelization info
     --------------------
     sticks:   dense  smooth     PW     G-vecs:    dense   smooth      PW
     Min         255     126     36               100509    35512    5560
     Max         256     127     37               100540    35553    5579
     Sum        2045    1015    295               804151   284257   44599

     Using Slab Decomposition



     bravais-lattice index     =            0
     lattice parameter (alat)  =       7.4774  a.u.
     unit-cell volume          =    5952.0700 (a.u.)^3
     number of atoms/cell      =           24
     number of atomic types    =            2
     number of electrons       =       240.00
     number of Kohn-Sham states=          300
     kinetic-energy cutoff     =      50.0000  Ry
     charge density cutoff     =     400.0000  Ry
     scf convergence threshold =      1.0E-08
     mixing beta               =       0.3000
     number of iterations used =            8  plain     mixing
     Exchange-correlation= PBE
                           (   1   4   3   4   0   0   0)

     celldm(1)=   7.477373  celldm(2)=   0.000000  celldm(3)=   0.000000
     celldm(4)=   0.000000  celldm(5)=   0.000000  celldm(6)=   0.000000

     crystal axes: (cart. coord. in units of alat)
               a(1) = (   1.000000   0.000000   0.000000 )  
               a(2) = (   0.000000   1.145559   0.000000 )  
               a(3) = (   0.000000   0.000000  12.428065 )  

     reciprocal axes: (cart. coord. in units 2 pi/alat)
               b(1) = (  1.000000  0.000000  0.000000 )  
               b(2) = (  0.000000  0.872936  0.000000 )  
               b(3) = (  0.000000  0.000000  0.080463 )  


     PseudoPot. # 1 for Sn read from file:
     ./Sn.pbe-dn-kjpaw_psl.1.0.0.UPF
     MD5 check sum: 2f92149585f6306fdaeeb1c6304ac66c
     Pseudo is Projector augmented-wave + core cor, Zval = 14.0
     Generated using &quot;atomic&quot; code by A. Dal Corso  v.6.3
     Shape of augmentation charge: PSQ
     Using radial grid of 1243 points,  6 beta functions with: 
                l(1) =   0
                l(2) =   0
                l(3) =   1
                l(4) =   1
                l(5) =   2
                l(6) =   2
     Q(r) pseudized with 0 coefficients 


     PseudoPot. # 2 for S  read from file:
     ./S.pbe-n-kjpaw_psl.1.0.0.UPF
     MD5 check sum: 3ec093b2a8bef16a6eea98fa2dbb72c3
     Pseudo is Projector augmented-wave + core cor, Zval =  6.0
     Generated using &quot;atomic&quot; code by A. Dal Corso  v.6.3
     Shape of augmentation charge: PSQ
     Using radial grid of 1151 points,  6 beta functions with: 
                l(1) =   0
                l(2) =   0
                l(3) =   1
                l(4) =   1
                l(5) =   2
                l(6) =   2
     Q(r) pseudized with 0 coefficients 


     atomic species   valence    mass     pseudopotential
        Sn            14.00   118.71000     Sn( 1.00)
        S              6.00    32.06500     S ( 1.00)

      2 Sym. Ops. (no inversion) found ( 1 have fractional translation)


                                    s                        frac. trans.

      isym =  1     identity                                     

 cryst.   s( 1) = (     1          0          0      )
                  (     0          1          0      )
                  (     0          0          1      )

 cart.    s( 1) = (  1.0000000  0.0000000  0.0000000 )
                  (  0.0000000  1.0000000  0.0000000 )
                  (  0.0000000  0.0000000  1.0000000 )


      isym =  2     inv. 180 deg rotation - cart. axis [1,0,0]   

 cryst.   s( 2) = (    -1          0          0      )    f =(  0.5000000 )
                  (     0          1          0      )       (  0.0000000 )
                  (     0          0          1      )       (  0.0000000 )

 cart.    s( 2) = ( -1.0000000  0.0000000  0.0000000 )    f =(  0.5000000 )
                  (  0.0000000  1.0000000  0.0000000 )       (  0.0000000 )
                  (  0.0000000  0.0000000  1.0000000 )       (  0.0000000 )


   Cartesian axes

     site n.     atom                  positions (alat units)
         1           Sn  tau(   1) = (   0.2500000   0.4233297   1.7897172  )
         2           Sn  tau(   2) = (   0.7500000   0.7222292   1.0893416  )
         3           Sn  tau(   3) = (   0.7500000   0.9961091   2.5288708  )
         4           Sn  tau(   4) = (   0.2500000   0.1494498   0.3501878  )
         5           S   tau(   5) = (   0.2500000   0.0121393   1.0004656  )
         6           S   tau(   6) = (   0.7500000   1.1334196   1.8785932  )
         7           S   tau(   7) = (   0.7500000   0.5849187   0.4390638  )
         8           S   tau(   8) = (   0.2500000   0.5606402   2.4399950  )
         9           Sn  tau(   9) = (   0.2500000   0.4233297   4.6687759  )
        10           Sn  tau(  10) = (   0.7500000   0.7222292   3.9684002  )
        11           Sn  tau(  11) = (   0.7500000   0.9961091   5.4079296  )
        12           Sn  tau(  12) = (   0.2500000   0.1494498   3.2292465  )
        13           S   tau(  13) = (   0.2500000   0.0121393   3.8795243  )
        14           S   tau(  14) = (   0.7500000   1.1334196   4.7576519  )
        15           S   tau(  15) = (   0.7500000   0.5849187   3.3181225  )
        16           S   tau(  16) = (   0.2500000   0.5606402   5.3190537  )
        17           Sn  tau(  17) = (   0.2500000   0.4233297   7.5478346  )
        18           Sn  tau(  18) = (   0.7500000   0.7222292   6.8474590  )
        19           Sn  tau(  19) = (   0.7500000   0.9961091   8.2869883  )
        20           Sn  tau(  20) = (   0.2500000   0.1494498   6.1083053  )
        21           S   tau(  21) = (   0.2500000   0.0121393   6.7585831  )
        22           S   tau(  22) = (   0.7500000   1.1334196   7.6367105  )
        23           S   tau(  23) = (   0.7500000   0.5849187   6.1971813  )
        24           S   tau(  24) = (   0.2500000   0.5606402   8.1981124  )

   Crystallographic axes

     site n.     atom                  positions (cryst. coord.)
         1           Sn  tau(   1) = (  0.2500000  0.3695398  0.1440061  )
         2           Sn  tau(   2) = (  0.7500000  0.6304602  0.0876517  )
         3           Sn  tau(   3) = (  0.7500000  0.8695398  0.2034807  )
         4           Sn  tau(   4) = (  0.2500000  0.1304602  0.0281772  )
         5           S   tau(   5) = (  0.2500000  0.0105968  0.0805005  )
         6           S   tau(   6) = (  0.7500000  0.9894032  0.1511573  )
         7           S   tau(   7) = (  0.7500000  0.5105968  0.0353284  )
         8           S   tau(   8) = (  0.2500000  0.4894032  0.1963294  )
         9           Sn  tau(   9) = (  0.2500000  0.3695398  0.3756639  )
        10           Sn  tau(  10) = (  0.7500000  0.6304602  0.3193096  )
        11           Sn  tau(  11) = (  0.7500000  0.8695398  0.4351385  )
        12           Sn  tau(  12) = (  0.2500000  0.1304602  0.2598350  )
        13           S   tau(  13) = (  0.2500000  0.0105968  0.3121583  )
        14           S   tau(  14) = (  0.7500000  0.9894032  0.3828152  )
        15           S   tau(  15) = (  0.7500000  0.5105968  0.2669862  )
        16           S   tau(  16) = (  0.2500000  0.4894032  0.4279873  )
        17           Sn  tau(  17) = (  0.2500000  0.3695398  0.6073218  )
        18           Sn  tau(  18) = (  0.7500000  0.6304602  0.5509674  )
        19           Sn  tau(  19) = (  0.7500000  0.8695398  0.6667963  )
        20           Sn  tau(  20) = (  0.2500000  0.1304602  0.4914928  )
        21           S   tau(  21) = (  0.2500000  0.0105968  0.5438162  )
        22           S   tau(  22) = (  0.7500000  0.9894032  0.6144730  )
        23           S   tau(  23) = (  0.7500000  0.5105968  0.4986441  )
        24           S   tau(  24) = (  0.2500000  0.4894032  0.6596451  )

     number of k points=    16
                       cart. coord. in units 2pi/alat
        k(    1) = (   0.0000000   0.0000000   0.0000000), wk =   0.0555556
        k(    2) = (   0.0000000   0.1454894   0.0000000), wk =   0.1111111
        k(    3) = (   0.0000000   0.2909788   0.0000000), wk =   0.1111111
        k(    4) = (   0.0000000  -0.4364682   0.0000000), wk =   0.0555556
        k(    5) = (   0.1666667   0.0000000   0.0000000), wk =   0.1111111
        k(    6) = (   0.1666667   0.1454894   0.0000000), wk =   0.2222222
        k(    7) = (   0.1666667   0.2909788   0.0000000), wk =   0.2222222
        k(    8) = (   0.1666667  -0.4364682   0.0000000), wk =   0.1111111
        k(    9) = (   0.3333333   0.0000000   0.0000000), wk =   0.1111111
        k(   10) = (   0.3333333   0.1454894   0.0000000), wk =   0.2222222
        k(   11) = (   0.3333333   0.2909788   0.0000000), wk =   0.2222222
        k(   12) = (   0.3333333  -0.4364682   0.0000000), wk =   0.1111111
        k(   13) = (  -0.5000000   0.0000000   0.0000000), wk =   0.0555556
        k(   14) = (  -0.5000000   0.1454894   0.0000000), wk =   0.1111111
        k(   15) = (  -0.5000000   0.2909788   0.0000000), wk =   0.1111111
        k(   16) = (  -0.5000000  -0.4364682   0.0000000), wk =   0.0555556

                       cryst. coord.
        k(    1) = (   0.0000000   0.0000000   0.0000000), wk =   0.0555556
        k(    2) = (   0.0000000   0.1666667   0.0000000), wk =   0.1111111
        k(    3) = (   0.0000000   0.3333333   0.0000000), wk =   0.1111111
        k(    4) = (   0.0000000  -0.5000000   0.0000000), wk =   0.0555556
        k(    5) = (   0.1666667   0.0000000   0.0000000), wk =   0.1111111
        k(    6) = (   0.1666667   0.1666667   0.0000000), wk =   0.2222222
        k(    7) = (   0.1666667   0.3333333   0.0000000), wk =   0.2222222
        k(    8) = (   0.1666667  -0.5000000   0.0000000), wk =   0.1111111
        k(    9) = (   0.3333333   0.0000000   0.0000000), wk =   0.1111111
        k(   10) = (   0.3333333   0.1666667   0.0000000), wk =   0.2222222
        k(   11) = (   0.3333333   0.3333333   0.0000000), wk =   0.2222222
        k(   12) = (   0.3333333  -0.5000000   0.0000000), wk =   0.1111111
        k(   13) = (  -0.5000000   0.0000000   0.0000000), wk =   0.0555556
        k(   14) = (  -0.5000000   0.1666667   0.0000000), wk =   0.1111111
        k(   15) = (  -0.5000000   0.3333333   0.0000000), wk =   0.1111111
        k(   16) = (  -0.5000000  -0.5000000   0.0000000), wk =   0.0555556

     Dense  grid:   804151 G-vectors     FFT dimensions: (  48,  60, 600)

     Smooth grid:   284257 G-vectors     FFT dimensions: (  36,  40, 432)

     Dynamical RAM for                 wfc:      20.33 MB

     Dynamical RAM for     wfc (w. buffer):     345.68 MB

     Dynamical RAM for           str. fact:       3.07 MB

     Dynamical RAM for           local pot:       0.00 MB

     Dynamical RAM for          nlocal pot:      29.28 MB

     Dynamical RAM for                qrad:       3.21 MB

     Dynamical RAM for          rho,v,vnew:       9.55 MB

     Dynamical RAM for               rhoin:       3.18 MB

     Dynamical RAM for            rho*nmix:      24.54 MB

     Dynamical RAM for           G-vectors:       6.02 MB

     Dynamical RAM for          h,s,v(r/c):       4.12 MB

     Dynamical RAM for          <psi|beta>:       1.98 MB

     Dynamical RAM for                 psi:      40.67 MB

     Dynamical RAM for                hpsi:      40.67 MB

     Dynamical RAM for                spsi:      40.67 MB

     Dynamical RAM for      wfcinit/wfcrot:      42.73 MB

     Dynamical RAM for           addusdens:     303.69 MB

     Dynamical RAM for          addusforce:     338.25 MB

     Dynamical RAM for         addusstress:     308.29 MB

     Estimated static dynamical RAM per process >     412.83 MB

     Estimated max dynamical RAM per process >     775.61 MB

     Estimated total dynamical RAM >       6.06 GB

     Initial potential from superposition of free atoms

     starting charge     239.9830, renormalised to     240.0000

     negative rho (up, down):  1.070E-03 0.000E+00
     Starting wfcs are  156 randomized atomic wfcs +  144 random wfcs
     Checking if some PAW data can be deallocated... 
       PAW data deallocated on    2 nodes for type:  1
       PAW data deallocated on    2 nodes for type:  2

     total cpu time spent up to now is       25.0 secs

     per-process dynamical memory:   447.2 Mb

     Self-consistent Calculation

     iteration #  1     ecut=    50.00 Ry     beta= 0.30
     Davidson diagonalization with overlap

---- Real-time Memory Report at c_bands before calling an iterative solver
           508 MiB given to the printing process from OS
           438 MiB allocation reported by mallinfo(arena+hblkhd)
           739 MiB available memory on the node where the printing process lives
------------------
     ethr =  1.00E-02,  avg # of iterations =  7.2

     Threshold (ethr) on eigenvalues was too large:
     Diagonalizing with lowered threshold

     Davidson diagonalization with overlap

---- Real-time Memory Report at c_bands before calling an iterative solver
           791 MiB given to the printing process from OS
           442 MiB allocation reported by mallinfo(arena+hblkhd)
          2447 MiB available memory on the node where the printing process lives
------------------
     ethr =  4.92E-04,  avg # of iterations =  2.4

     negative rho (up, down):  1.063E-03 0.000E+00

     total cpu time spent up to now is      297.8 secs

     total energy              =   -6100.76625460 Ry
     estimated scf accuracy    <       1.17194441 Ry

     iteration #  2     ecut=    50.00 Ry     beta= 0.30
     Davidson diagonalization with overlap

---- Real-time Memory Report at c_bands before calling an iterative solver
           798 MiB given to the printing process from OS
           486 MiB allocation reported by mallinfo(arena+hblkhd)
          2160 MiB available memory on the node where the printing process lives
------------------
     ethr =  4.88E-04,  avg # of iterations =  4.4

     negative rho (up, down):  1.064E-03 0.000E+00

     total cpu time spent up to now is      392.1 secs

     total energy              =   -6100.89060165 Ry
     estimated scf accuracy    <       0.12311710 Ry

     iteration #  3     ecut=    50.00 Ry     beta= 0.30
     Davidson diagonalization with overlap

---- Real-time Memory Report at c_bands before calling an iterative solver
           799 MiB given to the printing process from OS
           487 MiB allocation reported by mallinfo(arena+hblkhd)
          2313 MiB available memory on the node where the printing process lives
------------------
     ethr =  5.13E-05,  avg # of iterations = 12.3

     negative rho (up, down):  1.062E-03 0.000E+00

     total cpu time spent up to now is      503.4 secs

     total energy              =   -6100.88883928 Ry
     estimated scf accuracy    <       0.10018003 Ry

     iteration #  4     ecut=    50.00 Ry     beta= 0.30
     Davidson diagonalization with overlap

---- Real-time Memory Report at c_bands before calling an iterative solver
           801 MiB given to the printing process from OS
           488 MiB allocation reported by mallinfo(arena+hblkhd)
          2378 MiB available memory on the node where the printing process lives
------------------
     ethr =  4.17E-05,  avg # of iterations = 12.2

     negative rho (up, down):  1.079E-03 0.000E+00

     total cpu time spent up to now is      634.0 secs

     total energy              =   -6100.89732816 Ry
     estimated scf accuracy    <       0.05167678 Ry

     iteration #  5     ecut=    50.00 Ry     beta= 0.30
     Davidson diagonalization with overlap

---- Real-time Memory Report at c_bands before calling an iterative solver
           802 MiB given to the printing process from OS
           489 MiB allocation reported by mallinfo(arena+hblkhd)
          2173 MiB available memory on the node where the printing process lives
------------------
     ethr =  2.15E-05,  avg # of iterations = 12.6

     negative rho (up, down):  1.092E-03 0.000E+00

     total cpu time spent up to now is      767.5 secs

     total energy              =   -6100.89973957 Ry
     estimated scf accuracy    <       0.02748738 Ry

     iteration #  6     ecut=    50.00 Ry     beta= 0.30
     Davidson diagonalization with overlap

---- Real-time Memory Report at c_bands before calling an iterative solver
           807 MiB given to the printing process from OS
           490 MiB allocation reported by mallinfo(arena+hblkhd)
          2131 MiB available memory on the node where the printing process lives
------------------
     c_bands:  1 eigenvalues not converged
     ethr =  1.15E-05,  avg # of iterations = 10.9

     negative rho (up, down):  1.103E-03 0.000E+00

     total cpu time spent up to now is      863.7 secs

     total energy              =   -6100.90248979 Ry
     estimated scf accuracy    <       0.00317589 Ry

     iteration #  7     ecut=    50.00 Ry     beta= 0.30
     Davidson diagonalization with overlap

---- Real-time Memory Report at c_bands before calling an iterative solver
           809 MiB given to the printing process from OS
           491 MiB allocation reported by mallinfo(arena+hblkhd)
          2324 MiB available memory on the node where the printing process lives
------------------
     ethr =  1.32E-06,  avg # of iterations =  9.4

     negative rho (up, down):  1.106E-03 0.000E+00

     total cpu time spent up to now is      974.5 secs

     total energy              =   -6100.90275625 Ry
     estimated scf accuracy    <       0.00108453 Ry

     iteration #  8     ecut=    50.00 Ry     beta= 0.30
     Davidson diagonalization with overlap

---- Real-time Memory Report at c_bands before calling an iterative solver
           810 MiB given to the printing process from OS
           493 MiB allocation reported by mallinfo(arena+hblkhd)
          2240 MiB available memory on the node where the printing process lives
------------------
     ethr =  4.52E-07,  avg # of iterations =  1.8

     negative rho (up, down):  1.106E-03 0.000E+00

     total cpu time spent up to now is     1033.6 secs

     total energy              =   -6100.90288195 Ry
     estimated scf accuracy    <       0.00010535 Ry

     iteration #  9     ecut=    50.00 Ry     beta= 0.30
     Davidson diagonalization with overlap

---- Real-time Memory Report at c_bands before calling an iterative solver
           811 MiB given to the printing process from OS
           494 MiB allocation reported by mallinfo(arena+hblkhd)
          2267 MiB available memory on the node where the printing process lives
------------------
     ethr =  4.39E-08,  avg # of iterations =  1.0

     negative rho (up, down):  1.104E-03 0.000E+00

     total cpu time spent up to now is     1095.4 secs

     total energy              =   -6100.90289751 Ry
     estimated scf accuracy    <       0.00001465 Ry

     iteration # 10     ecut=    50.00 Ry     beta= 0.30
     Davidson diagonalization with overlap

---- Real-time Memory Report at c_bands before calling an iterative solver
           812 MiB given to the printing process from OS
           495 MiB allocation reported by mallinfo(arena+hblkhd)
          2298 MiB available memory on the node where the printing process lives
------------------
     ethr =  6.10E-09,  avg # of iterations =  1.1

     negative rho (up, down):  1.103E-03 0.000E+00

     total cpu time spent up to now is     1167.9 secs

     total energy              =   -6100.90289938 Ry
     estimated scf accuracy    <       0.00000577 Ry

     iteration # 11     ecut=    50.00 Ry     beta= 0.30
     Davidson diagonalization with overlap

---- Real-time Memory Report at c_bands before calling an iterative solver
           812 MiB given to the printing process from OS
           495 MiB allocation reported by mallinfo(arena+hblkhd)
          2308 MiB available memory on the node where the printing process lives
------------------
     ethr =  2.40E-09,  avg # of iterations =  1.0

     negative rho (up, down):  1.102E-03 0.000E+00

     total cpu time spent up to now is     1238.0 secs

     total energy              =   -6100.90290066 Ry
     estimated scf accuracy    <       0.00000489 Ry

     iteration # 12     ecut=    50.00 Ry     beta= 0.30
     Davidson diagonalization with overlap

---- Real-time Memory Report at c_bands before calling an iterative solver
           812 MiB given to the printing process from OS
           495 MiB allocation reported by mallinfo(arena+hblkhd)
          2437 MiB available memory on the node where the printing process lives
------------------
     ethr =  2.04E-09,  avg # of iterations =  1.0

     negative rho (up, down):  1.101E-03 0.000E+00

     total cpu time spent up to now is     1306.5 secs

     total energy              =   -6100.90290130 Ry
     estimated scf accuracy    <       0.00000033 Ry

     iteration # 13     ecut=    50.00 Ry     beta= 0.30
     Davidson diagonalization with overlap

---- Real-time Memory Report at c_bands before calling an iterative solver
           812 MiB given to the printing process from OS
           495 MiB allocation reported by mallinfo(arena+hblkhd)
          2443 MiB available memory on the node where the printing process lives
------------------
     ethr =  1.36E-10,  avg # of iterations =  2.0

     negative rho (up, down):  1.101E-03 0.000E+00

     total cpu time spent up to now is     1381.7 secs

     total energy              =   -6100.90290135 Ry
     estimated scf accuracy    <       0.00000006 Ry

     iteration # 14     ecut=    50.00 Ry     beta= 0.30
     Davidson diagonalization with overlap

---- Real-time Memory Report at c_bands before calling an iterative solver
           813 MiB given to the printing process from OS
           495 MiB allocation reported by mallinfo(arena+hblkhd)
          2387 MiB available memory on the node where the printing process lives
------------------
     ethr =  2.50E-11,  avg # of iterations =  1.0

     negative rho (up, down):  1.100E-03 0.000E+00

     total cpu time spent up to now is     1436.2 secs

     total energy              =   -6100.90290136 Ry
     estimated scf accuracy    <       0.00000003 Ry

     iteration # 15     ecut=    50.00 Ry     beta= 0.30
     Davidson diagonalization with overlap

---- Real-time Memory Report at c_bands before calling an iterative solver
           813 MiB given to the printing process from OS
           495 MiB allocation reported by mallinfo(arena+hblkhd)
          2346 MiB available memory on the node where the printing process lives
------------------
     ethr =  1.27E-11,  avg # of iterations =  1.0

     negative rho (up, down):  1.100E-03 0.000E+00

     total cpu time spent up to now is     1506.9 secs

     End of self-consistent calculation

          k = 0.0000 0.0000 0.0000 ( 35607 PWs)   bands (ev):

   -17.3431 -17.3392 -17.3348 -17.3325 -17.3228 -17.3201 -17.3177 -17.3173
   -17.3120 -17.3116 -17.3116 -17.3106 -17.3081 -17.3072 -17.3054 -17.3042
   -17.3013 -17.3012 -17.2963 -17.2963 -17.2929 -17.2926 -17.2887 -17.2887
   -17.2868 -17.2868 -17.2832 -17.2799 -17.2799 -17.2795 -17.2763 -17.2761
   -17.2747 -17.2712 -17.2711 -17.2661 -17.2661 -17.2658 -17.2656 -17.2548
   -17.2526 -17.2509 -17.2507 -17.2463 -17.2462 -17.2428 -17.2412 -17.2406
   -17.2370 -17.2368 -17.2368 -17.2343 -17.2298 -17.2297 -17.2256 -17.2256
   -17.2176 -17.2176 -17.2143 -17.2143  -9.7400  -9.7014  -9.6477  -9.5872
    -9.5335  -9.5089  -8.4952  -8.4229  -8.3359  -8.2541  -8.1922  -8.1619
    -3.2728  -3.1802  -3.0355  -2.8485  -2.6474  -2.4971  -1.3180  -1.0825
    -0.8859  -0.7753  -0.7164  -0.6945  -0.6940  -0.6102  -0.4282  -0.1684
     0.0919   0.3793   0.4456   0.6813   0.7172   0.7248   0.7533   0.7863
     0.8314   0.8574   0.8930   0.9229   0.9248   0.9586   1.7723   1.8156
     1.8172   1.8480   1.8868   1.9364   2.0185   2.0258   2.0809   2.1136
     2.3164   2.6736   3.1290   3.2508   3.3781   3.4954   3.5784   3.6027
     5.1142   5.3944   5.8733   6.3396   6.5077   6.5406   6.5921   6.6022
     6.6760   6.7092   6.7495   6.9728   6.9818   7.1559   7.3053   7.5378
     7.7024   7.7396   7.7925   7.8010   7.9557   7.9575   8.1609   8.1814
     8.4029   8.4320   8.6291   8.7997   8.9179   8.9640   9.1059   9.1682
     9.3291   9.3296   9.3777   9.6416   9.7992   9.8660   9.9703  10.0121
    10.0330  10.1306  10.2010  10.4366  10.6549  10.6995  10.9912  11.1172
    11.1808  11.2130  11.4046  11.4421  11.4756  11.5558  11.6970  11.7267
    11.9052  11.9964  12.0385  12.0925  12.1480  12.2995  12.3225  12.3798
    12.5424  12.5679  12.6288  12.6673  12.6844  12.6994  12.8340  12.8408
    12.9810  13.0327  13.0609  13.1362  13.1449  13.1752  13.7009  13.9194
    13.9762  14.0123  14.1609  14.2305  14.4192  14.4985  14.5010  14.5494
    14.5795  14.5885  14.6793  14.6982  14.7682  14.8020  14.8521  14.9726
    14.9843  15.0486  15.1611  15.2450  15.3452  15.4789  15.5917  15.6577
    15.7433  15.9599  15.9685  16.0639  16.3407  16.3819  16.4330  16.4536
    16.5485  16.5883  16.6883  16.7957  16.8045  16.9139  16.9273  16.9959
    17.0888  17.2125  17.2175  17.4115  17.4748  17.5073  17.5997  17.6869
    17.6936  17.7308  17.8884  17.9202  17.9920  18.0246  18.0646  18.0719
    18.1804  18.3923  18.4564  18.4686  18.6863  18.7216  18.7400  18.7893
    18.8888  19.0326  19.1595  19.2241  19.4101  19.4448  19.4638  19.5892
    19.6669  19.7451  19.7784  19.8658  20.0411  20.1928  20.2487  20.4472
    20.4833  20.4843  20.5525  20.6459  20.7579  20.7836  20.8300  20.9868
    21.0661  21.0916  21.1762  21.2923  21.4171  21.5497  21.5759  21.5803
    21.6691  21.6961  21.7851  21.9222

     occupation numbers 
     1.0000   1.0000   1.0000   1.0000   1.0000   1.0000   1.0000   1.0000
     1.0000   1.0000   1.0000   1.0000   1.0000   1.0000   1.0000   1.0000
     1.0000   1.0000   1.0000   1.0000   1.0000   1.0000   1.0000   1.0000
     1.0000   1.0000   1.0000   1.0000   1.0000   1.0000   1.0000   1.0000
     1.0000   1.0000   1.0000   1.0000   1.0000   1.0000   1.0000   1.0000
     1.0000   1.0000   1.0000   1.0000   1.0000   1.0000   1.0000   1.0000
     1.0000   1.0000   1.0000   1.0000   1.0000   1.0000   1.0000   1.0000
     1.0000   1.0000   1.0000   1.0000   1.0000   1.0000   1.0000   1.0000
     1.0000   1.0000   1.0000   1.0000   1.0000   1.0000   1.0000   1.0000
     1.0000   1.0000   1.0000   1.0000   1.0000   1.0000   1.0000   1.0000
     1.0000   1.0000   1.0000   1.0000   1.0000   1.0000   1.0000   1.0000
     1.0000   1.0000   1.0000   1.0000   1.0000   1.0000   1.0000   1.0000
     1.0000   1.0000   1.0000   1.0000   1.0000   1.0000   1.0000   1.0000
     1.0000   1.0000   1.0000   1.0000   1.0000   1.0000   1.0000   1.0000
     1.0000   1.0000   1.0000   1.0000   1.0000   1.0000   1.0000   1.0000
     0.0000   0.0000   0.0000   0.0000   0.0000   0.0000   0.0000   0.0000
     0.0000   0.0000   0.0000   0.0000   0.0000   0.0000   0.0000   0.0000
     0.0000   0.0000   0.0000   0.0000   0.0000   0.0000   0.0000   0.0000
     0.0000   0.0000   0.0000   0.0000   0.0000   0.0000   0.0000   0.0000
     0.0000   0.0000   0.0000   0.0000   0.0000   0.0000   0.0000   0.0000
     0.0000   0.0000   0.0000   0.0000   0.0000   0.0000   0.0000   0.0000
     0.0000   0.0000   0.0000   0.0000   0.0000   0.0000   0.0000   0.0000
     0.0000   0.0000   0.0000   0.0000   0.0000   0.0000   0.0000   0.0000
     0.0000   0.0000   0.0000   0.0000   0.0000   0.0000   0.0000   0.0000
     0.0000   0.0000   0.0000   0.0000   0.0000   0.0000   0.0000   0.0000
     0.0000   0.0000   0.0000   0.0000   0.0000   0.0000   0.0000   0.0000
     0.0000   0.0000   0.0000   0.0000   0.0000   0.0000   0.0000   0.0000
     0.0000   0.0000   0.0000   0.0000   0.0000   0.0000   0.0000   0.0000
     0.0000   0.0000   0.0000   0.0000   0.0000   0.0000   0.0000   0.0000
     0.0000   0.0000   0.0000   0.0000   0.0000   0.0000   0.0000   0.0000
     0.0000   0.0000   0.0000   0.0000   0.0000   0.0000   0.0000   0.0000
     0.0000   0.0000   0.0000   0.0000   0.0000   0.0000   0.0000   0.0000
     0.0000   0.0000   0.0000   0.0000   0.0000   0.0000   0.0000   0.0000
     0.0000   0.0000   0.0000   0.0000   0.0000   0.0000   0.0000   0.0000
     0.0000   0.0000   0.0000   0.0000   0.0000   0.0000   0.0000   0.0000
     0.0000   0.0000   0.0000   0.0000   0.0000   0.0000   0.0000   0.0000
     0.0000   0.0000   0.0000   0.0000   0.0000   0.0000   0.0000   0.0000
     0.0000   0.0000   0.0000   0.0000

          k = 0.0000 0.1455 0.0000 ( 35605 PWs)   bands (ev):

   -17.3414 -17.3378 -17.3336 -17.3314 -17.3234 -17.3206 -17.3181 -17.3178
   -17.3128 -17.3112 -17.3106 -17.3106 -17.3093 -17.3075 -17.3061 -17.3050
   -17.3024 -17.3023 -17.2968 -17.2968 -17.2903 -17.2899 -17.2873 -17.2873
   -17.2862 -17.2861 -17.2825 -17.2810 -17.2810 -17.2791 -17.2763 -17.2759
   -17.2746 -17.2709 -17.2708 -17.2656 -17.2655 -17.2637 -17.2636 -17.2543
   -17.2521 -17.2505 -17.2502 -17.2464 -17.2461 -17.2436 -17.2418 -17.2408
   -17.2377 -17.2376 -17.2370 -17.2347 -17.2294 -17.2294 -17.2251 -17.2251
   -17.2180 -17.2179 -17.2154 -17.2154  -9.6300  -9.5925  -9.5404  -9.4813
    -9.4287  -9.4048  -8.5163  -8.4496  -8.3707  -8.2975  -8.2428  -8.2171
    -3.5641  -3.4588  -3.2947  -3.0830  -2.8520  -2.6703  -1.8629  -1.6967
    -1.5421  -1.4182  -1.3375  -1.3168  -0.6513  -0.4511  -0.1416   0.2015
     0.4803   0.7935   0.8012   0.8143   0.8558   0.9143   0.9821   1.0446
     1.0780   1.1122   1.1395   1.2173   1.2922   1.3173   1.8076   1.8769
     1.9567   2.0299   2.0850   2.1128   2.2463   2.2935   2.4102   2.5700
     2.7317   2.8782   2.9373   3.1656   3.1995   3.3431   3.4640   3.5298
     5.3098   5.5550   5.9084   6.0378   6.1577   6.3376   6.4172   6.6816
     6.6984   6.7558   6.7615   6.7795   6.8299   6.8921   7.0053   7.2314
     7.2822   7.3358   7.4987   7.6808   7.7131   7.9209   7.9675   8.1482
     8.2348   8.3239   8.5601   8.6000   8.8317   8.8841   8.9235   9.0242
     9.0793   9.0809   9.2246   9.2854   9.3047   9.4369   9.5242   9.8891
    10.2355  10.2743  10.2988  10.3292  10.4155  10.7237  10.8375  11.0019
    11.0214  11.1987  11.3352  11.3938  11.4509  11.5689  11.5700  11.7468
    11.8948  12.0168  12.0491  12.0948  12.1379  12.2499  12.3485  12.6679
    12.6795  12.6908  12.8444  13.0430  13.0883  13.1392  13.1576  13.1745
    13.4254  13.4480  13.5054  13.6986  13.7335  13.8255  13.9535  14.0426
    14.0742  14.0863  14.3296  14.5847  14.6686  14.6811  14.8303  14.8689
    14.9216  15.0134  15.0241  15.1419  15.1548  15.2852  15.3001  15.3658
    15.4040  15.4186  15.4569  15.4983  15.5720  15.6654  15.7288  15.7776
    15.8039  15.8289  15.9829  16.0721  16.1903  16.2613  16.4433  16.5409
    16.5824  16.6860  16.8524  16.8877  17.0053  17.0249  17.2557  17.3387
    17.3493  17.4234  17.5191  17.5287  17.5691  17.5946  17.7056  17.7470
    17.8251  17.9292  17.9939  18.0129  18.1183  18.1801  18.2231  18.3258
    18.4976  18.5712  18.6248  18.7006  18.8017  18.8097  18.8716  18.8740
    18.9587  18.9906  19.0839  19.1148  19.2270  19.3981  19.4094  19.4755
    19.6408  19.6709  19.6937  19.7012  19.8105  19.8903  20.0023  20.1572
    20.1789  20.2542  20.3652  20.3668  20.4259  20.5899  20.5913  20.6792
    20.7341  20.7379  20.7644  20.8621  20.8902  20.9310  20.9710  20.9846
    21.0672  21.2426  21.3363  21.4211

     occupation numbers 
     1.0000   1.0000   1.0000   1.0000   1.0000   1.0000   1.0000   1.0000
     1.0000   1.0000   1.0000   1.0000   1.0000   1.0000   1.0000   1.0000
     1.0000   1.0000   1.0000   1.0000   1.0000   1.0000   1.0000   1.0000
     1.0000   1.0000   1.0000   1.0000   1.0000   1.0000   1.0000   1.0000
     1.0000   1.0000   1.0000   1.0000   1.0000   1.0000   1.0000   1.0000
     1.0000   1.0000   1.0000   1.0000   1.0000   1.0000   1.0000   1.0000
     1.0000   1.0000   1.0000   1.0000   1.0000   1.0000   1.0000   1.0000
     1.0000   1.0000   1.0000   1.0000   1.0000   1.0000   1.0000   1.0000
     1.0000   1.0000   1.0000   1.0000   1.0000   1.0000   1.0000   1.0000
     1.0000   1.0000   1.0000   1.0000   1.0000   1.0000   1.0000   1.0000
     1.0000   1.0000   1.0000   1.0000   1.0000   1.0000   1.0000   1.0000
     1.0000   1.0000   1.0000   1.0000   1.0000   1.0000   1.0000   1.0000
     1.0000   1.0000   1.0000   1.0000   1.0000   1.0000   1.0000   1.0000
     1.0000   1.0000   1.0000   1.0000   1.0000   1.0000   1.0000   1.0000
     1.0000   1.0000   1.0000   1.0000   1.0000   1.0000   1.0000   1.0000
     0.0000   0.0000   0.0000   0.0000   0.0000   0.0000   0.0000   0.0000
     0.0000   0.0000   0.0000   0.0000   0.0000   0.0000   0.0000   0.0000
     0.0000   0.0000   0.0000   0.0000   0.0000   0.0000   0.0000   0.0000
     0.0000   0.0000   0.0000   0.0000   0.0000   0.0000   0.0000   0.0000
     0.0000   0.0000   0.0000   0.0000   0.0000   0.0000   0.0000   0.0000
     0.0000   0.0000   0.0000   0.0000   0.0000   0.0000   0.0000   0.0000
     0.0000   0.0000   0.0000   0.0000   0.0000   0.0000   0.0000   0.0000
     0.0000   0.0000   0.0000   0.0000   0.0000   0.0000   0.0000   0.0000
     0.0000   0.0000   0.0000   0.0000   0.0000   0.0000   0.0000   0.0000
     0.0000   0.0000   0.0000   0.0000   0.0000   0.0000   0.0000   0.0000
     0.0000   0.0000   0.0000   0.0000   0.0000   0.0000   0.0000   0.0000
     0.0000   0.0000   0.0000   0.0000   0.0000   0.0000   0.0000   0.0000
     0.0000   0.0000   0.0000   0.0000   0.0000   0.0000   0.0000   0.0000
     0.0000   0.0000   0.0000   0.0000   0.0000   0.0000   0.0000   0.0000
     0.0000   0.0000   0.0000   0.0000   0.0000   0.0000   0.0000   0.0000
     0.0000   0.0000   0.0000   0.0000   0.0000   0.0000   0.0000   0.0000
     0.0000   0.0000   0.0000   0.0000   0.0000   0.0000   0.0000   0.0000
     0.0000   0.0000   0.0000   0.0000   0.0000   0.0000   0.0000   0.0000
     0.0000   0.0000   0.0000   0.0000   0.0000   0.0000   0.0000   0.0000
     0.0000   0.0000   0.0000   0.0000   0.0000   0.0000   0.0000   0.0000
     0.0000   0.0000   0.0000   0.0000   0.0000   0.0000   0.0000   0.0000
     0.0000   0.0000   0.0000   0.0000   0.0000   0.0000   0.0000   0.0000
     0.0000   0.0000   0.0000   0.0000

          k = 0.0000 0.2910 0.0000 ( 35611 PWs)   bands (ev):

   -17.3371 -17.3342 -17.3308 -17.3282 -17.3251 -17.3226 -17.3201 -17.3198
   -17.3141 -17.3126 -17.3119 -17.3081 -17.3075 -17.3075 -17.3071 -17.3067
   -17.3048 -17.3047 -17.2989 -17.2989 -17.2882 -17.2882 -17.2841 -17.2839
   -17.2831 -17.2831 -17.2807 -17.2804 -17.2804 -17.2783 -17.2769 -17.2764
   -17.2750 -17.2710 -17.2709 -17.2653 -17.2653 -17.2585 -17.2585 -17.2527
   -17.2506 -17.2493 -17.2490 -17.2473 -17.2465 -17.2453 -17.2444 -17.2396
   -17.2393 -17.2392 -17.2370 -17.2359 -17.2286 -17.2286 -17.2238 -17.2237
   -17.2189 -17.2188 -17.2179 -17.2179  -9.3319  -9.2982  -9.2510  -9.1958
    -9.1442  -9.1207  -8.6390  -8.5826  -8.5206  -8.4660  -8.4262  -8.4102
    -3.8923  -3.7853  -3.6229  -3.4204  -3.2008  -2.9184  -2.8344  -2.6307
    -2.4613  -2.2995  -2.1634  -2.0788  -0.2771  -0.0177   0.3477   0.7494
     0.9616   1.1673   1.2025   1.2347   1.2469   1.2518   1.3095   1.3643
     1.3923   1.5246   1.6296   1.7447   1.8145   1.8262   1.8690   1.8784
     1.9276   1.9789   2.0164   2.0324   2.4172   2.5294   2.7134   2.9325
     3.1585   3.3281   3.3465   3.4330   3.4787   3.5649   3.6538   3.7128
     5.2644   5.3771   5.5555   5.7254   5.8243   5.8559   5.9956   6.2640
     6.3301   6.3387   6.3961   6.4850   6.6196   6.6969   6.7152   6.7963
     6.8253   6.8588   7.0360   7.2216   7.3219   7.6360   7.6683   7.7755
     7.9474   8.0607   8.1312   8.1583   8.3009   8.4378   8.5234   8.7402
     8.7640   8.8240   8.9767   9.0437   9.2869   9.4748   9.5802  10.1325
    10.5203  10.5529  10.5731  10.6837  10.7382  11.0001  11.0851  11.1487
    11.3657  11.5640  11.6243  11.7328  11.7596  11.8883  11.8996  11.9244
    12.0315  12.1230  12.1305  12.1678  12.2327  12.2820  12.4592  12.5131
    12.5995  12.7764  12.8661  13.0492  13.2333  13.2502  13.4507  13.5756
    13.6458  13.7012  13.7563  13.8011  13.9411  13.9845  14.2166  14.3281
    14.4603  14.4858  14.5849  14.7454  14.8053  14.8071  14.8854  15.0377
    15.0604  15.2392  15.3777  15.5178  15.5288  15.6483  15.6666  15.7093
    15.7567  15.8436  15.9057  15.9070  16.0260  16.1200  16.1511  16.2851
    16.2979  16.3260  16.3895  16.5475  16.6776  16.6951  16.8116  16.9372
    17.0585  17.1425  17.1679  17.2751  17.2762  17.2982  17.3855  17.3933
    17.4254  17.5270  17.5397  17.5968  17.6393  17.7252  17.7555  17.7645
    17.9330  18.0254  18.0344  18.0791  18.1563  18.3340  18.3921  18.4482
    18.4504  18.5956  18.6544  18.7283  18.7720  18.8087  18.8665  18.8781
    18.9691  19.0584  19.0894  19.1627  19.2168  19.2695  19.3786  19.3970
    19.4815  19.5561  19.5915  19.7150  19.8680  19.9122  19.9359  20.1442
    20.1803  20.2270  20.3565  20.4386  20.5995  20.6232  20.6814  20.7340
    20.7709  20.8343  20.8825  20.8940  20.9129  20.9478  21.1095  21.1580
    21.2171  21.2595  21.2725  21.2757

     occupation numbers 
     1.0000   1.0000   1.0000   1.0000   1.0000   1.0000   1.0000   1.0000
     1.0000   1.0000   1.0000   1.0000   1.0000   1.0000   1.0000   1.0000
     1.0000   1.0000   1.0000   1.0000   1.0000   1.0000   1.0000   1.0000
     1.0000   1.0000   1.0000   1.0000   1.0000   1.0000   1.0000   1.0000
     1.0000   1.0000   1.0000   1.0000   1.0000   1.0000   1.0000   1.0000
     1.0000   1.0000   1.0000   1.0000   1.0000   1.0000   1.0000   1.0000
     1.0000   1.0000   1.0000   1.0000   1.0000   1.0000   1.0000   1.0000
     1.0000   1.0000   1.0000   1.0000   1.0000   1.0000   1.0000   1.0000
     1.0000   1.0000   1.0000   1.0000   1.0000   1.0000   1.0000   1.0000
     1.0000   1.0000   1.0000   1.0000   1.0000   1.0000   1.0000   1.0000
     1.0000   1.0000   1.0000   1.0000   1.0000   1.0000   1.0000   1.0000
     1.0000   1.0000   1.0000   1.0000   1.0000   1.0000   1.0000   1.0000
     1.0000   1.0000   1.0000   1.0000   1.0000   1.0000   1.0000   1.0000
     1.0000   1.0000   1.0000   1.0000   1.0000   1.0000   1.0000   1.0000
     1.0000   1.0000   1.0000   1.0000   1.0000   1.0000   1.0000   1.0000
     0.0000   0.0000   0.0000   0.0000   0.0000   0.0000   0.0000   0.0000
     0.0000   0.0000   0.0000   0.0000   0.0000   0.0000   0.0000   0.0000
     0.0000   0.0000   0.0000   0.0000   0.0000   0.0000   0.0000   0.0000
     0.0000   0.0000   0.0000   0.0000   0.0000   0.0000   0.0000   0.0000
     0.0000   0.0000   0.0000   0.0000   0.0000   0.0000   0.0000   0.0000
     0.0000   0.0000   0.0000   0.0000   0.0000   0.0000   0.0000   0.0000
     0.0000   0.0000   0.0000   0.0000   0.0000   0.0000   0.0000   0.0000
     0.0000   0.0000   0.0000   0.0000   0.0000   0.0000   0.0000   0.0000
     0.0000   0.0000   0.0000   0.0000   0.0000   0.0000   0.0000   0.0000
     0.0000   0.0000   0.0000   0.0000   0.0000   0.0000   0.0000   0.0000
     0.0000   0.0000   0.0000   0.0000   0.0000   0.0000   0.0000   0.0000
     0.0000   0.0000   0.0000   0.0000   0.0000   0.0000   0.0000   0.0000
     0.0000   0.0000   0.0000   0.0000   0.0000   0.0000   0.0000   0.0000
     0.0000   0.0000   0.0000   0.0000   0.0000   0.0000   0.0000   0.0000
     0.0000   0.0000   0.0000   0.0000   0.0000   0.0000   0.0000   0.0000
     0.0000   0.0000   0.0000   0.0000   0.0000   0.0000   0.0000   0.0000
     0.0000   0.0000   0.0000   0.0000   0.0000   0.0000   0.0000   0.0000
     0.0000   0.0000   0.0000   0.0000   0.0000   0.0000   0.0000   0.0000
     0.0000   0.0000   0.0000   0.0000   0.0000   0.0000   0.0000   0.0000
     0.0000   0.0000   0.0000   0.0000   0.0000   0.0000   0.0000   0.0000
     0.0000   0.0000   0.0000   0.0000   0.0000   0.0000   0.0000   0.0000
     0.0000   0.0000   0.0000   0.0000   0.0000   0.0000   0.0000   0.0000
     0.0000   0.0000   0.0000   0.0000

          k = 0.0000-0.4365 0.0000 ( 35552 PWs)   bands (ev):

   -17.3326 -17.3315 -17.3314 -17.3249 -17.3241 -17.3240 -17.3233 -17.3233
   -17.3145 -17.3135 -17.3132 -17.3084 -17.3070 -17.3069 -17.3065 -17.3064
   -17.3038 -17.3038 -17.3021 -17.3021 -17.2885 -17.2885 -17.2842 -17.2842
   -17.2792 -17.2790 -17.2790 -17.2780 -17.2780 -17.2779 -17.2778 -17.2763
   -17.2763 -17.2722 -17.2721 -17.2652 -17.2652 -17.2557 -17.2556 -17.2504
   -17.2496 -17.2490 -17.2487 -17.2487 -17.2471 -17.2459 -17.2457 -17.2403
   -17.2402 -17.2384 -17.2371 -17.2371 -17.2281 -17.2281 -17.2222 -17.2222
   -17.2200 -17.2200 -17.2194 -17.2193  -8.9598  -8.9586  -8.9569  -8.9529
    -8.9527  -8.7590  -8.7590  -8.7477  -8.7464  -8.7443  -8.7406  -8.7403
    -3.7358  -3.7350  -3.6955  -3.6947  -3.6736  -3.0866  -3.0843  -2.7716
    -2.7571  -2.6984  -2.6764  -2.6524   0.4040   0.4130   0.6349   0.6688
     0.9295   1.0849   1.3708   1.4496   1.5724   1.5733   1.5761   1.5810
     1.5815   1.7495   1.7495   1.7637   1.7649   1.7652   1.7680   1.7726
     1.7732   1.8045   2.0476   2.0668   2.8987   2.9224   2.9730   3.0129
     3.0326   3.3156   3.3158   3.7906   3.7925   3.7931   3.8136   3.8141
     5.5164   5.5167   5.5270   5.5351   5.5436   5.7476   5.7495   5.9569
     5.9627   5.9710   5.9794   5.9834   6.6175   6.6178   6.6365   6.6413
     6.6493   6.9398   6.9587   7.1274   7.1921   7.3594   7.3599   7.3600
     7.5188   7.6036   7.8065   7.8092   7.8417   7.8443   7.8592   8.9148
     9.0162   9.1372   9.3364   9.4153   9.6313   9.6710   9.8401   9.9736
    10.2609  10.5552  10.9824  11.4022  11.5995  11.6040  11.6559  11.6896
    11.6898  11.8168  11.8339  11.9291  11.9883  12.0571  12.1160  12.4286
    12.6163  12.6323  12.6769  12.6874  12.7427  12.7790  12.7794  12.7934
    12.8080  12.8551  12.8583  12.9001  12.9848  13.1506  13.2561  13.3323
    13.3464  13.3593  13.4131  13.4544  13.6129  13.6469  13.7182  13.7259
    13.7867  13.8215  14.1565  14.1902  14.2863  14.4168  14.4253  14.4269
    14.5826  14.6581  14.7628  14.9678  15.0506  15.2604  15.2796  15.3693
    15.5640  15.8775  16.0363  16.0636  16.0840  16.1007  16.1093  16.1484
    16.2652  16.5267  16.5593  16.6482  16.8669  16.8909  17.0342  17.0786
    17.1755  17.1813  17.2696  17.3058  17.4165  17.7681  17.8062  17.9233
    18.0048  18.1932  18.2042  18.2674  18.3598  18.3954  18.5004  18.6196
    18.6268  18.6998  18.7182  18.9266  18.9874  18.9929  19.0400  19.0536
    19.0639  19.1692  19.1769  19.2033  19.3357  19.3693  19.5112  19.5707
    19.6013  19.6348  19.6897  19.7336  19.7481  19.7510  19.8151  19.8322
    19.8467  19.8664  19.8778  19.9065  19.9905  20.0438  20.0646  20.1003
    20.1206  20.1549  20.1682  20.1814  20.2003  20.2621  20.2739  20.3060
    20.3361  20.4496  20.6902  20.7441  20.7679  20.8746  20.8962  21.0339
    21.0688  21.1075  21.3392  21.3483

     occupation numbers 
     1.0000   1.0000   1.0000   1.0000   1.0000   1.0000   1.0000   1.0000
     1.0000   1.0000   1.0000   1.0000   1.0000   1.0000   1.0000   1.0000
     1.0000   1.0000   1.0000   1.0000   1.0000   1.0000   1.0000   1.0000
     1.0000   1.0000   1.0000   1.0000   1.0000   1.0000   1.0000   1.0000
     1.0000   1.0000   1.0000   1.0000   1.0000   1.0000   1.0000   1.0000
     1.0000   1.0000   1.0000   1.0000   1.0000   1.0000   1.0000   1.0000
     1.0000   1.0000   1.0000   1.0000   1.0000   1.0000   1.0000   1.0000
     1.0000   1.0000   1.0000   1.0000   1.0000   1.0000   1.0000   1.0000
     1.0000   1.0000   1.0000   1.0000   1.0000   1.0000   1.0000   1.0000
     1.0000   1.0000   1.0000   1.0000   1.0000   1.0000   1.0000   1.0000
     1.0000   1.0000   1.0000   1.0000   1.0000   1.0000   1.0000   1.0000
     1.0000   1.0000   1.0000   1.0000   1.0000   1.0000   1.0000   1.0000
     1.0000   1.0000   1.0000   1.0000   1.0000   1.0000   1.0000   1.0000
     1.0000   1.0000   1.0000   1.0000   1.0000   1.0000   1.0000   1.0000
     1.0000   1.0000   1.0000   1.0000   1.0000   1.0000   1.0000   1.0000
     0.0000   0.0000   0.0000   0.0000   0.0000   0.0000   0.0000   0.0000
     0.0000   0.0000   0.0000   0.0000   0.0000   0.0000   0.0000   0.0000
     0.0000   0.0000   0.0000   0.0000   0.0000   0.0000   0.0000   0.0000
     0.0000   0.0000   0.0000   0.0000   0.0000   0.0000   0.0000   0.0000
     0.0000   0.0000   0.0000   0.0000   0.0000   0.0000   0.0000   0.0000
     0.0000   0.0000   0.0000   0.0000   0.0000   0.0000   0.0000   0.0000
     0.0000   0.0000   0.0000   0.0000   0.0000   0.0000   0.0000   0.0000
     0.0000   0.0000   0.0000   0.0000   0.0000   0.0000   0.0000   0.0000
     0.0000   0.0000   0.0000   0.0000   0.0000   0.0000   0.0000   0.0000
     0.0000   0.0000   0.0000   0.0000   0.0000   0.0000   0.0000   0.0000
     0.0000   0.0000   0.0000   0.0000   0.0000   0.0000   0.0000   0.0000
     0.0000   0.0000   0.0000   0.0000   0.0000   0.0000   0.0000   0.0000
     0.0000   0.0000   0.0000   0.0000   0.0000   0.0000   0.0000   0.0000
     0.0000   0.0000   0.0000   0.0000   0.0000   0.0000   0.0000   0.0000
     0.0000   0.0000   0.0000   0.0000   0.0000   0.0000   0.0000   0.0000
     0.0000   0.0000   0.0000   0.0000   0.0000   0.0000   0.0000   0.0000
     0.0000   0.0000   0.0000   0.0000   0.0000   0.0000   0.0000   0.0000
     0.0000   0.0000   0.0000   0.0000   0.0000   0.0000   0.0000   0.0000
     0.0000   0.0000   0.0000   0.0000   0.0000   0.0000   0.0000   0.0000
     0.0000   0.0000   0.0000   0.0000   0.0000   0.0000   0.0000   0.0000
     0.0000   0.0000   0.0000   0.0000   0.0000   0.0000   0.0000   0.0000
     0.0000   0.0000   0.0000   0.0000   0.0000   0.0000   0.0000   0.0000
     0.0000   0.0000   0.0000   0.0000

          k = 0.1667 0.0000 0.0000 ( 35591 PWs)   bands (ev):

   -17.3359 -17.3326 -17.3289 -17.3278 -17.3168 -17.3165 -17.3142 -17.3133
   -17.3124 -17.3123 -17.3104 -17.3103 -17.3091 -17.3078 -17.3068 -17.3068
   -17.3038 -17.3038 -17.2920 -17.2920 -17.2905 -17.2904 -17.2902 -17.2901
   -17.2860 -17.2857 -17.2842 -17.2831 -17.2829 -17.2821 -17.2812 -17.2741
   -17.2733 -17.2723 -17.2723 -17.2669 -17.2669 -17.2636 -17.2636 -17.2566
   -17.2538 -17.2515 -17.2495 -17.2486 -17.2458 -17.2434 -17.2413 -17.2406
   -17.2376 -17.2376 -17.2359 -17.2341 -17.2320 -17.2320 -17.2236 -17.2236
   -17.2198 -17.2198 -17.2124 -17.2124  -9.5695  -9.5326  -9.4816  -9.4241
    -9.3733  -9.3513  -8.4202  -8.3555  -8.2789  -8.2080  -8.1555  -8.1323
    -3.4222  -3.3351  -3.2016  -3.0346  -2.8646  -2.7453  -1.4992  -1.4222
    -1.3939  -1.3923  -1.3169  -1.3162  -0.7069  -0.5386  -0.2817   0.0058
     0.2735   0.4173   0.4738   0.5175   0.5778   0.5901   0.6604   0.7160
     0.7842   0.9421   1.0098   1.0784   1.1052   1.1463   1.7807   1.7807
     1.8037   1.8290   1.8744   1.8869   2.0110   2.0390   2.1441   2.3405
     2.6385   2.9940   3.1570   3.3634   3.4377   3.4717   3.5073   3.5074
     5.3224   5.5817   5.9793   6.0389   6.2544   6.2801   6.5395   6.6449
     6.7876   6.8398   6.9829   7.0094   7.0841   7.1057   7.2231   7.2295
     7.3086   7.3152   7.4259   7.5185   7.6278   7.7625   7.8926   8.0203
     8.1776   8.2157   8.4245   8.4815   8.7598   8.7656   9.0414   9.1080
     9.2295   9.3040   9.3421   9.3692   9.4444   9.4629   9.5490   9.9758
     9.9777  10.0014  10.0506  10.1648  10.1680  10.2552  10.4339  10.4653
    10.5429  10.6302  10.6796  10.7229  10.8231  10.8371  11.1452  11.1716
    11.5020  11.7838  11.9937  12.1545  12.3804  12.5533  12.5845  12.7120
    12.7303  12.8775  13.0981  13.2131  13.4167  13.5895  13.6241  13.6443
    13.7181  13.7493  13.8402  13.9489  14.1295  14.1500  14.3588  14.3788
    14.4203  14.4875  14.5805  14.6171  14.6969  14.7895  14.8132  14.9126
    14.9355  14.9750  15.0241  15.1034  15.1376  15.1923  15.2388  15.2585
    15.6599  15.7186  15.7258  15.7780  15.8634  15.9714  16.0455  16.0761
    16.1578  16.1789  16.2364  16.2707  16.2832  16.3217  16.3518  16.4001
    16.4123  16.4729  16.4978  16.5993  16.6713  16.7123  16.8201  16.9609
    17.0294  17.0897  17.1078  17.1673  17.2874  17.3057  17.6559  17.6884
    17.7723  17.9051  17.9591  18.0097  18.0538  18.2358  18.3831  18.4722
    18.6133  18.6444  18.6662  18.7312  18.7634  18.8571  19.1799  19.2257
    19.2355  19.3657  19.3954  19.5150  19.6127  19.6235  19.7367  19.9067
    20.0193  20.0443  20.1573  20.2384  20.3874  20.4378  20.5741  20.6279
    20.7400  20.7935  20.9895  20.9985  21.0325  21.0898  21.1053  21.1837
    21.2473  21.3866  21.4127  21.5263  21.5952  21.6679  21.7258  21.8476
    21.8592  21.8892  21.9118  21.9690

     occupation numbers 
     1.0000   1.0000   1.0000   1.0000   1.0000   1.0000   1.0000   1.0000
     1.0000   1.0000   1.0000   1.0000   1.0000   1.0000   1.0000   1.0000
     1.0000   1.0000   1.0000   1.0000   1.0000   1.0000   1.0000   1.0000
     1.0000   1.0000   1.0000   1.0000   1.0000   1.0000   1.0000   1.0000
     1.0000   1.0000   1.0000   1.0000   1.0000   1.0000   1.0000   1.0000
     1.0000   1.0000   1.0000   1.0000   1.0000   1.0000   1.0000   1.0000
     1.0000   1.0000   1.0000   1.0000   1.0000   1.0000   1.0000   1.0000
     1.0000   1.0000   1.0000   1.0000   1.0000   1.0000   1.0000   1.0000
     1.0000   1.0000   1.0000   1.0000   1.0000   1.0000   1.0000   1.0000
     1.0000   1.0000   1.0000   1.0000   1.0000   1.0000   1.0000   1.0000
     1.0000   1.0000   1.0000   1.0000   1.0000   1.0000   1.0000   1.0000
     1.0000   1.0000   1.0000   1.0000   1.0000   1.0000   1.0000   1.0000
     1.0000   1.0000   1.0000   1.0000   1.0000   1.0000   1.0000   1.0000
     1.0000   1.0000   1.0000   1.0000   1.0000   1.0000   1.0000   1.0000
     1.0000   1.0000   1.0000   1.0000   1.0000   1.0000   1.0000   1.0000
     0.0000   0.0000   0.0000   0.0000   0.0000   0.0000   0.0000   0.0000
     0.0000   0.0000   0.0000   0.0000   0.0000   0.0000   0.0000   0.0000
     0.0000   0.0000   0.0000   0.0000   0.0000   0.0000   0.0000   0.0000
     0.0000   0.0000   0.0000   0.0000   0.0000   0.0000   0.0000   0.0000
     0.0000   0.0000   0.0000   0.0000   0.0000   0.0000   0.0000   0.0000
     0.0000   0.0000   0.0000   0.0000   0.0000   0.0000   0.0000   0.0000
     0.0000   0.0000   0.0000   0.0000   0.0000   0.0000   0.0000   0.0000
     0.0000   0.0000   0.0000   0.0000   0.0000   0.0000   0.0000   0.0000
     0.0000   0.0000   0.0000   0.0000   0.0000   0.0000   0.0000   0.0000
     0.0000   0.0000   0.0000   0.0000   0.0000   0.0000   0.0000   0.0000
     0.0000   0.0000   0.0000   0.0000   0.0000   0.0000   0.0000   0.0000
     0.0000   0.0000   0.0000   0.0000   0.0000   0.0000   0.0000   0.0000
     0.0000   0.0000   0.0000   0.0000   0.0000   0.0000   0.0000   0.0000
     0.0000   0.0000   0.0000   0.0000   0.0000   0.0000   0.0000   0.0000
     0.0000   0.0000   0.0000   0.0000   0.0000   0.0000   0.0000   0.0000
     0.0000   0.0000   0.0000   0.0000   0.0000   0.0000   0.0000   0.0000
     0.0000   0.0000   0.0000   0.0000   0.0000   0.0000   0.0000   0.0000
     0.0000   0.0000   0.0000   0.0000   0.0000   0.0000   0.0000   0.0000
     0.0000   0.0000   0.0000   0.0000   0.0000   0.0000   0.0000   0.0000
     0.0000   0.0000   0.0000   0.0000   0.0000   0.0000   0.0000   0.0000
     0.0000   0.0000   0.0000   0.0000   0.0000   0.0000   0.0000   0.0000
     0.0000   0.0000   0.0000   0.0000   0.0000   0.0000   0.0000   0.0000
     0.0000   0.0000   0.0000   0.0000

          k = 0.1667 0.1455 0.0000 ( 35636 PWs)   bands (ev):

   -17.3348 -17.3318 -17.3281 -17.3271 -17.3186 -17.3179 -17.3147 -17.3145
   -17.3137 -17.3124 -17.3105 -17.3099 -17.3095 -17.3088 -17.3069 -17.3069
   -17.3041 -17.3041 -17.2934 -17.2934 -17.2897 -17.2897 -17.2889 -17.2876
   -17.2847 -17.2844 -17.2840 -17.2837 -17.2828 -17.2814 -17.2809 -17.2746
   -17.2729 -17.2717 -17.2715 -17.2669 -17.2669 -17.2614 -17.2614 -17.2561
   -17.2535 -17.2513 -17.2492 -17.2486 -17.2457 -17.2434 -17.2417 -17.2404
   -17.2389 -17.2381 -17.2356 -17.2340 -17.2318 -17.2318 -17.2237 -17.2236
   -17.2197 -17.2197 -17.2130 -17.2130  -9.4640  -9.4283  -9.3789  -9.3230
    -9.2733  -9.2521  -8.4378  -8.3778  -8.3079  -8.2441  -8.1971  -8.1775
    -3.5750  -3.4752  -3.3220  -3.1292  -2.9278  -2.7785  -1.9631  -1.8515
    -1.7488  -1.6685  -1.6131  -1.5984  -0.5756  -0.3825  -0.1608  -0.0574
    -0.0522   0.1757   0.1796   0.2456   0.3324   0.5140   0.7420   0.9027
     1.2790   1.2847   1.3630   1.4166   1.4594   1.5854   1.5954   1.6363
     1.6920   1.7280   1.7499   1.7827   2.5246   2.5578   2.6263   2.7140
     2.7902   3.0270   3.0407   3.3692   3.3851   3.4709   3.5172   3.5376
     5.4871   5.7008   5.9227   6.0037   6.0197   6.2451   6.2733   6.4356
     6.4968   6.6377   6.7120   6.8200   6.8983   7.0107   7.0345   7.0957
     7.1148   7.2561   7.3169   7.7127   7.8238   7.8562   8.0594   8.0800
     8.1160   8.2195   8.3589   8.3942   8.5099   8.5468   8.6588   8.6947
     8.7666   8.8115   8.8875   9.0032   9.2759   9.4310   9.6684   9.9916
    10.2333  10.3508  10.5692  10.6960  10.8625  10.9865  11.0704  11.1598
    11.2120  11.2726  11.2915  11.3144  11.4477  11.4941  11.5522  11.7112
    11.8350  12.0940  12.1183  12.3482  12.4729  12.5073  12.5167  12.6105
    12.6801  12.7663  12.9481  13.0842  13.1453  13.2078  13.3005  13.3808
    13.4644  13.5158  13.5835  13.6497  13.7524  13.8191  13.9329  14.0479
    14.1951  14.2466  14.2608  14.4108  14.4539  14.5128  14.5478  14.7235
    14.8070  15.0066  15.1481  15.2018  15.2213  15.3972  15.5047  15.5668
    15.6693  15.6988  15.7136  15.7201  15.8874  15.8993  15.9893  16.0943
    16.1503  16.2630  16.2891  16.4599  16.4969  16.5521  16.6496  16.7501
    16.7935  16.9642  16.9850  17.0896  17.2513  17.2952  17.3795  17.4646
    17.5092  17.5813  17.6791  17.7989  17.8107  17.8488  17.9141  18.0536
    18.1735  18.2858  18.3277  18.3972  18.4874  18.4975  18.6068  18.6773
    18.7261  18.7689  18.8062  18.8189  18.8601  18.9486  19.0022  19.0685
    19.2105  19.3967  19.4420  19.4934  19.5514  19.6194  19.7546  19.7750
    19.8192  19.8897  19.9269  19.9943  20.0284  20.1260  20.1618  20.2267
    20.2391  20.3046  20.3927  20.4332  20.4885  20.5340  20.5942  20.6293
    20.6722  20.6916  20.7624  20.8612  20.9226  21.0360  21.1153  21.1494
    21.2078  21.2900  21.3798  21.5052

     occupation numbers 
     1.0000   1.0000   1.0000   1.0000   1.0000   1.0000   1.0000   1.0000
     1.0000   1.0000   1.0000   1.0000   1.0000   1.0000   1.0000   1.0000
     1.0000   1.0000   1.0000   1.0000   1.0000   1.0000   1.0000   1.0000
     1.0000   1.0000   1.0000   1.0000   1.0000   1.0000   1.0000   1.0000
     1.0000   1.0000   1.0000   1.0000   1.0000   1.0000   1.0000   1.0000
     1.0000   1.0000   1.0000   1.0000   1.0000   1.0000   1.0000   1.0000
     1.0000   1.0000   1.0000   1.0000   1.0000   1.0000   1.0000   1.0000
     1.0000   1.0000   1.0000   1.0000   1.0000   1.0000   1.0000   1.0000
     1.0000   1.0000   1.0000   1.0000   1.0000   1.0000   1.0000   1.0000
     1.0000   1.0000   1.0000   1.0000   1.0000   1.0000   1.0000   1.0000
     1.0000   1.0000   1.0000   1.0000   1.0000   1.0000   1.0000   1.0000
     1.0000   1.0000   1.0000   1.0000   1.0000   1.0000   1.0000   1.0000
     1.0000   1.0000   1.0000   1.0000   1.0000   1.0000   1.0000   1.0000
     1.0000   1.0000   1.0000   1.0000   1.0000   1.0000   1.0000   1.0000
     1.0000   1.0000   1.0000   1.0000   1.0000   1.0000   1.0000   1.0000
     0.0000   0.0000   0.0000   0.0000   0.0000   0.0000   0.0000   0.0000
     0.0000   0.0000   0.0000   0.0000   0.0000   0.0000   0.0000   0.0000
     0.0000   0.0000   0.0000   0.0000   0.0000   0.0000   0.0000   0.0000
     0.0000   0.0000   0.0000   0.0000   0.0000   0.0000   0.0000   0.0000
     0.0000   0.0000   0.0000   0.0000   0.0000   0.0000   0.0000   0.0000
     0.0000   0.0000   0.0000   0.0000   0.0000   0.0000   0.0000   0.0000
     0.0000   0.0000   0.0000   0.0000   0.0000   0.0000   0.0000   0.0000
     0.0000   0.0000   0.0000   0.0000   0.0000   0.0000   0.0000   0.0000
     0.0000   0.0000   0.0000   0.0000   0.0000   0.0000   0.0000   0.0000
     0.0000   0.0000   0.0000   0.0000   0.0000   0.0000   0.0000   0.0000
     0.0000   0.0000   0.0000   0.0000   0.0000   0.0000   0.0000   0.0000
     0.0000   0.0000   0.0000   0.0000   0.0000   0.0000   0.0000   0.0000
     0.0000   0.0000   0.0000   0.0000   0.0000   0.0000   0.0000   0.0000
     0.0000   0.0000   0.0000   0.0000   0.0000   0.0000   0.0000   0.0000
     0.0000   0.0000   0.0000   0.0000   0.0000   0.0000   0.0000   0.0000
     0.0000   0.0000   0.0000   0.0000   0.0000   0.0000   0.0000   0.0000
     0.0000   0.0000   0.0000   0.0000   0.0000   0.0000   0.0000   0.0000
     0.0000   0.0000   0.0000   0.0000   0.0000   0.0000   0.0000   0.0000
     0.0000   0.0000   0.0000   0.0000   0.0000   0.0000   0.0000   0.0000
     0.0000   0.0000   0.0000   0.0000   0.0000   0.0000   0.0000   0.0000
     0.0000   0.0000   0.0000   0.0000   0.0000   0.0000   0.0000   0.0000
     0.0000   0.0000   0.0000   0.0000   0.0000   0.0000   0.0000   0.0000
     0.0000   0.0000   0.0000   0.0000

          k = 0.1667 0.2910 0.0000 ( 35534 PWs)   bands (ev):

   -17.3319 -17.3293 -17.3260 -17.3252 -17.3228 -17.3214 -17.3179 -17.3176
   -17.3143 -17.3124 -17.3117 -17.3111 -17.3098 -17.3097 -17.3082 -17.3082
   -17.3030 -17.3030 -17.2963 -17.2963 -17.2897 -17.2897 -17.2859 -17.2859
   -17.2859 -17.2838 -17.2823 -17.2810 -17.2800 -17.2784 -17.2781 -17.2746
   -17.2728 -17.2707 -17.2706 -17.2671 -17.2670 -17.2572 -17.2571 -17.2548
   -17.2528 -17.2513 -17.2482 -17.2481 -17.2456 -17.2436 -17.2428 -17.2410
   -17.2408 -17.2376 -17.2353 -17.2345 -17.2313 -17.2312 -17.2241 -17.2240
   -17.2191 -17.2191 -17.2145 -17.2145  -9.1808  -9.1490  -9.1048  -9.0532
    -9.0048  -8.9842  -8.5449  -8.4934  -8.4374  -8.3887  -8.3535  -8.3412
    -3.7571  -3.6546  -3.4998  -3.3079  -3.1002  -2.8495  -2.7570  -2.5749
    -2.4259  -2.2903  -2.1813  -2.1174  -0.1646  -0.0561  -0.0104   0.0004
     0.0263   0.2187   0.2432   0.3492   0.5974   0.8399   0.9561   0.9871
     0.9943   1.0323   1.0932   1.2018   1.4544   1.5560   1.6774   1.7212
     1.8906   2.0315   2.1136   2.1297   2.7596   2.7776   2.8024   2.8165
     2.8237   3.0612   3.0634   3.3056   3.3309   3.3848   3.4734   3.5504
     5.6517   5.8629   6.0409   6.1074   6.1333   6.2028   6.2559   6.3544
     6.4299   6.4500   6.5174   6.5939   6.8210   6.8825   6.9712   7.0513
     7.1355   7.1901   7.2153   7.5143   7.5240   7.5786   7.6738   7.8530
     8.1056   8.1336   8.4187   8.4480   8.5615   8.5698   8.6223   8.7763
     8.8522   8.9622   9.0218   9.2054   9.2210   9.4950   9.6797  10.1726
    10.3775  10.5727  10.8807  10.9514  11.1626  11.3333  11.3767  11.4719
    11.4987  11.6527  11.7256  11.7651  11.8268  11.8984  12.0408  12.0914
    12.1557  12.2266  12.2930  12.4659  12.4877  12.5852  12.6112  12.6497
    12.6867  12.8345  12.8594  13.0619  13.1199  13.2805  13.3151  13.3890
    13.4952  13.5728  13.7789  13.9454  14.0405  14.1252  14.2941  14.4003
    14.4258  14.4794  14.5928  14.6209  14.7672  14.8417  14.8846  15.0117
    15.0388  15.0771  15.1223  15.3115  15.4097  15.4704  15.5859  15.6713
    15.7558  15.8414  15.9254  15.9486  16.0620  16.1907  16.2024  16.2530
    16.3154  16.4456  16.4973  16.5668  16.6173  16.6670  16.6725  16.7220
    16.8016  16.8261  16.9298  16.9831  17.0870  17.1163  17.2421  17.2935
    17.4117  17.4880  17.5331  17.5634  17.7063  17.7675  17.8236  17.8520
    17.9386  18.0031  18.0273  18.1468  18.1789  18.2089  18.3104  18.4504
    18.4914  18.5585  18.5748  18.6908  18.8135  18.9097  19.0219  19.0894
    19.1734  19.2394  19.3597  19.3886  19.4776  19.5046  19.6206  19.6882
    19.7740  19.8508  19.9230  19.9946  20.0904  20.1732  20.2195  20.2863
    20.3363  20.4241  20.4663  20.5229  20.5765  20.6394  20.7355  20.7822
    20.8018  20.8837  20.9545  21.0576  21.2136  21.2612  21.2939  21.3571
    21.3913  21.4424  21.5015  21.5704

     occupation numbers 
     1.0000   1.0000   1.0000   1.0000   1.0000   1.0000   1.0000   1.0000
     1.0000   1.0000   1.0000   1.0000   1.0000   1.0000   1.0000   1.0000
     1.0000   1.0000   1.0000   1.0000   1.0000   1.0000   1.0000   1.0000
     1.0000   1.0000   1.0000   1.0000   1.0000   1.0000   1.0000   1.0000
     1.0000   1.0000   1.0000   1.0000   1.0000   1.0000   1.0000   1.0000
     1.0000   1.0000   1.0000   1.0000   1.0000   1.0000   1.0000   1.0000
     1.0000   1.0000   1.0000   1.0000   1.0000   1.0000   1.0000   1.0000
     1.0000   1.0000   1.0000   1.0000   1.0000   1.0000   1.0000   1.0000
     1.0000   1.0000   1.0000   1.0000   1.0000   1.0000   1.0000   1.0000
     1.0000   1.0000   1.0000   1.0000   1.0000   1.0000   1.0000   1.0000
     1.0000   1.0000   1.0000   1.0000   1.0000   1.0000   1.0000   1.0000
     1.0000   1.0000   1.0000   1.0000   1.0000   1.0000   1.0000   1.0000
     1.0000   1.0000   1.0000   1.0000   1.0000   1.0000   1.0000   1.0000
     1.0000   1.0000   1.0000   1.0000   1.0000   1.0000   1.0000   1.0000
     1.0000   1.0000   1.0000   1.0000   1.0000   1.0000   1.0000   1.0000
     0.0000   0.0000   0.0000   0.0000   0.0000   0.0000   0.0000   0.0000
     0.0000   0.0000   0.0000   0.0000   0.0000   0.0000   0.0000   0.0000
     0.0000   0.0000   0.0000   0.0000   0.0000   0.0000   0.0000   0.0000
     0.0000   0.0000   0.0000   0.0000   0.0000   0.0000   0.0000   0.0000
     0.0000   0.0000   0.0000   0.0000   0.0000   0.0000   0.0000   0.0000
     0.0000   0.0000   0.0000   0.0000   0.0000   0.0000   0.0000   0.0000
     0.0000   0.0000   0.0000   0.0000   0.0000   0.0000   0.0000   0.0000
     0.0000   0.0000   0.0000   0.0000   0.0000   0.0000   0.0000   0.0000
     0.0000   0.0000   0.0000   0.0000   0.0000   0.0000   0.0000   0.0000
     0.0000   0.0000   0.0000   0.0000   0.0000   0.0000   0.0000   0.0000
     0.0000   0.0000   0.0000   0.0000   0.0000   0.0000   0.0000   0.0000
     0.0000   0.0000   0.0000   0.0000   0.0000   0.0000   0.0000   0.0000
     0.0000   0.0000   0.0000   0.0000   0.0000   0.0000   0.0000   0.0000
     0.0000   0.0000   0.0000   0.0000   0.0000   0.0000   0.0000   0.0000
     0.0000   0.0000   0.0000   0.0000   0.0000   0.0000   0.0000   0.0000
     0.0000   0.0000   0.0000   0.0000   0.0000   0.0000   0.0000   0.0000
     0.0000   0.0000   0.0000   0.0000   0.0000   0.0000   0.0000   0.0000
     0.0000   0.0000   0.0000   0.0000   0.0000   0.0000   0.0000   0.0000
     0.0000   0.0000   0.0000   0.0000   0.0000   0.0000   0.0000   0.0000
     0.0000   0.0000   0.0000   0.0000   0.0000   0.0000   0.0000   0.0000
     0.0000   0.0000   0.0000   0.0000   0.0000   0.0000   0.0000   0.0000
     0.0000   0.0000   0.0000   0.0000   0.0000   0.0000   0.0000   0.0000
     0.0000   0.0000   0.0000   0.0000

          k = 0.1667-0.4365 0.0000 ( 35548 PWs)   bands (ev):

   -17.3278 -17.3276 -17.3260 -17.3253 -17.3234 -17.3233 -17.3206 -17.3205
   -17.3137 -17.3135 -17.3122 -17.3119 -17.3101 -17.3101 -17.3090 -17.3090
   -17.3012 -17.3012 -17.2986 -17.2986 -17.2901 -17.2901 -17.2867 -17.2867
   -17.2843 -17.2830 -17.2830 -17.2779 -17.2774 -17.2771 -17.2750 -17.2746
   -17.2741 -17.2701 -17.2699 -17.2674 -17.2674 -17.2552 -17.2551 -17.2539
   -17.2525 -17.2519 -17.2475 -17.2474 -17.2450 -17.2437 -17.2436 -17.2416
   -17.2416 -17.2368 -17.2353 -17.2351 -17.2309 -17.2309 -17.2244 -17.2244
   -17.2182 -17.2182 -17.2157 -17.2156  -8.8351  -8.8338  -8.8323  -8.8283
    -8.8282  -8.6436  -8.6434  -8.6425  -8.6405  -8.6390  -8.6355  -8.6353
    -3.5717  -3.5715  -3.5368  -3.5349  -3.5171  -2.9669  -2.9654  -2.6703
    -2.6609  -2.6081  -2.5954  -2.5730   0.2570   0.2627   0.3226   0.3349
     0.3642   0.5384   0.5511   0.5582   0.5716   0.5738   0.6765   0.6772
     0.9324   0.9537   1.0284   1.0918   1.1968   1.4368   1.5517   1.7054
     1.8408   1.8713   1.9661   1.9713   2.9808   2.9816   2.9820   2.9901
     2.9971   3.1223   3.1481   3.1551   3.2183   3.2508   3.3386   3.3559
     5.6620   5.6801   5.9078   5.9433   6.2277   6.2319   6.4354   6.4461
     6.4514   6.4794   6.5136   6.5171   6.9847   7.0819   7.1318   7.2217
     7.3367   7.3465   7.4230   7.5124   7.6040   7.6473   7.7499   7.7526
     8.0596   8.0640   8.2703   8.2729   8.3230   8.3353   8.3638   8.9299
     9.0055   9.0324   9.1989   9.2239   9.7210   9.7459  10.0378  10.1444
    10.4288  10.5609  10.6757  10.7488  10.9110  10.9350  11.2655  11.4453
    11.4853  11.5163  11.7946  11.8784  11.8886  11.9434  12.0605  12.1559
    12.3720  12.4009  12.5035  12.7361  12.9412  12.9938  13.0163  13.1303
    13.1924  13.2175  13.2298  13.2790  13.3191  13.3529  13.4304  13.4610
    13.4929  13.5113  13.5314  13.6451  13.9645  14.1950  14.3903  14.4634
    14.5040  14.6071  14.6306  14.7319  14.7358  14.7720  14.8510  14.9563
    15.0668  15.1122  15.1821  15.3250  15.4499  15.5545  15.6534  15.6581
    15.6959  15.7405  15.9405  15.9611  16.0050  16.0869  16.1859  16.2626
    16.2994  16.3299  16.3755  16.5690  16.6144  16.7702  16.8010  16.8305
    16.8683  16.9232  16.9674  17.0326  17.0899  17.0960  17.1600  17.2552
    17.3943  17.4529  17.4784  17.5003  17.5187  17.5268  17.5486  17.5977
    17.8776  18.0744  18.2545  18.2967  18.4076  18.4104  18.4472  18.5020
    18.5655  18.7358  18.7519  18.8999  18.9366  18.9598  19.0152  19.0611
    19.1665  19.2024  19.2172  19.3487  19.3826  19.4447  19.5106  19.5574
    19.5782  19.6620  19.7020  19.7490  19.9203  20.1050  20.1601  20.3111
    20.3152  20.3359  20.3718  20.4199  20.4837  20.5340  20.6054  20.6174
    20.7132  20.8257  20.8730  20.9273  21.0213  21.0652  21.0690  21.1692
    21.2468  21.4231  21.5138  21.5505

     occupation numbers 
     1.0000   1.0000   1.0000   1.0000   1.0000   1.0000   1.0000   1.0000
     1.0000   1.0000   1.0000   1.0000   1.0000   1.0000   1.0000   1.0000
     1.0000   1.0000   1.0000   1.0000   1.0000   1.0000   1.0000   1.0000
     1.0000   1.0000   1.0000   1.0000   1.0000   1.0000   1.0000   1.0000
     1.0000   1.0000   1.0000   1.0000   1.0000   1.0000   1.0000   1.0000
     1.0000   1.0000   1.0000   1.0000   1.0000   1.0000   1.0000   1.0000
     1.0000   1.0000   1.0000   1.0000   1.0000   1.0000   1.0000   1.0000
     1.0000   1.0000   1.0000   1.0000   1.0000   1.0000   1.0000   1.0000
     1.0000   1.0000   1.0000   1.0000   1.0000   1.0000   1.0000   1.0000
     1.0000   1.0000   1.0000   1.0000   1.0000   1.0000   1.0000   1.0000
     1.0000   1.0000   1.0000   1.0000   1.0000   1.0000   1.0000   1.0000
     1.0000   1.0000   1.0000   1.0000   1.0000   1.0000   1.0000   1.0000
     1.0000   1.0000   1.0000   1.0000   1.0000   1.0000   1.0000   1.0000
     1.0000   1.0000   1.0000   1.0000   1.0000   1.0000   1.0000   1.0000
     1.0000   1.0000   1.0000   1.0000   1.0000   1.0000   1.0000   1.0000
     0.0000   0.0000   0.0000   0.0000   0.0000   0.0000   0.0000   0.0000
     0.0000   0.0000   0.0000   0.0000   0.0000   0.0000   0.0000   0.0000
     0.0000   0.0000   0.0000   0.0000   0.0000   0.0000   0.0000   0.0000
     0.0000   0.0000   0.0000   0.0000   0.0000   0.0000   0.0000   0.0000
     0.0000   0.0000   0.0000   0.0000   0.0000   0.0000   0.0000   0.0000
     0.0000   0.0000   0.0000   0.0000   0.0000   0.0000   0.0000   0.0000
     0.0000   0.0000   0.0000   0.0000   0.0000   0.0000   0.0000   0.0000
     0.0000   0.0000   0.0000   0.0000   0.0000   0.0000   0.0000   0.0000
     0.0000   0.0000   0.0000   0.0000   0.0000   0.0000   0.0000   0.0000
     0.0000   0.0000   0.0000   0.0000   0.0000   0.0000   0.0000   0.0000
     0.0000   0.0000   0.0000   0.0000   0.0000   0.0000   0.0000   0.0000
     0.0000   0.0000   0.0000   0.0000   0.0000   0.0000   0.0000   0.0000
     0.0000   0.0000   0.0000   0.0000   0.0000   0.0000   0.0000   0.0000
     0.0000   0.0000   0.0000   0.0000   0.0000   0.0000   0.0000   0.0000
     0.0000   0.0000   0.0000   0.0000   0.0000   0.0000   0.0000   0.0000
     0.0000   0.0000   0.0000   0.0000   0.0000   0.0000   0.0000   0.0000
     0.0000   0.0000   0.0000   0.0000   0.0000   0.0000   0.0000   0.0000
     0.0000   0.0000   0.0000   0.0000   0.0000   0.0000   0.0000   0.0000
     0.0000   0.0000   0.0000   0.0000   0.0000   0.0000   0.0000   0.0000
     0.0000   0.0000   0.0000   0.0000   0.0000   0.0000   0.0000   0.0000
     0.0000   0.0000   0.0000   0.0000   0.0000   0.0000   0.0000   0.0000
     0.0000   0.0000   0.0000   0.0000   0.0000   0.0000   0.0000   0.0000
     0.0000   0.0000   0.0000   0.0000

          k = 0.3333 0.0000 0.0000 ( 35539 PWs)   bands (ev):

   -17.3297 -17.3289 -17.3262 -17.3259 -17.3248 -17.3245 -17.3211 -17.3211
   -17.3078 -17.3059 -17.3054 -17.3052 -17.3029 -17.3024 -17.3015 -17.3014
   -17.2992 -17.2991 -17.2977 -17.2977 -17.2886 -17.2886 -17.2868 -17.2867
   -17.2855 -17.2833 -17.2819 -17.2803 -17.2792 -17.2777 -17.2765 -17.2754
   -17.2748 -17.2730 -17.2710 -17.2680 -17.2679 -17.2627 -17.2614 -17.2611
   -17.2585 -17.2585 -17.2497 -17.2497 -17.2461 -17.2460 -17.2403 -17.2379
   -17.2366 -17.2366 -17.2355 -17.2348 -17.2333 -17.2329 -17.2238 -17.2238
   -17.2146 -17.2146 -17.2098 -17.2098  -9.1092  -9.0789  -9.0380  -8.9925
    -8.9516  -8.9385  -8.3241  -8.2855  -8.2429  -8.2064  -8.1755  -8.1721
    -3.7054  -3.6269  -3.5120  -3.3776  -3.2527  -3.1725  -2.6300  -2.5690
    -2.4860  -2.3984  -2.3282  -2.3007  -0.2520  -0.0588   0.2061   0.4897
     0.4931   0.5505   0.6186   0.6795   0.7255   0.7258   0.7686   0.9756
     1.1774   1.2524   1.3338   1.3621   1.4463   1.4609   1.7323   1.7347
     1.7725   1.8219   1.8812   1.9384   2.2870   2.3020   2.4169   2.6006
     2.8044   2.9866   3.0273   3.1017   3.1947   3.2958   3.4049   3.5076
     4.8303   4.9961   5.2124   5.4307   5.6264   5.7691   5.8319   6.0362
     6.0967   6.1997   6.2815   6.3069   6.5035   6.6166   6.6262   6.7622
     6.8059   6.8560   6.9686   7.0457   7.1341   7.3008   7.5926   7.5940
     7.6991   7.7526   7.8885   7.9046   8.0114   8.1887   8.4716   8.5005
     8.5287   8.6096   8.6806   8.9157   9.0214   9.2267   9.7084  10.3855
    10.5065  10.6363  10.9118  10.9562  11.2313  11.2489  11.2741  11.3146
    11.3482  11.3665  11.5392  11.5581  11.6321  11.8252  11.8589  12.0202
    12.0317  12.1093  12.2388  12.2579  12.3681  12.4868  12.5705  12.7346
    12.8015  12.8126  12.9390  13.0020  13.0297  13.0976  13.3416  13.3914
    13.4307  13.5044  13.5522  13.7883  13.8355  14.1571  14.2821  14.3131
    14.3713  14.4997  14.7232  14.8389  14.9242  14.9816  15.1871  15.2009
    15.2296  15.3275  15.4108  15.5608  15.6564  15.8274  15.8978  15.9377
    16.0017  16.0917  16.1970  16.2155  16.2885  16.3659  16.5886  16.6117
    16.6554  16.7497  16.9027  16.9302  16.9603  17.0344  17.0867  17.2492
    17.3099  17.4377  17.6251  17.7239  17.7624  17.8119  17.8713  17.9632
    17.9808  18.2615  18.2893  18.3231  18.3469  18.3502  18.4130  18.4325
    18.5280  18.6010  18.7127  18.8634  18.8802  18.9740  19.0225  19.0261
    19.0715  19.1055  19.1473  19.1914  19.2785  19.3015  19.3421  19.4047
    19.4255  19.5137  19.5466  19.6120  19.6372  19.7457  19.7652  19.8398
    19.8401  19.9524  20.0232  20.0705  20.1197  20.3534  20.3896  20.5321
    20.5523  20.5996  20.6323  20.7328  20.7852  20.9220  20.9304  21.0073
    21.0558  21.1417  21.1816  21.1835  21.2198  21.2598  21.2787  21.4344
    21.4864  21.4957  21.5568  21.5832

     occupation numbers 
     1.0000   1.0000   1.0000   1.0000   1.0000   1.0000   1.0000   1.0000
     1.0000   1.0000   1.0000   1.0000   1.0000   1.0000   1.0000   1.0000
     1.0000   1.0000   1.0000   1.0000   1.0000   1.0000   1.0000   1.0000
     1.0000   1.0000   1.0000   1.0000   1.0000   1.0000   1.0000   1.0000
     1.0000   1.0000   1.0000   1.0000   1.0000   1.0000   1.0000   1.0000
     1.0000   1.0000   1.0000   1.0000   1.0000   1.0000   1.0000   1.0000
     1.0000   1.0000   1.0000   1.0000   1.0000   1.0000   1.0000   1.0000
     1.0000   1.0000   1.0000   1.0000   1.0000   1.0000   1.0000   1.0000
     1.0000   1.0000   1.0000   1.0000   1.0000   1.0000   1.0000   1.0000
     1.0000   1.0000   1.0000   1.0000   1.0000   1.0000   1.0000   1.0000
     1.0000   1.0000   1.0000   1.0000   1.0000   1.0000   1.0000   1.0000
     1.0000   1.0000   1.0000   1.0000   1.0000   1.0000   1.0000   1.0000
     1.0000   1.0000   1.0000   1.0000   1.0000   1.0000   1.0000   1.0000
     1.0000   1.0000   1.0000   1.0000   1.0000   1.0000   1.0000   1.0000
     1.0000   1.0000   1.0000   1.0000   1.0000   1.0000   1.0000   1.0000
     0.0000   0.0000   0.0000   0.0000   0.0000   0.0000   0.0000   0.0000
     0.0000   0.0000   0.0000   0.0000   0.0000   0.0000   0.0000   0.0000
     0.0000   0.0000   0.0000   0.0000   0.0000   0.0000   0.0000   0.0000
     0.0000   0.0000   0.0000   0.0000   0.0000   0.0000   0.0000   0.0000
     0.0000   0.0000   0.0000   0.0000   0.0000   0.0000   0.0000   0.0000
     0.0000   0.0000   0.0000   0.0000   0.0000   0.0000   0.0000   0.0000
     0.0000   0.0000   0.0000   0.0000   0.0000   0.0000   0.0000   0.0000
     0.0000   0.0000   0.0000   0.0000   0.0000   0.0000   0.0000   0.0000
     0.0000   0.0000   0.0000   0.0000   0.0000   0.0000   0.0000   0.0000
     0.0000   0.0000   0.0000   0.0000   0.0000   0.0000   0.0000   0.0000
     0.0000   0.0000   0.0000   0.0000   0.0000   0.0000   0.0000   0.0000
     0.0000   0.0000   0.0000   0.0000   0.0000   0.0000   0.0000   0.0000
     0.0000   0.0000   0.0000   0.0000   0.0000   0.0000   0.0000   0.0000
     0.0000   0.0000   0.0000   0.0000   0.0000   0.0000   0.0000   0.0000
     0.0000   0.0000   0.0000   0.0000   0.0000   0.0000   0.0000   0.0000
     0.0000   0.0000   0.0000   0.0000   0.0000   0.0000   0.0000   0.0000
     0.0000   0.0000   0.0000   0.0000   0.0000   0.0000   0.0000   0.0000
     0.0000   0.0000   0.0000   0.0000   0.0000   0.0000   0.0000   0.0000
     0.0000   0.0000   0.0000   0.0000   0.0000   0.0000   0.0000   0.0000
     0.0000   0.0000   0.0000   0.0000   0.0000   0.0000   0.0000   0.0000
     0.0000   0.0000   0.0000   0.0000   0.0000   0.0000   0.0000   0.0000
     0.0000   0.0000   0.0000   0.0000   0.0000   0.0000   0.0000   0.0000
     0.0000   0.0000   0.0000   0.0000

          k = 0.3333 0.1455 0.0000 ( 35531 PWs)   bands (ev):

   -17.3320 -17.3301 -17.3279 -17.3270 -17.3262 -17.3257 -17.3228 -17.3227
   -17.3084 -17.3069 -17.3068 -17.3060 -17.3035 -17.3025 -17.3016 -17.3015
   -17.3004 -17.3003 -17.2979 -17.2979 -17.2884 -17.2868 -17.2863 -17.2855
   -17.2839 -17.2825 -17.2817 -17.2802 -17.2788 -17.2776 -17.2763 -17.2749
   -17.2739 -17.2721 -17.2707 -17.2680 -17.2679 -17.2619 -17.2608 -17.2602
   -17.2569 -17.2568 -17.2491 -17.2490 -17.2457 -17.2457 -17.2404 -17.2379
   -17.2368 -17.2361 -17.2360 -17.2345 -17.2330 -17.2323 -17.2240 -17.2239
   -17.2143 -17.2143 -17.2100 -17.2100  -9.0213  -8.9924  -8.9533  -8.9097
    -8.8700  -8.8579  -8.3239  -8.2872  -8.2472  -8.2134  -8.1836  -8.1808
    -3.6362  -3.5534  -3.4321  -3.2902  -3.1569  -3.0704  -2.6104  -2.5600
    -2.4979  -2.4363  -2.3858  -2.3754  -0.3022  -0.2574  -0.2001  -0.1797
    -0.1617   0.0625   0.0851   0.2304   0.4369   0.6080   0.6962   0.7182
     1.2028   1.2066   1.2716   1.3187   1.4162   1.5127   1.5563   1.6609
     1.7682   1.8346   1.8503   1.8642   2.1899   2.2250   2.3088   2.4629
     2.6860   2.9451   3.0156   3.0710   3.0946   3.1635   3.2193   3.2308
     5.3918   5.5358   5.6094   5.6870   5.7427   5.8171   5.9001   5.9965
     6.0362   6.1240   6.1549   6.1771   6.7830   6.8005   6.9588   7.0469
     7.2724   7.3527   7.3981   7.5672   7.5917   7.6578   7.7302   7.7808
     7.9595   8.0207   8.0810   8.1583   8.3122   8.5599   8.6094   8.9393
     8.9850   9.0137   9.0698   9.1815   9.2211   9.3653   9.7998  10.1540
    10.2075  10.6089  10.7079  11.0582  11.1127  11.2924  11.4438  11.5107
    11.6473  11.7183  11.7403  11.7689  11.8037  11.8938  11.9585  12.0053
    12.0056  12.1920  12.2622  12.3328  12.4183  12.4840  12.5439  12.5928
    12.7387  12.8534  13.0820  13.1261  13.2518  13.2883  13.3302  13.3719
    13.5213  13.5919  13.7852  13.8897  14.0455  14.1443  14.2968  14.3885
    14.5081  14.5812  14.6738  14.7417  14.7551  14.8119  14.9458  14.9822
    15.0337  15.1287  15.2858  15.3166  15.3533  15.5149  15.6506  15.6889
    15.8945  16.0730  16.1562  16.2625  16.3249  16.3499  16.4387  16.5637
    16.6757  16.7226  16.8481  16.9186  16.9485  17.0009  17.1049  17.1892
    17.2069  17.2694  17.2780  17.3933  17.4395  17.5174  17.5651  17.6739
    17.8011  17.9488  17.9745  18.0420  18.1583  18.2210  18.2783  18.3206
    18.4801  18.7378  18.7948  18.8924  19.0448  19.0846  19.1342  19.1771
    19.2197  19.2777  19.3249  19.4071  19.4246  19.5023  19.5292  19.5944
    19.6284  19.6485  19.6826  19.7069  19.7543  19.8139  19.8945  19.9176
    19.9746  20.0282  20.0481  20.1240  20.1460  20.1969  20.2330  20.3547
    20.5260  20.5420  20.5743  20.6370  20.6884  20.7238  20.7398  20.8304
    20.8718  20.9253  20.9866  21.0021  21.0962  21.1537  21.2088  21.2412
    21.2976  21.3259  21.4672  21.5232

     occupation numbers 
     1.0000   1.0000   1.0000   1.0000   1.0000   1.0000   1.0000   1.0000
     1.0000   1.0000   1.0000   1.0000   1.0000   1.0000   1.0000   1.0000
     1.0000   1.0000   1.0000   1.0000   1.0000   1.0000   1.0000   1.0000
     1.0000   1.0000   1.0000   1.0000   1.0000   1.0000   1.0000   1.0000
     1.0000   1.0000   1.0000   1.0000   1.0000   1.0000   1.0000   1.0000
     1.0000   1.0000   1.0000   1.0000   1.0000   1.0000   1.0000   1.0000
     1.0000   1.0000   1.0000   1.0000   1.0000   1.0000   1.0000   1.0000
     1.0000   1.0000   1.0000   1.0000   1.0000   1.0000   1.0000   1.0000
     1.0000   1.0000   1.0000   1.0000   1.0000   1.0000   1.0000   1.0000
     1.0000   1.0000   1.0000   1.0000   1.0000   1.0000   1.0000   1.0000
     1.0000   1.0000   1.0000   1.0000   1.0000   1.0000   1.0000   1.0000
     1.0000   1.0000   1.0000   1.0000   1.0000   1.0000   1.0000   1.0000
     1.0000   1.0000   1.0000   1.0000   1.0000   1.0000   1.0000   1.0000
     1.0000   1.0000   1.0000   1.0000   1.0000   1.0000   1.0000   1.0000
     1.0000   1.0000   1.0000   1.0000   1.0000   1.0000   1.0000   1.0000
     0.0000   0.0000   0.0000   0.0000   0.0000   0.0000   0.0000   0.0000
     0.0000   0.0000   0.0000   0.0000   0.0000   0.0000   0.0000   0.0000
     0.0000   0.0000   0.0000   0.0000   0.0000   0.0000   0.0000   0.0000
     0.0000   0.0000   0.0000   0.0000   0.0000   0.0000   0.0000   0.0000
     0.0000   0.0000   0.0000   0.0000   0.0000   0.0000   0.0000   0.0000
     0.0000   0.0000   0.0000   0.0000   0.0000   0.0000   0.0000   0.0000
     0.0000   0.0000   0.0000   0.0000   0.0000   0.0000   0.0000   0.0000
     0.0000   0.0000   0.0000   0.0000   0.0000   0.0000   0.0000   0.0000
     0.0000   0.0000   0.0000   0.0000   0.0000   0.0000   0.0000   0.0000
     0.0000   0.0000   0.0000   0.0000   0.0000   0.0000   0.0000   0.0000
     0.0000   0.0000   0.0000   0.0000   0.0000   0.0000   0.0000   0.0000
     0.0000   0.0000   0.0000   0.0000   0.0000   0.0000   0.0000   0.0000
     0.0000   0.0000   0.0000   0.0000   0.0000   0.0000   0.0000   0.0000
     0.0000   0.0000   0.0000   0.0000   0.0000   0.0000   0.0000   0.0000
     0.0000   0.0000   0.0000   0.0000   0.0000   0.0000   0.0000   0.0000
     0.0000   0.0000   0.0000   0.0000   0.0000   0.0000   0.0000   0.0000
     0.0000   0.0000   0.0000   0.0000   0.0000   0.0000   0.0000   0.0000
     0.0000   0.0000   0.0000   0.0000   0.0000   0.0000   0.0000   0.0000
     0.0000   0.0000   0.0000   0.0000   0.0000   0.0000   0.0000   0.0000
     0.0000   0.0000   0.0000   0.0000   0.0000   0.0000   0.0000   0.0000
     0.0000   0.0000   0.0000   0.0000   0.0000   0.0000   0.0000   0.0000
     0.0000   0.0000   0.0000   0.0000   0.0000   0.0000   0.0000   0.0000
     0.0000   0.0000   0.0000   0.0000

          k = 0.3333 0.2910 0.0000 ( 35495 PWs)   bands (ev):

   -17.3352 -17.3330 -17.3323 -17.3296 -17.3287 -17.3282 -17.3262 -17.3260
   -17.3099 -17.3098 -17.3085 -17.3062 -17.3047 -17.3035 -17.3034 -17.3024
   -17.3016 -17.3015 -17.2988 -17.2988 -17.2870 -17.2858 -17.2853 -17.2820
   -17.2818 -17.2814 -17.2809 -17.2796 -17.2789 -17.2780 -17.2748 -17.2736
   -17.2721 -17.2702 -17.2695 -17.2678 -17.2672 -17.2602 -17.2594 -17.2584
   -17.2543 -17.2542 -17.2474 -17.2474 -17.2449 -17.2448 -17.2403 -17.2383
   -17.2379 -17.2350 -17.2350 -17.2337 -17.2324 -17.2318 -17.2243 -17.2243
   -17.2135 -17.2135 -17.2107 -17.2107  -8.7955  -8.7708  -8.7374  -8.6990
    -8.6614  -8.6504  -8.3674  -8.3334  -8.2986  -8.2706  -8.2433  -8.2416
    -3.4633  -3.3826  -3.2648  -3.1246  -2.9802  -2.8439  -2.7467  -2.6571
    -2.5886  -2.5347  -2.4951  -2.4833  -0.8211  -0.7476  -0.6469  -0.5381
    -0.4396  -0.3777  -0.0161   0.0640   0.1706   0.2191   0.2970   0.3395
     0.5784   0.6082   0.7034   0.8625   0.9685   1.0090   1.2887   1.3829
     1.5153   1.6690   1.7865   1.8181   1.8362   1.8818   2.0340   2.2669
     2.5185   2.5667   2.6936   2.7858   2.8689   3.0001   3.0655   3.0676
     5.2763   5.5834   5.9904   6.3870   6.6185   6.6405   6.8045   6.8446
     6.9366   6.9607   7.0464   7.0923   7.1569   7.2188   7.2406   7.4040
     7.4988   7.5194   7.6538   8.1053   8.1443   8.2412   8.3617   8.4360
     8.4863   8.5280   8.5459   8.5706   8.6336   8.7755   8.8658   9.5441
     9.6283   9.6778   9.7120   9.7338   9.7424   9.7835   9.9456  10.1424
    10.2006  10.2585  10.4645  10.7081  10.8176  10.9756  11.3111  11.3770
    11.4285  11.5161  11.8247  11.9304  12.1328  12.2238  12.3600  12.4256
    12.4960  12.7492  12.7930  12.8977  12.9675  12.9853  13.0489  13.1417
    13.1630  13.2584  13.2851  13.3298  13.3517  13.3950  13.4812  13.6344
    13.7988  13.8719  13.8908  13.9598  13.9809  14.0842  14.1313  14.2109
    14.3082  14.4041  14.4449  14.5669  14.6913  14.7461  14.8412  15.0220
    15.2007  15.2363  15.3069  15.3399  15.4595  15.4958  15.5679  15.6213
    15.6423  15.7252  15.7828  15.8238  15.8419  15.9310  15.9406  16.0835
    16.1401  16.2225  16.3359  16.4649  16.6740  16.7671  16.9567  17.0141
    17.1435  17.2200  17.2914  17.4148  17.4471  17.4852  17.5368  17.6049
    17.6859  17.7386  17.8716  17.9221  17.9364  17.9824  18.0092  18.1078
    18.1596  18.2084  18.2639  18.2856  18.3178  18.4227  18.5012  18.5267
    18.6142  18.7158  18.7919  18.8694  18.9698  18.9822  19.0383  19.0957
    19.1637  19.2312  19.2948  19.3390  19.3851  19.6026  19.6893  19.7940
    19.8062  19.8671  19.9378  20.0149  20.1061  20.1796  20.2656  20.2889
    20.3919  20.4672  20.5608  20.5669  20.6418  20.7100  20.7799  20.8294
    20.8353  20.8640  20.9071  20.9826  21.0058  21.1158  21.1546  21.2681
    21.4905  21.5989  21.6283  21.6470

     occupation numbers 
     1.0000   1.0000   1.0000   1.0000   1.0000   1.0000   1.0000   1.0000
     1.0000   1.0000   1.0000   1.0000   1.0000   1.0000   1.0000   1.0000
     1.0000   1.0000   1.0000   1.0000   1.0000   1.0000   1.0000   1.0000
     1.0000   1.0000   1.0000   1.0000   1.0000   1.0000   1.0000   1.0000
     1.0000   1.0000   1.0000   1.0000   1.0000   1.0000   1.0000   1.0000
     1.0000   1.0000   1.0000   1.0000   1.0000   1.0000   1.0000   1.0000
     1.0000   1.0000   1.0000   1.0000   1.0000   1.0000   1.0000   1.0000
     1.0000   1.0000   1.0000   1.0000   1.0000   1.0000   1.0000   1.0000
     1.0000   1.0000   1.0000   1.0000   1.0000   1.0000   1.0000   1.0000
     1.0000   1.0000   1.0000   1.0000   1.0000   1.0000   1.0000   1.0000
     1.0000   1.0000   1.0000   1.0000   1.0000   1.0000   1.0000   1.0000
     1.0000   1.0000   1.0000   1.0000   1.0000   1.0000   1.0000   1.0000
     1.0000   1.0000   1.0000   1.0000   1.0000   1.0000   1.0000   1.0000
     1.0000   1.0000   1.0000   1.0000   1.0000   1.0000   1.0000   1.0000
     1.0000   1.0000   1.0000   1.0000   1.0000   1.0000   1.0000   1.0000
     0.0000   0.0000   0.0000   0.0000   0.0000   0.0000   0.0000   0.0000
     0.0000   0.0000   0.0000   0.0000   0.0000   0.0000   0.0000   0.0000
     0.0000   0.0000   0.0000   0.0000   0.0000   0.0000   0.0000   0.0000
     0.0000   0.0000   0.0000   0.0000   0.0000   0.0000   0.0000   0.0000
     0.0000   0.0000   0.0000   0.0000   0.0000   0.0000   0.0000   0.0000
     0.0000   0.0000   0.0000   0.0000   0.0000   0.0000   0.0000   0.0000
     0.0000   0.0000   0.0000   0.0000   0.0000   0.0000   0.0000   0.0000
     0.0000   0.0000   0.0000   0.0000   0.0000   0.0000   0.0000   0.0000
     0.0000   0.0000   0.0000   0.0000   0.0000   0.0000   0.0000   0.0000
     0.0000   0.0000   0.0000   0.0000   0.0000   0.0000   0.0000   0.0000
     0.0000   0.0000   0.0000   0.0000   0.0000   0.0000   0.0000   0.0000
     0.0000   0.0000   0.0000   0.0000   0.0000   0.0000   0.0000   0.0000
     0.0000   0.0000   0.0000   0.0000   0.0000   0.0000   0.0000   0.0000
     0.0000   0.0000   0.0000   0.0000   0.0000   0.0000   0.0000   0.0000
     0.0000   0.0000   0.0000   0.0000   0.0000   0.0000   0.0000   0.0000
     0.0000   0.0000   0.0000   0.0000   0.0000   0.0000   0.0000   0.0000
     0.0000   0.0000   0.0000   0.0000   0.0000   0.0000   0.0000   0.0000
     0.0000   0.0000   0.0000   0.0000   0.0000   0.0000   0.0000   0.0000
     0.0000   0.0000   0.0000   0.0000   0.0000   0.0000   0.0000   0.0000
     0.0000   0.0000   0.0000   0.0000   0.0000   0.0000   0.0000   0.0000
     0.0000   0.0000   0.0000   0.0000   0.0000   0.0000   0.0000   0.0000
     0.0000   0.0000   0.0000   0.0000   0.0000   0.0000   0.0000   0.0000
     0.0000   0.0000   0.0000   0.0000

          k = 0.3333-0.4365 0.0000 ( 35482 PWs)   bands (ev):

   -17.3360 -17.3354 -17.3341 -17.3313 -17.3298 -17.3295 -17.3278 -17.3277
   -17.3114 -17.3114 -17.3075 -17.3064 -17.3060 -17.3048 -17.3048 -17.3027
   -17.3015 -17.3015 -17.2996 -17.2996 -17.2865 -17.2853 -17.2849 -17.2811
   -17.2810 -17.2802 -17.2802 -17.2794 -17.2793 -17.2785 -17.2738 -17.2731
   -17.2711 -17.2690 -17.2681 -17.2679 -17.2666 -17.2594 -17.2586 -17.2576
   -17.2533 -17.2533 -17.2465 -17.2465 -17.2442 -17.2442 -17.2400 -17.2391
   -17.2380 -17.2344 -17.2344 -17.2332 -17.2321 -17.2318 -17.2244 -17.2244
   -17.2129 -17.2129 -17.2112 -17.2112  -8.5460  -8.5445  -8.5436  -8.5397
    -8.5397  -8.4214  -8.4199  -8.4189  -8.4152  -8.4151  -8.3848  -8.3847
    -3.2024  -3.2011  -3.1877  -3.1761  -3.1713  -2.7937  -2.7934  -2.6175
    -2.6162  -2.5962  -2.5837  -2.5772  -0.6501  -0.6495  -0.5785  -0.5771
    -0.4784  -0.4572  -0.3368  -0.3285  -0.2013  -0.1991  -0.1131  -0.1129
     0.6421   0.6435   0.7617   0.7657   0.9158   0.9662   1.1114   1.1516
     1.2636   1.2810   1.3346   1.3374   1.9964   2.0069   2.0882   2.1287
     2.2391   2.4103   2.5257   2.6195   2.7485   2.7674   2.8580   2.8614
     6.0177   6.0210   6.2028   6.2305   6.3967   6.6923   6.7871   7.2595
     7.3265   7.3794   7.4505   7.4665   7.7415   7.7630   7.7923   7.8754
     7.9301   7.9781   8.0308   8.1140   8.1909   8.2387   8.3438   8.3541
     8.7445   8.8303   9.1274   9.1866   9.3376   9.3422   9.3882   9.6122
     9.6123   9.6153   9.6291   9.6293   9.9704   9.9924  10.0751  10.1785
    10.3434  10.4868  10.7065  10.7369  10.8887  10.8948  11.0496  11.2017
    11.3874  11.4173  11.4429  11.4444  11.6204  11.7590  12.2055  12.3871
    12.5461  12.7564  12.8944  12.9519  13.0515  13.2412  13.4340  13.4858
    13.5820  13.7361  13.7896  13.8162  13.8266  13.8338  13.8665  13.8823
    13.8877  14.0200  14.0437  14.0753  14.0837  14.1455  14.2508  14.3093
    14.4218  14.4389  14.5979  14.6008  14.6163  14.6679  14.6724  14.8797
    15.0950  15.1417  15.1463  15.4170  15.4203  15.4275  15.4652  15.5109
    15.5325  15.6287  15.6744  15.6795  15.7587  15.7765  15.9900  16.0329
    16.4620  16.5195  16.6738  16.6893  16.7257  16.8564  16.8567  16.8680
    16.9599  16.9730  17.0205  17.1344  17.1708  17.2643  17.3723  17.3903
    17.4782  17.4822  17.5344  17.5369  17.5549  17.5812  17.6052  17.6230
    17.6659  17.7353  17.7914  17.8989  18.0770  18.1470  18.1833  18.2032
    18.2845  18.3751  18.6043  18.7352  18.8010  18.9765  19.0066  19.0189
    19.0743  19.0983  19.1032  19.1592  19.2367  19.2698  19.4120  19.4874
    19.5821  19.6601  19.7357  19.7512  19.9853  20.0163  20.0807  20.0897
    20.1879  20.1994  20.2610  20.3108  20.3740  20.4384  20.5048  20.5860
    20.6430  20.6874  20.7461  20.7853  20.8174  21.1784  21.2738  21.2938
    21.3260  21.3495  21.4371  21.5294

     occupation numbers 
     1.0000   1.0000   1.0000   1.0000   1.0000   1.0000   1.0000   1.0000
     1.0000   1.0000   1.0000   1.0000   1.0000   1.0000   1.0000   1.0000
     1.0000   1.0000   1.0000   1.0000   1.0000   1.0000   1.0000   1.0000
     1.0000   1.0000   1.0000   1.0000   1.0000   1.0000   1.0000   1.0000
     1.0000   1.0000   1.0000   1.0000   1.0000   1.0000   1.0000   1.0000
     1.0000   1.0000   1.0000   1.0000   1.0000   1.0000   1.0000   1.0000
     1.0000   1.0000   1.0000   1.0000   1.0000   1.0000   1.0000   1.0000
     1.0000   1.0000   1.0000   1.0000   1.0000   1.0000   1.0000   1.0000
     1.0000   1.0000   1.0000   1.0000   1.0000   1.0000   1.0000   1.0000
     1.0000   1.0000   1.0000   1.0000   1.0000   1.0000   1.0000   1.0000
     1.0000   1.0000   1.0000   1.0000   1.0000   1.0000   1.0000   1.0000
     1.0000   1.0000   1.0000   1.0000   1.0000   1.0000   1.0000   1.0000
     1.0000   1.0000   1.0000   1.0000   1.0000   1.0000   1.0000   1.0000
     1.0000   1.0000   1.0000   1.0000   1.0000   1.0000   1.0000   1.0000
     1.0000   1.0000   1.0000   1.0000   1.0000   1.0000   1.0000   1.0000
     0.0000   0.0000   0.0000   0.0000   0.0000   0.0000   0.0000   0.0000
     0.0000   0.0000   0.0000   0.0000   0.0000   0.0000   0.0000   0.0000
     0.0000   0.0000   0.0000   0.0000   0.0000   0.0000   0.0000   0.0000
     0.0000   0.0000   0.0000   0.0000   0.0000   0.0000   0.0000   0.0000
     0.0000   0.0000   0.0000   0.0000   0.0000   0.0000   0.0000   0.0000
     0.0000   0.0000   0.0000   0.0000   0.0000   0.0000   0.0000   0.0000
     0.0000   0.0000   0.0000   0.0000   0.0000   0.0000   0.0000   0.0000
     0.0000   0.0000   0.0000   0.0000   0.0000   0.0000   0.0000   0.0000
     0.0000   0.0000   0.0000   0.0000   0.0000   0.0000   0.0000   0.0000
     0.0000   0.0000   0.0000   0.0000   0.0000   0.0000   0.0000   0.0000
     0.0000   0.0000   0.0000   0.0000   0.0000   0.0000   0.0000   0.0000
     0.0000   0.0000   0.0000   0.0000   0.0000   0.0000   0.0000   0.0000
     0.0000   0.0000   0.0000   0.0000   0.0000   0.0000   0.0000   0.0000
     0.0000   0.0000   0.0000   0.0000   0.0000   0.0000   0.0000   0.0000
     0.0000   0.0000   0.0000   0.0000   0.0000   0.0000   0.0000   0.0000
     0.0000   0.0000   0.0000   0.0000   0.0000   0.0000   0.0000   0.0000
     0.0000   0.0000   0.0000   0.0000   0.0000   0.0000   0.0000   0.0000
     0.0000   0.0000   0.0000   0.0000   0.0000   0.0000   0.0000   0.0000
     0.0000   0.0000   0.0000   0.0000   0.0000   0.0000   0.0000   0.0000
     0.0000   0.0000   0.0000   0.0000   0.0000   0.0000   0.0000   0.0000
     0.0000   0.0000   0.0000   0.0000   0.0000   0.0000   0.0000   0.0000
     0.0000   0.0000   0.0000   0.0000   0.0000   0.0000   0.0000   0.0000
     0.0000   0.0000   0.0000   0.0000

          k =-0.5000 0.0000 0.0000 ( 35608 PWs)   bands (ev):

   -17.3316 -17.3315 -17.3303 -17.3303 -17.3282 -17.3282 -17.3254 -17.3254
   -17.3090 -17.3089 -17.3025 -17.3025 -17.3002 -17.3002 -17.2984 -17.2984
   -17.2960 -17.2960 -17.2942 -17.2942 -17.2885 -17.2885 -17.2858 -17.2858
   -17.2844 -17.2844 -17.2776 -17.2775 -17.2760 -17.2759 -17.2734 -17.2734
   -17.2704 -17.2704 -17.2698 -17.2698 -17.2676 -17.2676 -17.2669 -17.2669
   -17.2546 -17.2546 -17.2506 -17.2506 -17.2499 -17.2499 -17.2388 -17.2388
   -17.2347 -17.2347 -17.2336 -17.2335 -17.2322 -17.2322 -17.2230 -17.2230
   -17.2097 -17.2097 -17.2094 -17.2093  -8.5452  -8.5452  -8.5346  -8.5346
    -8.5227  -8.5227  -8.5105  -8.5105  -8.5032  -8.5032  -8.4165  -8.4165
    -3.5347  -3.5347  -3.4584  -3.4584  -3.3505  -3.3505  -3.2303  -3.2303
    -3.1243  -3.1243  -3.0610  -3.0610   0.4135   0.4135   0.5625   0.5625
     0.7468   0.7468   0.9081   0.9081   1.0124   1.0124   1.0582   1.0582
     1.4050   1.4050   1.4607   1.4607   1.5509   1.5509   1.6661   1.6661
     1.7697   1.7697   1.8625   1.8625   2.7119   2.7119   2.7186   2.7186
     2.7478   2.7478   2.7733   2.7734   2.8413   2.8413   2.9147   2.9147
     5.3281   5.3281   5.3964   5.3964   5.4430   5.4430   5.4728   5.4728
     5.5214   5.5214   5.5322   5.5323   6.3415   6.3415   6.4618   6.4618
     6.6036   6.6036   6.7360   6.7360   6.8469   6.8469   6.9136   6.9137
     7.1790   7.1790   7.5998   7.5998   7.6918   7.6918   7.9376   7.9376
     8.2589   8.2589   8.5369   8.5369   9.8250   9.8251  10.3773  10.3774
    10.8365  10.8365  11.3404  11.3404  11.4704  11.4705  11.6115  11.6115
    11.6387  11.6387  11.9084  11.9084  12.0200  12.0200  12.2434  12.2434
    12.6392  12.6392  12.8997  12.8997  13.0228  13.0228  13.1001  13.1001
    13.1948  13.1948  13.2556  13.2556  13.4140  13.4140  13.7657  13.7657
    13.9573  13.9574  14.1749  14.1749  14.2877  14.2877  14.3556  14.3556
    14.4848  14.4848  14.9366  14.9366  15.2041  15.2041  15.5222  15.5222
    15.6193  15.6193  15.6484  15.6484  15.6774  15.6774  15.7640  15.7640
    15.8295  15.8295  15.9290  15.9290  16.1032  16.1033  16.4482  16.4482
    16.5437  16.5437  16.5655  16.5656  16.8433  16.8433  16.9613  16.9613
    17.3078  17.3078  17.3933  17.3933  17.6060  17.6060  17.6546  17.6546
    17.8851  17.8852  18.0514  18.0514  18.0761  18.0761  18.2952  18.2952
    18.3379  18.3379  18.5331  18.5331  18.5763  18.5763  18.9193  18.9193
    18.9984  18.9984  19.3754  19.3755  19.5239  19.5239  19.6074  19.6074
    19.7021  19.7021  19.9114  19.9114  19.9543  19.9543  20.3945  20.3945
    20.4671  20.4671  20.5404  20.5404  20.5969  20.5969  20.7624  20.7625
    20.9909  20.9909  21.0677  21.0677  21.0933  21.0933  21.3882  21.3882
    21.4741  21.4741  21.5960  21.5960  21.6614  21.6614  21.8354  21.8354
    21.9029  21.9030  21.9867  21.9867

     occupation numbers 
     1.0000   1.0000   1.0000   1.0000   1.0000   1.0000   1.0000   1.0000
     1.0000   1.0000   1.0000   1.0000   1.0000   1.0000   1.0000   1.0000
     1.0000   1.0000   1.0000   1.0000   1.0000   1.0000   1.0000   1.0000
     1.0000   1.0000   1.0000   1.0000   1.0000   1.0000   1.0000   1.0000
     1.0000   1.0000   1.0000   1.0000   1.0000   1.0000   1.0000   1.0000
     1.0000   1.0000   1.0000   1.0000   1.0000   1.0000   1.0000   1.0000
     1.0000   1.0000   1.0000   1.0000   1.0000   1.0000   1.0000   1.0000
     1.0000   1.0000   1.0000   1.0000   1.0000   1.0000   1.0000   1.0000
     1.0000   1.0000   1.0000   1.0000   1.0000   1.0000   1.0000   1.0000
     1.0000   1.0000   1.0000   1.0000   1.0000   1.0000   1.0000   1.0000
     1.0000   1.0000   1.0000   1.0000   1.0000   1.0000   1.0000   1.0000
     1.0000   1.0000   1.0000   1.0000   1.0000   1.0000   1.0000   1.0000
     1.0000   1.0000   1.0000   1.0000   1.0000   1.0000   1.0000   1.0000
     1.0000   1.0000   1.0000   1.0000   1.0000   1.0000   1.0000   1.0000
     1.0000   1.0000   1.0000   1.0000   1.0000   1.0000   1.0000   1.0000
     0.0000   0.0000   0.0000   0.0000   0.0000   0.0000   0.0000   0.0000
     0.0000   0.0000   0.0000   0.0000   0.0000   0.0000   0.0000   0.0000
     0.0000   0.0000   0.0000   0.0000   0.0000   0.0000   0.0000   0.0000
     0.0000   0.0000   0.0000   0.0000   0.0000   0.0000   0.0000   0.0000
     0.0000   0.0000   0.0000   0.0000   0.0000   0.0000   0.0000   0.0000
     0.0000   0.0000   0.0000   0.0000   0.0000   0.0000   0.0000   0.0000
     0.0000   0.0000   0.0000   0.0000   0.0000   0.0000   0.0000   0.0000
     0.0000   0.0000   0.0000   0.0000   0.0000   0.0000   0.0000   0.0000
     0.0000   0.0000   0.0000   0.0000   0.0000   0.0000   0.0000   0.0000
     0.0000   0.0000   0.0000   0.0000   0.0000   0.0000   0.0000   0.0000
     0.0000   0.0000   0.0000   0.0000   0.0000   0.0000   0.0000   0.0000
     0.0000   0.0000   0.0000   0.0000   0.0000   0.0000   0.0000   0.0000
     0.0000   0.0000   0.0000   0.0000   0.0000   0.0000   0.0000   0.0000
     0.0000   0.0000   0.0000   0.0000   0.0000   0.0000   0.0000   0.0000
     0.0000   0.0000   0.0000   0.0000   0.0000   0.0000   0.0000   0.0000
     0.0000   0.0000   0.0000   0.0000   0.0000   0.0000   0.0000   0.0000
     0.0000   0.0000   0.0000   0.0000   0.0000   0.0000   0.0000   0.0000
     0.0000   0.0000   0.0000   0.0000   0.0000   0.0000   0.0000   0.0000
     0.0000   0.0000   0.0000   0.0000   0.0000   0.0000   0.0000   0.0000
     0.0000   0.0000   0.0000   0.0000   0.0000   0.0000   0.0000   0.0000
     0.0000   0.0000   0.0000   0.0000   0.0000   0.0000   0.0000   0.0000
     0.0000   0.0000   0.0000   0.0000   0.0000   0.0000   0.0000   0.0000
     0.0000   0.0000   0.0000   0.0000

          k =-0.5000 0.1455 0.0000 ( 35500 PWs)   bands (ev):

   -17.3339 -17.3339 -17.3322 -17.3322 -17.3301 -17.3301 -17.3273 -17.3273
   -17.3110 -17.3110 -17.3043 -17.3043 -17.3010 -17.3010 -17.2988 -17.2988
   -17.2962 -17.2962 -17.2945 -17.2945 -17.2876 -17.2876 -17.2849 -17.2849
   -17.2832 -17.2832 -17.2767 -17.2766 -17.2761 -17.2761 -17.2733 -17.2733
   -17.2708 -17.2708 -17.2694 -17.2694 -17.2663 -17.2663 -17.2648 -17.2648
   -17.2540 -17.2539 -17.2499 -17.2498 -17.2484 -17.2484 -17.2380 -17.2380
   -17.2353 -17.2353 -17.2333 -17.2333 -17.2318 -17.2318 -17.2230 -17.2229
   -17.2097 -17.2096 -17.2093 -17.2093  -8.4982  -8.4982  -8.4886  -8.4886
    -8.4781  -8.4780  -8.4673  -8.4673  -8.4612  -8.4612  -8.3739  -8.3739
    -3.4141  -3.4141  -3.3450  -3.3450  -3.2484  -3.2484  -3.1419  -3.1419
    -3.0494  -3.0494  -2.9964  -2.9964   0.1350   0.1350   0.2208   0.2208
     0.3284   0.3284   0.4340   0.4340   0.5132   0.5132   0.5993   0.5993
     1.0292   1.0292   1.1311   1.1312   1.2986   1.2986   1.4868   1.4868
     1.6410   1.6410   1.7227   1.7227   2.2498   2.2498   2.3633   2.3633
     2.5291   2.5291   2.7263   2.7263   2.9253   2.9253   3.0748   3.0748
     5.1452   5.1452   5.3762   5.3762   5.6535   5.6535   5.8909   5.8909
     6.0302   6.0302   6.0821   6.0822   7.0364   7.0364   7.1137   7.1137
     7.2355   7.2355   7.3976   7.3976   7.5636   7.5636   7.7427   7.7427
     7.9417   7.9417   8.1102   8.1102   8.1231   8.1231   8.1711   8.1711
     8.2771   8.2771   8.3954   8.3954   9.8559   9.8559  10.3092  10.3093
    10.4760  10.4760  10.7643  10.7643  10.8845  10.8845  11.3559  11.3559
    11.5487  11.5487  11.9493  11.9493  12.0750  12.0750  12.2381  12.2382
    12.7094  12.7095  13.0005  13.0005  13.0588  13.0588  13.3079  13.3079
    13.4533  13.4533  13.6375  13.6375  13.6602  13.6603  14.0880  14.0880
    14.1362  14.1362  14.3552  14.3552  14.4763  14.4763  14.7929  14.7929
    14.9902  14.9902  15.1653  15.1653  15.2483  15.2483  15.4432  15.4433
    15.5132  15.5133  15.6274  15.6274  15.6459  15.6459  15.7186  15.7186
    15.7866  15.7866  15.8857  15.8857  15.9661  15.9662  16.0828  16.0828
    16.1311  16.1312  16.3610  16.3610  16.5404  16.5405  16.7458  16.7458
    16.8420  16.8420  16.9271  16.9271  17.2660  17.2660  17.3496  17.3496
    17.6797  17.6797  17.7614  17.7614  17.8444  17.8445  18.1163  18.1163
    18.2430  18.2430  18.3438  18.3438  18.6220  18.6220  18.7826  18.7826
    19.1302  19.1303  19.3819  19.3819  19.5222  19.5222  19.6405  19.6405
    19.7041  19.7041  19.8516  19.8516  20.0404  20.0405  20.2892  20.2893
    20.3651  20.3651  20.4217  20.4217  20.4676  20.4676  20.5528  20.5528
    20.7907  20.7907  20.8104  20.8104  21.0077  21.0077  21.2633  21.2633
    21.2841  21.2841  21.4550  21.4551  21.5286  21.5286  21.6704  21.6704
    21.7831  21.7831  21.8999  21.9000

     occupation numbers 
     1.0000   1.0000   1.0000   1.0000   1.0000   1.0000   1.0000   1.0000
     1.0000   1.0000   1.0000   1.0000   1.0000   1.0000   1.0000   1.0000
     1.0000   1.0000   1.0000   1.0000   1.0000   1.0000   1.0000   1.0000
     1.0000   1.0000   1.0000   1.0000   1.0000   1.0000   1.0000   1.0000
     1.0000   1.0000   1.0000   1.0000   1.0000   1.0000   1.0000   1.0000
     1.0000   1.0000   1.0000   1.0000   1.0000   1.0000   1.0000   1.0000
     1.0000   1.0000   1.0000   1.0000   1.0000   1.0000   1.0000   1.0000
     1.0000   1.0000   1.0000   1.0000   1.0000   1.0000   1.0000   1.0000
     1.0000   1.0000   1.0000   1.0000   1.0000   1.0000   1.0000   1.0000
     1.0000   1.0000   1.0000   1.0000   1.0000   1.0000   1.0000   1.0000
     1.0000   1.0000   1.0000   1.0000   1.0000   1.0000   1.0000   1.0000
     1.0000   1.0000   1.0000   1.0000   1.0000   1.0000   1.0000   1.0000
     1.0000   1.0000   1.0000   1.0000   1.0000   1.0000   1.0000   1.0000
     1.0000   1.0000   1.0000   1.0000   1.0000   1.0000   1.0000   1.0000
     1.0000   1.0000   1.0000   1.0000   1.0000   1.0000   1.0000   1.0000
     0.0000   0.0000   0.0000   0.0000   0.0000   0.0000   0.0000   0.0000
     0.0000   0.0000   0.0000   0.0000   0.0000   0.0000   0.0000   0.0000
     0.0000   0.0000   0.0000   0.0000   0.0000   0.0000   0.0000   0.0000
     0.0000   0.0000   0.0000   0.0000   0.0000   0.0000   0.0000   0.0000
     0.0000   0.0000   0.0000   0.0000   0.0000   0.0000   0.0000   0.0000
     0.0000   0.0000   0.0000   0.0000   0.0000   0.0000   0.0000   0.0000
     0.0000   0.0000   0.0000   0.0000   0.0000   0.0000   0.0000   0.0000
     0.0000   0.0000   0.0000   0.0000   0.0000   0.0000   0.0000   0.0000
     0.0000   0.0000   0.0000   0.0000   0.0000   0.0000   0.0000   0.0000
     0.0000   0.0000   0.0000   0.0000   0.0000   0.0000   0.0000   0.0000
     0.0000   0.0000   0.0000   0.0000   0.0000   0.0000   0.0000   0.0000
     0.0000   0.0000   0.0000   0.0000   0.0000   0.0000   0.0000   0.0000
     0.0000   0.0000   0.0000   0.0000   0.0000   0.0000   0.0000   0.0000
     0.0000   0.0000   0.0000   0.0000   0.0000   0.0000   0.0000   0.0000
     0.0000   0.0000   0.0000   0.0000   0.0000   0.0000   0.0000   0.0000
     0.0000   0.0000   0.0000   0.0000   0.0000   0.0000   0.0000   0.0000
     0.0000   0.0000   0.0000   0.0000   0.0000   0.0000   0.0000   0.0000
     0.0000   0.0000   0.0000   0.0000   0.0000   0.0000   0.0000   0.0000
     0.0000   0.0000   0.0000   0.0000   0.0000   0.0000   0.0000   0.0000
     0.0000   0.0000   0.0000   0.0000   0.0000   0.0000   0.0000   0.0000
     0.0000   0.0000   0.0000   0.0000   0.0000   0.0000   0.0000   0.0000
     0.0000   0.0000   0.0000   0.0000   0.0000   0.0000   0.0000   0.0000
     0.0000   0.0000   0.0000   0.0000

          k =-0.5000 0.2910 0.0000 ( 35414 PWs)   bands (ev):

   -17.3387 -17.3387 -17.3361 -17.3361 -17.3337 -17.3337 -17.3310 -17.3310
   -17.3150 -17.3149 -17.3079 -17.3079 -17.3025 -17.3025 -17.2998 -17.2998
   -17.2968 -17.2968 -17.2951 -17.2951 -17.2858 -17.2858 -17.2832 -17.2832
   -17.2814 -17.2814 -17.2765 -17.2765 -17.2762 -17.2762 -17.2718 -17.2718
   -17.2708 -17.2708 -17.2678 -17.2678 -17.2639 -17.2639 -17.2614 -17.2614
   -17.2526 -17.2526 -17.2484 -17.2484 -17.2453 -17.2453 -17.2364 -17.2364
   -17.2359 -17.2359 -17.2330 -17.2330 -17.2312 -17.2312 -17.2229 -17.2229
   -17.2095 -17.2095 -17.2093 -17.2092  -8.3981  -8.3981  -8.3915  -8.3915
    -8.3851  -8.3851  -8.3783  -8.3783  -8.3754  -8.3754  -8.2853  -8.2853
    -3.1241  -3.1241  -3.0794  -3.0794  -3.0189  -3.0189  -2.9545  -2.9545
    -2.9016  -2.9016  -2.8695  -2.8695  -0.5118  -0.5118  -0.4152  -0.4152
    -0.2740  -0.2740  -0.1107  -0.1107   0.0288   0.0288   0.0900   0.0900
     0.4534   0.4534   0.5173   0.5173   0.6619   0.6619   0.8411   0.8411
     1.0060   1.0060   1.1134   1.1134   1.8445   1.8445   2.0544   2.0544
     2.3126   2.3126   2.5545   2.5545   2.7318   2.7318   2.8210   2.8210
     5.9035   5.9035   6.1098   6.1098   6.4078   6.4078   6.7536   6.7536
     7.0673   7.0673   7.1989   7.1989   7.4011   7.4011   7.6133   7.6133
     7.6981   7.6981   7.8090   7.8090   7.9632   7.9632   8.1430   8.1430
     8.8225   8.8225   9.0785   9.0785   9.3091   9.3091   9.4688   9.4688
     9.5755   9.5755   9.6405   9.6405   9.9463   9.9463  10.1331  10.1331
    10.4822  10.4822  10.8806  10.8806  11.0860  11.0860  11.2808  11.2808
    11.4323  11.4323  11.5426  11.5426  11.7921  11.7921  12.3319  12.3319
    12.6496  12.6496  12.8458  12.8458  12.9401  12.9401  13.2451  13.2451
    13.4172  13.4172  13.6363  13.6363  13.7430  13.7430  14.0577  14.0577
    14.1562  14.1562  14.3322  14.3322  14.8851  14.8852  15.0501  15.0501
    15.1288  15.1288  15.1717  15.1717  15.2724  15.2724  15.3336  15.3336
    15.4735  15.4735  15.5605  15.5605  15.6522  15.6522  15.7150  15.7150
    15.8368  15.8368  15.9249  15.9249  15.9550  15.9550  16.0442  16.0442
    16.2671  16.2671  16.3759  16.3759  16.4122  16.4122  16.4695  16.4695
    16.5033  16.5033  16.6931  16.6931  16.7957  16.7957  16.8261  16.8261
    16.8995  16.8995  17.0570  17.0570  17.1982  17.1983  17.3752  17.3752
    17.5861  17.5861  17.8380  17.8380  18.1496  18.1496  18.6784  18.6784
    18.8084  18.8084  19.0893  19.0893  19.2409  19.2409  19.3049  19.3049
    19.4498  19.4498  19.6644  19.6644  19.9500  19.9500  20.0143  20.0143
    20.1066  20.1066  20.2086  20.2086  20.4055  20.4055  20.4590  20.4590
    20.6310  20.6310  20.7686  20.7686  20.8570  20.8570  21.1476  21.1476
    21.2358  21.2358  21.2778  21.2778  21.3799  21.3799  21.5289  21.5289
    21.8066  21.8066  21.8914  21.8914

     occupation numbers 
     1.0000   1.0000   1.0000   1.0000   1.0000   1.0000   1.0000   1.0000
     1.0000   1.0000   1.0000   1.0000   1.0000   1.0000   1.0000   1.0000
     1.0000   1.0000   1.0000   1.0000   1.0000   1.0000   1.0000   1.0000
     1.0000   1.0000   1.0000   1.0000   1.0000   1.0000   1.0000   1.0000
     1.0000   1.0000   1.0000   1.0000   1.0000   1.0000   1.0000   1.0000
     1.0000   1.0000   1.0000   1.0000   1.0000   1.0000   1.0000   1.0000
     1.0000   1.0000   1.0000   1.0000   1.0000   1.0000   1.0000   1.0000
     1.0000   1.0000   1.0000   1.0000   1.0000   1.0000   1.0000   1.0000
     1.0000   1.0000   1.0000   1.0000   1.0000   1.0000   1.0000   1.0000
     1.0000   1.0000   1.0000   1.0000   1.0000   1.0000   1.0000   1.0000
     1.0000   1.0000   1.0000   1.0000   1.0000   1.0000   1.0000   1.0000
     1.0000   1.0000   1.0000   1.0000   1.0000   1.0000   1.0000   1.0000
     1.0000   1.0000   1.0000   1.0000   1.0000   1.0000   1.0000   1.0000
     1.0000   1.0000   1.0000   1.0000   1.0000   1.0000   1.0000   1.0000
     1.0000   1.0000   1.0000   1.0000   1.0000   1.0000   1.0000   1.0000
     0.0000   0.0000   0.0000   0.0000   0.0000   0.0000   0.0000   0.0000
     0.0000   0.0000   0.0000   0.0000   0.0000   0.0000   0.0000   0.0000
     0.0000   0.0000   0.0000   0.0000   0.0000   0.0000   0.0000   0.0000
     0.0000   0.0000   0.0000   0.0000   0.0000   0.0000   0.0000   0.0000
     0.0000   0.0000   0.0000   0.0000   0.0000   0.0000   0.0000   0.0000
     0.0000   0.0000   0.0000   0.0000   0.0000   0.0000   0.0000   0.0000
     0.0000   0.0000   0.0000   0.0000   0.0000   0.0000   0.0000   0.0000
     0.0000   0.0000   0.0000   0.0000   0.0000   0.0000   0.0000   0.0000
     0.0000   0.0000   0.0000   0.0000   0.0000   0.0000   0.0000   0.0000
     0.0000   0.0000   0.0000   0.0000   0.0000   0.0000   0.0000   0.0000
     0.0000   0.0000   0.0000   0.0000   0.0000   0.0000   0.0000   0.0000
     0.0000   0.0000   0.0000   0.0000   0.0000   0.0000   0.0000   0.0000
     0.0000   0.0000   0.0000   0.0000   0.0000   0.0000   0.0000   0.0000
     0.0000   0.0000   0.0000   0.0000   0.0000   0.0000   0.0000   0.0000
     0.0000   0.0000   0.0000   0.0000   0.0000   0.0000   0.0000   0.0000
     0.0000   0.0000   0.0000   0.0000   0.0000   0.0000   0.0000   0.0000
     0.0000   0.0000   0.0000   0.0000   0.0000   0.0000   0.0000   0.0000
     0.0000   0.0000   0.0000   0.0000   0.0000   0.0000   0.0000   0.0000
     0.0000   0.0000   0.0000   0.0000   0.0000   0.0000   0.0000   0.0000
     0.0000   0.0000   0.0000   0.0000   0.0000   0.0000   0.0000   0.0000
     0.0000   0.0000   0.0000   0.0000   0.0000   0.0000   0.0000   0.0000
     0.0000   0.0000   0.0000   0.0000   0.0000   0.0000   0.0000   0.0000
     0.0000   0.0000   0.0000   0.0000

          k =-0.5000-0.4365 0.0000 ( 35400 PWs)   bands (ev):

   -17.3410 -17.3410 -17.3381 -17.3381 -17.3355 -17.3355 -17.3329 -17.3328
   -17.3169 -17.3169 -17.3097 -17.3097 -17.3032 -17.3032 -17.3004 -17.3003
   -17.2971 -17.2971 -17.2954 -17.2954 -17.2849 -17.2849 -17.2824 -17.2824
   -17.2808 -17.2808 -17.2767 -17.2767 -17.2764 -17.2764 -17.2709 -17.2709
   -17.2704 -17.2704 -17.2669 -17.2669 -17.2627 -17.2627 -17.2599 -17.2599
   -17.2519 -17.2519 -17.2477 -17.2477 -17.2438 -17.2438 -17.2364 -17.2364
   -17.2353 -17.2353 -17.2329 -17.2329 -17.2308 -17.2308 -17.2229 -17.2228
   -17.2094 -17.2094 -17.2092 -17.2092  -8.3417  -8.3417  -8.3392  -8.3392
    -8.3371  -8.3370  -8.3344  -8.3344  -8.3331  -8.3330  -8.2391  -8.2391
    -2.9305  -2.9305  -2.9143  -2.9143  -2.8923  -2.8923  -2.8689  -2.8689
    -2.8492  -2.8492  -2.8026  -2.8026  -0.7313  -0.7313  -0.6086  -0.6086
    -0.4302  -0.4302  -0.2414  -0.2414  -0.2026  -0.2026  -0.1495  -0.1495
     0.1853   0.1853   0.1992   0.1992   0.3060   0.3060   0.3692   0.3692
     0.5196   0.5196   0.6239   0.6239   1.8796   1.8796   2.0930   2.0930
     2.3318   2.3318   2.5163   2.5163   2.6067   2.6067   2.6272   2.6273
     6.6173   6.6173   6.6321   6.6321   6.6926   6.6926   6.7333   6.7333
     6.8293   6.8293   6.8565   6.8565   8.0205   8.0205   8.0601   8.0601
     8.1859   8.1859   8.2091   8.2091   8.2985   8.2985   8.3270   8.3270
     9.0603   9.0603   9.6089   9.6089  10.0020  10.0020  10.2156  10.2156
    10.2966  10.2966  10.3287  10.3287  10.3584  10.3584  10.4287  10.4287
    10.5951  10.5951  10.9560  10.9560  11.2925  11.2925  11.4127  11.4127
    11.6685  11.6685  12.0248  12.0248  12.1346  12.1347  12.2551  12.2551
    12.5718  12.5719  12.6550  12.6550  12.9851  12.9851  13.0816  13.0816
    13.1801  13.1801  13.2007  13.2008  13.5408  13.5408  13.5562  13.5562
    13.7016  13.7016  13.8494  13.8494  14.2095  14.2095  14.3378  14.3378
    14.3741  14.3741  14.7147  14.7148  14.7930  14.7931  14.9490  14.9490
    15.4931  15.4931  15.5939  15.5939  15.8173  15.8173  15.8470  15.8470
    15.9236  15.9236  15.9974  15.9974  16.0354  16.0354  16.0665  16.0665
    16.4200  16.4200  16.5372  16.5372  16.5563  16.5563  16.5596  16.5596
    16.6030  16.6030  16.6188  16.6189  16.8923  16.8923  17.0584  17.0584
    17.5562  17.5562  17.5976  17.5976  17.9069  17.9069  17.9615  17.9615
    17.9920  17.9920  18.0267  18.0267  18.1289  18.1289  18.2860  18.2860
    18.3626  18.3626  18.4018  18.4018  18.5477  18.5477  18.6116  18.6116
    18.9336  18.9336  19.0870  19.0870  19.2617  19.2617  19.4670  19.4670
    19.6956  19.6956  19.8287  19.8287  20.0449  20.0449  20.1223  20.1223
    20.7383  20.7384  20.8479  20.8479  20.9069  20.9069  20.9985  20.9985
    21.0783  21.0783  21.1509  21.1509  21.2106  21.2106  21.3737  21.3737
    21.4253  21.4254  21.5281  21.5282

     occupation numbers 
     1.0000   1.0000   1.0000   1.0000   1.0000   1.0000   1.0000   1.0000
     1.0000   1.0000   1.0000   1.0000   1.0000   1.0000   1.0000   1.0000
     1.0000   1.0000   1.0000   1.0000   1.0000   1.0000   1.0000   1.0000
     1.0000   1.0000   1.0000   1.0000   1.0000   1.0000   1.0000   1.0000
     1.0000   1.0000   1.0000   1.0000   1.0000   1.0000   1.0000   1.0000
     1.0000   1.0000   1.0000   1.0000   1.0000   1.0000   1.0000   1.0000
     1.0000   1.0000   1.0000   1.0000   1.0000   1.0000   1.0000   1.0000
     1.0000   1.0000   1.0000   1.0000   1.0000   1.0000   1.0000   1.0000
     1.0000   1.0000   1.0000   1.0000   1.0000   1.0000   1.0000   1.0000
     1.0000   1.0000   1.0000   1.0000   1.0000   1.0000   1.0000   1.0000
     1.0000   1.0000   1.0000   1.0000   1.0000   1.0000   1.0000   1.0000
     1.0000   1.0000   1.0000   1.0000   1.0000   1.0000   1.0000   1.0000
     1.0000   1.0000   1.0000   1.0000   1.0000   1.0000   1.0000   1.0000
     1.0000   1.0000   1.0000   1.0000   1.0000   1.0000   1.0000   1.0000
     1.0000   1.0000   1.0000   1.0000   1.0000   1.0000   1.0000   1.0000
     0.0000   0.0000   0.0000   0.0000   0.0000   0.0000   0.0000   0.0000
     0.0000   0.0000   0.0000   0.0000   0.0000   0.0000   0.0000   0.0000
     0.0000   0.0000   0.0000   0.0000   0.0000   0.0000   0.0000   0.0000
     0.0000   0.0000   0.0000   0.0000   0.0000   0.0000   0.0000   0.0000
     0.0000   0.0000   0.0000   0.0000   0.0000   0.0000   0.0000   0.0000
     0.0000   0.0000   0.0000   0.0000   0.0000   0.0000   0.0000   0.0000
     0.0000   0.0000   0.0000   0.0000   0.0000   0.0000   0.0000   0.0000
     0.0000   0.0000   0.0000   0.0000   0.0000   0.0000   0.0000   0.0000
     0.0000   0.0000   0.0000   0.0000   0.0000   0.0000   0.0000   0.0000
     0.0000   0.0000   0.0000   0.0000   0.0000   0.0000   0.0000   0.0000
     0.0000   0.0000   0.0000   0.0000   0.0000   0.0000   0.0000   0.0000
     0.0000   0.0000   0.0000   0.0000   0.0000   0.0000   0.0000   0.0000
     0.0000   0.0000   0.0000   0.0000   0.0000   0.0000   0.0000   0.0000
     0.0000   0.0000   0.0000   0.0000   0.0000   0.0000   0.0000   0.0000
     0.0000   0.0000   0.0000   0.0000   0.0000   0.0000   0.0000   0.0000
     0.0000   0.0000   0.0000   0.0000   0.0000   0.0000   0.0000   0.0000
     0.0000   0.0000   0.0000   0.0000   0.0000   0.0000   0.0000   0.0000
     0.0000   0.0000   0.0000   0.0000   0.0000   0.0000   0.0000   0.0000
     0.0000   0.0000   0.0000   0.0000   0.0000   0.0000   0.0000   0.0000
     0.0000   0.0000   0.0000   0.0000   0.0000   0.0000   0.0000   0.0000
     0.0000   0.0000   0.0000   0.0000   0.0000   0.0000   0.0000   0.0000
     0.0000   0.0000   0.0000   0.0000   0.0000   0.0000   0.0000   0.0000
     0.0000   0.0000   0.0000   0.0000

     highest occupied, lowest unoccupied level (ev):     3.8141    4.8303

!    total energy              =   -6100.90290137 Ry

     total all-electron energy =   -157837.649785 Ry
     estimated scf accuracy    <          3.3E-09 Ry

     The total energy is the sum of the following terms:
     one-electron contribution =  -17290.08555137 Ry
     hartree contribution      =    8774.10723037 Ry
     xc contribution           =    -638.37949858 Ry
     ewald contribution        =    6978.36941221 Ry
     one-center paw contrib.   =   -3924.91449400 Ry
      -> PAW hartree energy AE =     328.01512801 Ry
      -> PAW hartree energy PS =    -325.74849949 Ry
      -> PAW xc energy AE      =    -987.05343035 Ry
      -> PAW xc energy PS      =     141.96083680 Ry
      -> total E_H with PAW    =    8776.37385889 Ry
      -> total E_XC with PAW   =   -1483.47209212 Ry

     convergence has been achieved in  15 iterations

     negative rho (up, down):  1.100E-03 0.000E+00

     Forces acting on atoms (cartesian axes, Ry/au):

     atom    1 type  1   force =     0.00000000    0.00510151   -0.00718404
     atom    2 type  1   force =     0.00000000   -0.00659811    0.00489514
     atom    3 type  1   force =     0.00000000    0.00502329    0.00685645
     atom    4 type  1   force =     0.00000000   -0.00714153   -0.00141864
     atom    5 type  2   force =     0.00000000    0.00800137    0.00010095
     atom    6 type  2   force =     0.00000000   -0.00576020   -0.00548973
     atom    7 type  2   force =     0.00000000    0.00641975   -0.00365291
     atom    8 type  2   force =     0.00000000   -0.00598903    0.00554600
     atom    9 type  1   force =     0.00000000    0.00503833   -0.00695329
     atom   10 type  1   force =     0.00000000   -0.00503777    0.00697494
     atom   11 type  1   force =     0.00000000    0.00502269    0.00703308
     atom   12 type  1   force =     0.00000000   -0.00502124   -0.00704217
     atom   13 type  2   force =     0.00000000    0.00598914    0.00553699
     atom   14 type  2   force =     0.00000000   -0.00598924   -0.00553897
     atom   15 type  2   force =     0.00000000    0.00595432   -0.00552297
     atom   16 type  2   force =     0.00000000   -0.00595446    0.00552425
     atom   17 type  1   force =     0.00000000    0.00659966   -0.00488203
     atom   18 type  1   force =     0.00000000   -0.00510571    0.00718074
     atom   19 type  1   force =     0.00000000    0.00714004    0.00142724
     atom   20 type  1   force =     0.00000000   -0.00501970   -0.00688670
     atom   21 type  2   force =     0.00000000    0.00575995    0.00549147
     atom   22 type  2   force =     0.00000000   -0.00800187   -0.00010512
     atom   23 type  2   force =     0.00000000    0.00598913   -0.00554087
     atom   24 type  2   force =     0.00000000   -0.00642035    0.00365018
     The non-local contrib.  to forces
     atom    1 type  1   force =     0.00000000   -0.31443196    0.37534226
     atom    2 type  1   force =     0.00000000    0.31495617   -0.38109868
     atom    3 type  1   force =     0.00000000   -0.31646227   -0.37392575
     atom    4 type  1   force =     0.00000000    0.31051182    0.46346770
     atom    5 type  2   force =     0.00000000   -0.08759092   -0.09636313
     atom    6 type  2   force =     0.00000000    0.09041387    0.08585281
     atom    7 type  2   force =     0.00000000   -0.09049450    0.09949104
     atom    8 type  2   force =     0.00000000    0.09071333   -0.08550868
     atom    9 type  1   force =     0.00000000   -0.31638468    0.37398929
     atom   10 type  1   force =     0.00000000    0.31638838   -0.37397047
     atom   11 type  1   force =     0.00000000   -0.31627985   -0.37414165
     atom   12 type  1   force =     0.00000000    0.31628250    0.37413624
     atom   13 type  2   force =     0.00000000   -0.09068845   -0.08563179
     atom   14 type  2   force =     0.00000000    0.09068855    0.08563062
     atom   15 type  2   force =     0.00000000   -0.09068452    0.08572041
     atom   16 type  2   force =     0.00000000    0.09068454   -0.08572030
     atom   17 type  1   force =     0.00000000   -0.31495590    0.38110813
     atom   18 type  1   force =     0.00000000    0.31442918   -0.37534708
     atom   19 type  1   force =     0.00000000   -0.31051305   -0.46345909
     atom   20 type  1   force =     0.00000000    0.31646534    0.37389957
     atom   21 type  2   force =     0.00000000   -0.09041423   -0.08585015
     atom   22 type  2   force =     0.00000000    0.08759132    0.09635966
     atom   23 type  2   force =     0.00000000   -0.09071246    0.08551252
     atom   24 type  2   force =     0.00000000    0.09049474   -0.09949388
     The ionic contribution  to forces
     atom    1 type  1   force =     0.00000000    1.33264173 -120.85147945
     atom    2 type  1   force =    -0.00000000   -1.30931181 -147.26932333
     atom    3 type  1   force =    -0.00000000    1.33253364  -80.22905247
     atom    4 type  1   force =    -0.00000000   -2.29845655 -186.76295525
     atom    5 type  2   force =    -0.00000000    1.91858691  -64.03047838
     atom    6 type  2   force =    -0.00000000   -1.93281256  -50.87472224
     atom    7 type  2   force =     0.00000000    2.28934987  -79.53642457
     atom    8 type  2   force =     0.00000000   -1.93269928  -35.30298216
     atom    9 type  1   force =     0.00000000    1.33253571   13.20201414
     atom   10 type  1   force =    -0.00000000   -1.33253571  -13.20201128
     atom   11 type  1   force =    -0.00000000    1.33253589   53.82501548
     atom   12 type  1   force =     0.00000000   -1.33253617  -53.82501268
     atom   13 type  2   force =     0.00000000    1.93270415   -6.57711703
     atom   14 type  2   force =    -0.00000000   -1.93270415    6.57711825
     atom   15 type  2   force =    -0.00000000    1.93270421  -22.14875036
     atom   16 type  2   force =     0.00000000   -1.93270419   22.14875160
     atom   17 type  1   force =     0.00000000    1.30931124  147.26932534
     atom   18 type  1   force =    -0.00000000   -1.33264117  120.85147109
     atom   19 type  1   force =    -0.00000000    2.29845657  186.76295812
     atom   20 type  1   force =    -0.00000000   -1.33253390   80.22905029
     atom   21 type  2   force =     0.00000000    1.93281293   50.87471672
     atom   22 type  2   force =    -0.00000000   -1.91858666   64.03047954
     atom   23 type  2   force =    -0.00000000    1.93269916   35.30298282
     atom   24 type  2   force =    -0.00000000   -2.28934988   79.53642580
     The local contribution  to forces
     atom    1 type  1   force =     0.00000000   -1.01273034  120.46839906
     atom    2 type  1   force =     0.00000000    0.98737261  147.65559140
     atom    3 type  1   force =     0.00000000   -1.01071896   80.61043879
     atom    4 type  1   force =     0.00000000    1.97925016  186.29799269
     atom    5 type  2   force =     0.00000000   -1.82410090   64.12531809
     atom    6 type  2   force =     0.00000000    1.83781575   50.78471581
     atom    7 type  2   force =    -0.00000000   -2.19354906   79.43486334
     atom    8 type  2   force =    -0.00000000    1.83718406   35.39274589
     atom    9 type  1   force =    -0.00000000   -1.01077824  -13.58357710
     atom   10 type  1   force =     0.00000000    1.01077531   13.58349994
     atom   11 type  1   force =     0.00000000   -1.01089632  -53.44325779
     atom   12 type  1   force =     0.00000000    1.01089434   53.44330307
     atom   13 type  2   force =     0.00000000   -1.83721209    6.66696136
     atom   14 type  2   force =    -0.00000000    1.83721322   -6.66698964
     atom   15 type  2   force =    -0.00000000   -1.83725078   22.05883724
     atom   16 type  2   force =     0.00000000    1.83725184  -22.05882656
     atom   17 type  1   force =     0.00000000   -0.98737745 -147.65564082
     atom   18 type  1   force =     0.00000000    1.01272976 -120.46838389
     atom   19 type  1   force =    -0.00000000   -1.97924800 -186.29801906
     atom   20 type  1   force =    -0.00000000    1.01071428  -80.61034850
     atom   21 type  2   force =    -0.00000000   -1.83781607  -50.78469997
     atom   22 type  2   force =     0.00000000    1.82410090  -64.12534204
     atom   23 type  2   force =     0.00000000   -1.83718345  -35.39270791
     atom   24 type  2   force =     0.00000000    2.19354814  -79.43487993
     The core correction contribution to forces
     atom    1 type  1   force =    -0.00000000   -0.00038491    0.00054682
     atom    2 type  1   force =     0.00000000    0.00038405   -0.00033267
     atom    3 type  1   force =     0.00000000   -0.00033952   -0.00052635
     atom    4 type  1   force =    -0.00000000    0.00155346   -0.00003623
     atom    5 type  2   force =    -0.00000000    0.00110871    0.00159211
     atom    6 type  2   force =    -0.00000000   -0.00117803   -0.00132710
     atom    7 type  2   force =     0.00000000    0.00111194   -0.00160294
     atom    8 type  2   force =     0.00000000   -0.00118729    0.00131850
     atom    9 type  1   force =    -0.00000000   -0.00034042    0.00053620
     atom   10 type  1   force =     0.00000000    0.00034054   -0.00053677
     atom   11 type  1   force =     0.00000000   -0.00034191   -0.00053961
     atom   12 type  1   force =     0.00000000    0.00034182    0.00054046
     atom   13 type  2   force =     0.00000000    0.00118674    0.00132128
     atom   14 type  2   force =     0.00000000   -0.00118673   -0.00132133
     atom   15 type  2   force =     0.00000000    0.00118653   -0.00132342
     atom   16 type  2   force =    -0.00000000   -0.00118652    0.00132347
     atom   17 type  1   force =     0.00000000   -0.00038427    0.00033242
     atom   18 type  1   force =     0.00000000    0.00038482   -0.00054719
     atom   19 type  1   force =    -0.00000000   -0.00155333    0.00003654
     atom   20 type  1   force =    -0.00000000    0.00033936    0.00052663
     atom   21 type  2   force =    -0.00000000    0.00117805    0.00132706
     atom   22 type  2   force =    -0.00000000   -0.00110872   -0.00159213
     atom   23 type  2   force =     0.00000000    0.00118727   -0.00131845
     atom   24 type  2   force =     0.00000000   -0.00111196    0.00160295
     The Hubbard contrib.    to forces
     atom    1 type  1   force =     0.00000000    0.00000000    0.00000000
     atom    2 type  1   force =     0.00000000    0.00000000    0.00000000
     atom    3 type  1   force =     0.00000000    0.00000000    0.00000000
     atom    4 type  1   force =     0.00000000    0.00000000    0.00000000
     atom    5 type  2   force =     0.00000000    0.00000000    0.00000000
     atom    6 type  2   force =     0.00000000    0.00000000    0.00000000
     atom    7 type  2   force =     0.00000000    0.00000000    0.00000000
     atom    8 type  2   force =     0.00000000    0.00000000    0.00000000
     atom    9 type  1   force =     0.00000000    0.00000000    0.00000000
     atom   10 type  1   force =     0.00000000    0.00000000    0.00000000
     atom   11 type  1   force =     0.00000000    0.00000000    0.00000000
     atom   12 type  1   force =     0.00000000    0.00000000    0.00000000
     atom   13 type  2   force =     0.00000000    0.00000000    0.00000000
     atom   14 type  2   force =     0.00000000    0.00000000    0.00000000
     atom   15 type  2   force =     0.00000000    0.00000000    0.00000000
     atom   16 type  2   force =     0.00000000    0.00000000    0.00000000
     atom   17 type  1   force =     0.00000000    0.00000000    0.00000000
     atom   18 type  1   force =     0.00000000    0.00000000    0.00000000
     atom   19 type  1   force =     0.00000000    0.00000000    0.00000000
     atom   20 type  1   force =     0.00000000    0.00000000    0.00000000
     atom   21 type  2   force =     0.00000000    0.00000000    0.00000000
     atom   22 type  2   force =     0.00000000    0.00000000    0.00000000
     atom   23 type  2   force =     0.00000000    0.00000000    0.00000000
     atom   24 type  2   force =     0.00000000    0.00000000    0.00000000
     The SCF correction term to forces
     atom    1 type  1   force =     0.00000000    0.00000728    0.00000719
     atom    2 type  1   force =    -0.00000000    0.00000117    0.00005835
     atom    3 type  1   force =    -0.00000000    0.00001070   -0.00007784
     atom    4 type  1   force =    -0.00000000   -0.00000013    0.00011239
     atom    5 type  2   force =     0.00000000   -0.00000214    0.00003219
     atom    6 type  2   force =    -0.00000000    0.00000106   -0.00000908
     atom    7 type  2   force =     0.00000000    0.00000179    0.00002016
     atom    8 type  2   force =    -0.00000000    0.00000043   -0.00002763
     atom    9 type  1   force =    -0.00000000    0.00000625    0.00008411
     atom   10 type  1   force =    -0.00000000   -0.00000599   -0.00000655
     atom   11 type  1   force =     0.00000000    0.00000517   -0.00004342
     atom   12 type  1   force =     0.00000000   -0.00000344   -0.00000933
     atom   13 type  2   force =     0.00000000   -0.00000091    0.00000310
     atom   14 type  2   force =     0.00000000    0.00000015    0.00002307
     atom   15 type  2   force =     0.00000000   -0.00000083   -0.00000691
     atom   16 type  2   force =     0.00000000    0.00000016   -0.00000403
     atom   17 type  1   force =     0.00000000    0.00000634   -0.00000716
     atom   18 type  1   force =     0.00000000   -0.00000801   -0.00001227
     atom   19 type  1   force =     0.00000000   -0.00000185   -0.00008934
     atom   20 type  1   force =     0.00000000   -0.00000450   -0.00001475
     atom   21 type  2   force =    -0.00000000   -0.00000045   -0.00000226
     atom   22 type  2   force =    -0.00000000    0.00000158   -0.00001022
     atom   23 type  2   force =    -0.00000000   -0.00000109   -0.00000993
     atom   24 type  2   force =     0.00000000   -0.00000111   -0.00000482

     Total force =     0.040004     Total SCF correction =     0.000208


     Computing stress (Cartesian axis) and pressure


     negative rho (up, down):  1.100E-03 0.000E+00
          total   stress  (Ry/bohr**3)                   (kbar)     P=        7.53
   0.00006736   0.00000000   0.00000000            9.91        0.00        0.00
   0.00000000   0.00004165   0.00000063            0.00        6.13        0.09
   0.00000000   0.00000063   0.00004464            0.00        0.09        6.57

     kinetic stress (kbar)  12601.23      0.00      0.00
                                0.00  12647.72      0.62
                                0.00      0.62  12652.19

     local   stress (kbar)-410984.49     -0.00     -0.00
                               -0.00-408172.34    109.34
                               -0.00    109.34 407454.13

     nonloc. stress (kbar)  -2127.04      0.00      0.00
                                0.00  -2134.81     -0.32
                                0.00     -0.32  -2115.20

     hartree stress (kbar) 208497.95      0.00      0.00
                                0.00 207382.55    -46.57
                                0.00    -46.57-199028.92

     exc-cor stress (kbar)   5964.33     -0.00      0.00
                               -0.00   5963.35      0.02
                                0.00      0.02   5963.76

     corecor stress (kbar)  -9003.77     -0.00     -0.00
                               -0.00  -9003.63      0.02
                               -0.00      0.02  -9004.41

     ewald   stress (kbar) 195061.70      0.00      0.00
                                0.00 193323.29    -63.02
                                0.00    -63.02-215914.98

     hubbard stress (kbar)      0.00      0.00      0.00
                                0.00      0.00      0.00
                                0.00      0.00      0.00

     DFT-D   stress (kbar)      0.00      0.00      0.00
                                0.00      0.00      0.00
                                0.00      0.00      0.00

     XDM     stress (kbar)      0.00      0.00      0.00
                                0.00      0.00      0.00
                                0.00      0.00      0.00

     dft-nl  stress (kbar)      0.00      0.00      0.00
                                0.00      0.00      0.00
                                0.00      0.00      0.00

     TS-vdW  stress (kbar)      0.00      0.00      0.00
                                0.00      0.00      0.00
                                0.00      0.00      0.00


                                0.00      0.00      0.00
                                0.00      0.00      0.00


                                0.00      0.00      0.00


     Writing all to output data dir ./tri/sns.save/

     init_run     :     41.69s CPU     24.83s WALL (       1 calls)
     electrons    :   2587.62s CPU   1481.99s WALL (       1 calls)
     forces       :     24.73s CPU     13.59s WALL (       1 calls)
     stress       :    204.78s CPU    113.55s WALL (       1 calls)

     Called by init_run:
     wfcinit      :     35.10s CPU     20.44s WALL (       1 calls)
     wfcinit:atom :      0.33s CPU      0.19s WALL (      16 calls)
     wfcinit:wfcr :     33.34s CPU     19.26s WALL (      16 calls)
     potinit      :      2.09s CPU      1.24s WALL (       1 calls)
     hinit0       :      2.66s CPU      1.94s WALL (       1 calls)

     Called by electrons:
     c_bands      :   2309.11s CPU   1312.68s WALL (      16 calls)
     sum_band     :    244.11s CPU    147.39s WALL (      16 calls)
     v_of_rho     :      4.13s CPU      2.64s WALL (      16 calls)
     v_h          :      0.39s CPU      0.23s WALL (      16 calls)
     v_xc         :      4.20s CPU      2.69s WALL (      18 calls)
     newd         :     24.36s CPU     15.58s WALL (      16 calls)
     PAW_pot      :      6.56s CPU      3.88s WALL (      16 calls)
     mix_rho      :      0.82s CPU      0.62s WALL (      16 calls)

     Called by c_bands:
     init_us_2    :     14.74s CPU      7.97s WALL (     560 calls)
     init_us_2:cp :     14.73s CPU      7.97s WALL (     560 calls)
     cegterg      :   2264.66s CPU   1288.81s WALL (     256 calls)

     Called by sum_band:
     sum_band:wei :      0.00s CPU      0.00s WALL (      16 calls)
     sum_band:loo :    207.52s CPU    120.14s WALL (      16 calls)
     sum_band:buf :      3.89s CPU      2.15s WALL (     256 calls)
     sum_band:ini :      5.33s CPU      2.88s WALL (     256 calls)
     sum_band:cal :     62.15s CPU     32.95s WALL (     256 calls)
     sum_band:bec :      5.18s CPU      2.81s WALL (     256 calls)
     addusdens    :     31.87s CPU     23.13s WALL (      16 calls)
     addusd:skk   :      0.49s CPU      0.28s WALL (      32 calls)
     addusd:dgemm :      9.33s CPU     10.19s WALL (      32 calls)
     addusd:qvan2 :     21.26s CPU     11.82s WALL (      32 calls)

     Called by *egterg:
     cdiaghg      :    227.55s CPU    120.18s WALL (    1540 calls)
     cegterg:over :    296.76s CPU    165.73s WALL (    1300 calls)
     cegterg:upda :    169.15s CPU     95.58s WALL (    1300 calls)
     cegterg:last :    271.08s CPU    145.22s WALL (     460 calls)
     cdiaghg:chol :     13.98s CPU      7.73s WALL (    1540 calls)
     cdiaghg:inve :      3.36s CPU      2.29s WALL (    1540 calls)
     cdiaghg:para :     51.06s CPU     27.61s WALL (    3080 calls)
     h_psi        :   1034.13s CPU    613.26s WALL (    1572 calls)
     s_psi        :    125.06s CPU     68.04s WALL (    1572 calls)
     g_psi        :     10.68s CPU      5.71s WALL (    1300 calls)

     Called by h_psi:
     h_psi:calbec :    182.64s CPU     99.63s WALL (    1572 calls)
     vloc_psi     :    704.12s CPU    430.80s WALL (    1572 calls)
     add_vuspsi   :    129.08s CPU     70.63s WALL (    1572 calls)

     General routines
     calbec       :    275.77s CPU    153.58s WALL (    1908 calls)
     fft          :      3.75s CPU      2.60s WALL (     232 calls)
     ffts         :      1.47s CPU      0.93s WALL (      32 calls)
     fftw         :    740.56s CPU    454.76s WALL (  435324 calls)
     interpolate  :      0.57s CPU      0.45s WALL (      16 calls)

     Parallel routines

     PAW routines
     PAW_pot      :      6.56s CPU      3.88s WALL (      16 calls)
     PAW_symme    :      0.07s CPU      0.04s WALL (      32 calls)

     PWSCF        :  47m39.66s CPU  27m16.63s WALL


   This run was terminated on:   4:21:51   3Jul2025            

=------------------------------------------------------------------------------=
   JOB DONE.
=------------------------------------------------------------------------------=
