
     Program PWSCF v.7.0 starts on  3Jul2025 at  5: 6:48 

     This program is part of the open-source Quantum ESPRESSO suite
     for quantum simulation of materials; please cite
         "P. Giannozzi et al., J. Phys.:Condens. Matter 21 395502 (2009);
         "P. Giannozzi et al., J. Phys.:Condens. Matter 29 465901 (2017);
         "P. Giannozzi et al., J. Chem. Phys. 152 154105 (2020);
          URL http://www.quantum-espresso.org", 
     in publications or presentations arising from this work. More details at
     http://www.quantum-espresso.org/quote

     Parallel version (MPI & OpenMP), running on      16 processor cores
     Number of MPI processes:                 8
     Threads/MPI process:                     2

     MPI processes distributed on     1 nodes
     R & G space division:  proc/nbgrp/npool/nimage =       8
     933 MiB available memory on the printing compute node when the environment starts

     Waiting for input...
     Reading input from standard input

     Current dimensions of program PWSCF are:
     Max number of different atomic species (ntypx) = 10
     Max number of k-points (npk) =  40000
     Max angular momentum in pseudopotentials (lmaxx) =  4

     Atomic positions and unit cell read from directory:
     ./tri/sns.save/
     Atomic positions from file used, from input discarded

     file Sn.pbe-dn-kjpaw_psl.1.0.0.UPF: wavefunction(s)  5S 5P 4D renormalized
     file S.pbe-n-kjpaw_psl.1.0.0.UPF: wavefunction(s)  3S 3P renormalized

     IMPORTANT: XC functional enforced from input :
     Exchange-correlation= PBE
                           (   1   4   3   4   0   0   0)
     Any further DFT definition will be discarded
     Please, verify this is what you really want

     Message from routine setup:
     using ibrav=0 with symmetry is DISCOURAGED, use correct ibrav instead

     Subspace diagonalization in iterative solution of the eigenvalue problem:
     one sub-group per band group will be used
     scalapack distributed-memory algorithm (size of sub-group:  2*  2 procs)


     Parallelization info
     --------------------
     sticks:   dense  smooth     PW     G-vecs:    dense   smooth      PW
     Min         255     126     36               100509    35512    5560
     Max         256     127     37               100540    35553    5579
     Sum        2045    1015    295               804151   284257   44599

     Using Slab Decomposition



     bravais-lattice index     =            0
     lattice parameter (alat)  =       7.4774  a.u.
     unit-cell volume          =    5952.0700 (a.u.)^3
     number of atoms/cell      =           24
     number of atomic types    =            2
     number of electrons       =       240.00
     number of Kohn-Sham states=          300
     kinetic-energy cutoff     =      50.0000  Ry
     charge density cutoff     =     400.0000  Ry
     Exchange-correlation= PBE
                           (   1   4   3   4   0   0   0)

     celldm(1)=   7.477373  celldm(2)=   0.000000  celldm(3)=   0.000000
     celldm(4)=   0.000000  celldm(5)=   0.000000  celldm(6)=   0.000000

     crystal axes: (cart. coord. in units of alat)
               a(1) = (   1.000000   0.000000   0.000000 )  
               a(2) = (   0.000000   1.145559   0.000000 )  
               a(3) = (   0.000000   0.000000  12.428065 )  

     reciprocal axes: (cart. coord. in units 2 pi/alat)
               b(1) = (  1.000000  0.000000  0.000000 )  
               b(2) = (  0.000000  0.872936  0.000000 )  
               b(3) = (  0.000000  0.000000  0.080463 )  


     PseudoPot. # 1 for Sn read from file:
     ./Sn.pbe-dn-kjpaw_psl.1.0.0.UPF
     MD5 check sum: 2f92149585f6306fdaeeb1c6304ac66c
     Pseudo is Projector augmented-wave + core cor, Zval = 14.0
     Generated using &quot;atomic&quot; code by A. Dal Corso  v.6.3
     Shape of augmentation charge: PSQ
     Using radial grid of 1243 points,  6 beta functions with: 
                l(1) =   0
                l(2) =   0
                l(3) =   1
                l(4) =   1
                l(5) =   2
                l(6) =   2
     Q(r) pseudized with 0 coefficients 


     PseudoPot. # 2 for S  read from file:
     ./S.pbe-n-kjpaw_psl.1.0.0.UPF
     MD5 check sum: 3ec093b2a8bef16a6eea98fa2dbb72c3
     Pseudo is Projector augmented-wave + core cor, Zval =  6.0
     Generated using &quot;atomic&quot; code by A. Dal Corso  v.6.3
     Shape of augmentation charge: PSQ
     Using radial grid of 1151 points,  6 beta functions with: 
                l(1) =   0
                l(2) =   0
                l(3) =   1
                l(4) =   1
                l(5) =   2
                l(6) =   2
     Q(r) pseudized with 0 coefficients 


     atomic species   valence    mass     pseudopotential
        Sn            14.00   118.71000     Sn( 1.00)
        S              6.00    32.06500     S ( 1.00)

      2 Sym. Ops. (no inversion) found ( 1 have fractional translation)


                                    s                        frac. trans.

      isym =  1     identity                                     

 cryst.   s( 1) = (     1          0          0      )
                  (     0          1          0      )
                  (     0          0          1      )

 cart.    s( 1) = (  1.0000000  0.0000000  0.0000000 )
                  (  0.0000000  1.0000000  0.0000000 )
                  (  0.0000000  0.0000000  1.0000000 )


      isym =  2     inv. 180 deg rotation - cart. axis [1,0,0]   

 cryst.   s( 2) = (    -1          0          0      )    f =(  0.5000000 )
                  (     0          1          0      )       (  0.0000000 )
                  (     0          0          1      )       (  0.0000000 )

 cart.    s( 2) = ( -1.0000000  0.0000000  0.0000000 )    f =(  0.5000000 )
                  (  0.0000000  1.0000000  0.0000000 )       (  0.0000000 )
                  (  0.0000000  0.0000000  1.0000000 )       (  0.0000000 )


   Cartesian axes

     site n.     atom                  positions (alat units)
         1           Sn  tau(   1) = (   0.2500000   0.4233297   1.7897172  )
         2           Sn  tau(   2) = (   0.7500000   0.7222292   1.0893416  )
         3           Sn  tau(   3) = (   0.7500000   0.9961091   2.5288708  )
         4           Sn  tau(   4) = (   0.2500000   0.1494498   0.3501878  )
         5           S   tau(   5) = (   0.2500000   0.0121393   1.0004656  )
         6           S   tau(   6) = (   0.7500000   1.1334196   1.8785932  )
         7           S   tau(   7) = (   0.7500000   0.5849187   0.4390638  )
         8           S   tau(   8) = (   0.2500000   0.5606402   2.4399950  )
         9           Sn  tau(   9) = (   0.2500000   0.4233297   4.6687759  )
        10           Sn  tau(  10) = (   0.7500000   0.7222292   3.9684002  )
        11           Sn  tau(  11) = (   0.7500000   0.9961091   5.4079296  )
        12           Sn  tau(  12) = (   0.2500000   0.1494498   3.2292465  )
        13           S   tau(  13) = (   0.2500000   0.0121393   3.8795243  )
        14           S   tau(  14) = (   0.7500000   1.1334196   4.7576519  )
        15           S   tau(  15) = (   0.7500000   0.5849187   3.3181225  )
        16           S   tau(  16) = (   0.2500000   0.5606402   5.3190537  )
        17           Sn  tau(  17) = (   0.2500000   0.4233297   7.5478346  )
        18           Sn  tau(  18) = (   0.7500000   0.7222292   6.8474590  )
        19           Sn  tau(  19) = (   0.7500000   0.9961091   8.2869883  )
        20           Sn  tau(  20) = (   0.2500000   0.1494498   6.1083053  )
        21           S   tau(  21) = (   0.2500000   0.0121393   6.7585831  )
        22           S   tau(  22) = (   0.7500000   1.1334196   7.6367105  )
        23           S   tau(  23) = (   0.7500000   0.5849187   6.1971813  )
        24           S   tau(  24) = (   0.2500000   0.5606402   8.1981124  )

   Crystallographic axes

     site n.     atom                  positions (cryst. coord.)
         1           Sn  tau(   1) = (  0.2500000  0.3695398  0.1440061  )
         2           Sn  tau(   2) = (  0.7500000  0.6304602  0.0876517  )
         3           Sn  tau(   3) = (  0.7500000  0.8695398  0.2034807  )
         4           Sn  tau(   4) = (  0.2500000  0.1304602  0.0281772  )
         5           S   tau(   5) = (  0.2500000  0.0105968  0.0805005  )
         6           S   tau(   6) = (  0.7500000  0.9894032  0.1511573  )
         7           S   tau(   7) = (  0.7500000  0.5105968  0.0353284  )
         8           S   tau(   8) = (  0.2500000  0.4894032  0.1963294  )
         9           Sn  tau(   9) = (  0.2500000  0.3695398  0.3756639  )
        10           Sn  tau(  10) = (  0.7500000  0.6304602  0.3193096  )
        11           Sn  tau(  11) = (  0.7500000  0.8695398  0.4351385  )
        12           Sn  tau(  12) = (  0.2500000  0.1304602  0.2598350  )
        13           S   tau(  13) = (  0.2500000  0.0105968  0.3121583  )
        14           S   tau(  14) = (  0.7500000  0.9894032  0.3828152  )
        15           S   tau(  15) = (  0.7500000  0.5105968  0.2669862  )
        16           S   tau(  16) = (  0.2500000  0.4894032  0.4279873  )
        17           Sn  tau(  17) = (  0.2500000  0.3695398  0.6073218  )
        18           Sn  tau(  18) = (  0.7500000  0.6304602  0.5509674  )
        19           Sn  tau(  19) = (  0.7500000  0.8695398  0.6667963  )
        20           Sn  tau(  20) = (  0.2500000  0.1304602  0.4914929  )
        21           S   tau(  21) = (  0.2500000  0.0105968  0.5438162  )
        22           S   tau(  22) = (  0.7500000  0.9894032  0.6144730  )
        23           S   tau(  23) = (  0.7500000  0.5105968  0.4986441  )
        24           S   tau(  24) = (  0.2500000  0.4894032  0.6596451  )

     number of k points=    61
                       cart. coord. in units 2pi/alat
        k(    1) = (   0.0000000   0.0000000   0.0000000), wk =   0.0327869
        k(    2) = (   0.0250000   0.0000000   0.0000000), wk =   0.0327869
        k(    3) = (   0.0500000   0.0000000   0.0000000), wk =   0.0327869
        k(    4) = (   0.0750000   0.0000000   0.0000000), wk =   0.0327869
        k(    5) = (   0.1000000   0.0000000   0.0000000), wk =   0.0327869
        k(    6) = (   0.1250000   0.0000000   0.0000000), wk =   0.0327869
        k(    7) = (   0.1500000   0.0000000   0.0000000), wk =   0.0327869
        k(    8) = (   0.1750000   0.0000000   0.0000000), wk =   0.0327869
        k(    9) = (   0.2000000   0.0000000   0.0000000), wk =   0.0327869
        k(   10) = (   0.2250000   0.0000000   0.0000000), wk =   0.0327869
        k(   11) = (   0.2500000   0.0000000   0.0000000), wk =   0.0327869
        k(   12) = (   0.2750000   0.0000000   0.0000000), wk =   0.0327869
        k(   13) = (   0.3000000   0.0000000   0.0000000), wk =   0.0327869
        k(   14) = (   0.3250000   0.0000000   0.0000000), wk =   0.0327869
        k(   15) = (   0.3500000   0.0000000   0.0000000), wk =   0.0327869
        k(   16) = (   0.3750000   0.0000000   0.0000000), wk =   0.0327869
        k(   17) = (   0.4000000   0.0000000   0.0000000), wk =   0.0327869
        k(   18) = (   0.4250000   0.0000000   0.0000000), wk =   0.0327869
        k(   19) = (   0.4500000   0.0000000   0.0000000), wk =   0.0327869
        k(   20) = (   0.4750000   0.0000000   0.0000000), wk =   0.0327869
        k(   21) = (   0.5000000   0.0000000   0.0000000), wk =   0.0327869
        k(   22) = (   0.5000000   0.0218234   0.0000000), wk =   0.0327869
        k(   23) = (   0.5000000   0.0436468   0.0000000), wk =   0.0327869
        k(   24) = (   0.5000000   0.0654702   0.0000000), wk =   0.0327869
        k(   25) = (   0.5000000   0.0872936   0.0000000), wk =   0.0327869
        k(   26) = (   0.5000000   0.1091170   0.0000000), wk =   0.0327869
        k(   27) = (   0.5000000   0.1309405   0.0000000), wk =   0.0327869
        k(   28) = (   0.5000000   0.1527639   0.0000000), wk =   0.0327869
        k(   29) = (   0.5000000   0.1745873   0.0000000), wk =   0.0327869
        k(   30) = (   0.5000000   0.1964107   0.0000000), wk =   0.0327869
        k(   31) = (   0.5000000   0.2182341   0.0000000), wk =   0.0327869
        k(   32) = (   0.5000000   0.2400575   0.0000000), wk =   0.0327869
        k(   33) = (   0.5000000   0.2618809   0.0000000), wk =   0.0327869
        k(   34) = (   0.5000000   0.2837043   0.0000000), wk =   0.0327869
        k(   35) = (   0.5000000   0.3055277   0.0000000), wk =   0.0327869
        k(   36) = (   0.5000000   0.3273511   0.0000000), wk =   0.0327869
        k(   37) = (   0.5000000   0.3491745   0.0000000), wk =   0.0327869
        k(   38) = (   0.5000000   0.3709979   0.0000000), wk =   0.0327869
        k(   39) = (   0.5000000   0.3928214   0.0000000), wk =   0.0327869
        k(   40) = (   0.5000000   0.4146448   0.0000000), wk =   0.0327869
        k(   41) = (   0.5000000   0.4364682   0.0000000), wk =   0.0327869
        k(   42) = (   0.4750000   0.4146448   0.0000000), wk =   0.0327869
        k(   43) = (   0.4500000   0.3928214   0.0000000), wk =   0.0327869
        k(   44) = (   0.4250000   0.3709979   0.0000000), wk =   0.0327869
        k(   45) = (   0.4000000   0.3491745   0.0000000), wk =   0.0327869
        k(   46) = (   0.3750000   0.3273511   0.0000000), wk =   0.0327869
        k(   47) = (   0.3500000   0.3055277   0.0000000), wk =   0.0327869
        k(   48) = (   0.3250000   0.2837043   0.0000000), wk =   0.0327869
        k(   49) = (   0.3000000   0.2618809   0.0000000), wk =   0.0327869
        k(   50) = (   0.2750000   0.2400575   0.0000000), wk =   0.0327869
        k(   51) = (   0.2500000   0.2182341   0.0000000), wk =   0.0327869
        k(   52) = (   0.2250000   0.1964107   0.0000000), wk =   0.0327869
        k(   53) = (   0.2000000   0.1745873   0.0000000), wk =   0.0327869
        k(   54) = (   0.1750000   0.1527639   0.0000000), wk =   0.0327869
        k(   55) = (   0.1500000   0.1309405   0.0000000), wk =   0.0327869
        k(   56) = (   0.1250000   0.1091170   0.0000000), wk =   0.0327869
        k(   57) = (   0.1000000   0.0872936   0.0000000), wk =   0.0327869
        k(   58) = (   0.0750000   0.0654702   0.0000000), wk =   0.0327869
        k(   59) = (   0.0500000   0.0436468   0.0000000), wk =   0.0327869
        k(   60) = (   0.0250000   0.0218234   0.0000000), wk =   0.0327869
        k(   61) = (   0.0000000   0.0000000   0.0000000), wk =   0.0327869

                       cryst. coord.
        k(    1) = (   0.0000000   0.0000000   0.0000000), wk =   0.0327869
        k(    2) = (   0.0250000   0.0000000   0.0000000), wk =   0.0327869
        k(    3) = (   0.0500000   0.0000000   0.0000000), wk =   0.0327869
        k(    4) = (   0.0750000   0.0000000   0.0000000), wk =   0.0327869
        k(    5) = (   0.1000000   0.0000000   0.0000000), wk =   0.0327869
        k(    6) = (   0.1250000   0.0000000   0.0000000), wk =   0.0327869
        k(    7) = (   0.1500000   0.0000000   0.0000000), wk =   0.0327869
        k(    8) = (   0.1750000   0.0000000   0.0000000), wk =   0.0327869
        k(    9) = (   0.2000000   0.0000000   0.0000000), wk =   0.0327869
        k(   10) = (   0.2250000   0.0000000   0.0000000), wk =   0.0327869
        k(   11) = (   0.2500000   0.0000000   0.0000000), wk =   0.0327869
        k(   12) = (   0.2750000   0.0000000   0.0000000), wk =   0.0327869
        k(   13) = (   0.3000000   0.0000000   0.0000000), wk =   0.0327869
        k(   14) = (   0.3250000   0.0000000   0.0000000), wk =   0.0327869
        k(   15) = (   0.3500000   0.0000000   0.0000000), wk =   0.0327869
        k(   16) = (   0.3750000   0.0000000   0.0000000), wk =   0.0327869
        k(   17) = (   0.4000000   0.0000000   0.0000000), wk =   0.0327869
        k(   18) = (   0.4250000   0.0000000   0.0000000), wk =   0.0327869
        k(   19) = (   0.4500000   0.0000000   0.0000000), wk =   0.0327869
        k(   20) = (   0.4750000   0.0000000   0.0000000), wk =   0.0327869
        k(   21) = (   0.5000000   0.0000000   0.0000000), wk =   0.0327869
        k(   22) = (   0.5000000   0.0250000   0.0000000), wk =   0.0327869
        k(   23) = (   0.5000000   0.0500000   0.0000000), wk =   0.0327869
        k(   24) = (   0.5000000   0.0750000   0.0000000), wk =   0.0327869
        k(   25) = (   0.5000000   0.1000000   0.0000000), wk =   0.0327869
        k(   26) = (   0.5000000   0.1250000   0.0000000), wk =   0.0327869
        k(   27) = (   0.5000000   0.1500000   0.0000000), wk =   0.0327869
        k(   28) = (   0.5000000   0.1750000   0.0000000), wk =   0.0327869
        k(   29) = (   0.5000000   0.2000000   0.0000000), wk =   0.0327869
        k(   30) = (   0.5000000   0.2250000   0.0000000), wk =   0.0327869
        k(   31) = (   0.5000000   0.2500000   0.0000000), wk =   0.0327869
        k(   32) = (   0.5000000   0.2750000   0.0000000), wk =   0.0327869
        k(   33) = (   0.5000000   0.3000000   0.0000000), wk =   0.0327869
        k(   34) = (   0.5000000   0.3250000   0.0000000), wk =   0.0327869
        k(   35) = (   0.5000000   0.3500000   0.0000000), wk =   0.0327869
        k(   36) = (   0.5000000   0.3750000   0.0000000), wk =   0.0327869
        k(   37) = (   0.5000000   0.4000000   0.0000000), wk =   0.0327869
        k(   38) = (   0.5000000   0.4250000   0.0000000), wk =   0.0327869
        k(   39) = (   0.5000000   0.4500000   0.0000000), wk =   0.0327869
        k(   40) = (   0.5000000   0.4750000   0.0000000), wk =   0.0327869
        k(   41) = (   0.5000000   0.5000000   0.0000000), wk =   0.0327869
        k(   42) = (   0.4750000   0.4750000   0.0000000), wk =   0.0327869
        k(   43) = (   0.4500000   0.4500000   0.0000000), wk =   0.0327869
        k(   44) = (   0.4250000   0.4250000   0.0000000), wk =   0.0327869
        k(   45) = (   0.4000000   0.4000000   0.0000000), wk =   0.0327869
        k(   46) = (   0.3750000   0.3750000   0.0000000), wk =   0.0327869
        k(   47) = (   0.3500000   0.3500000   0.0000000), wk =   0.0327869
        k(   48) = (   0.3250000   0.3250000   0.0000000), wk =   0.0327869
        k(   49) = (   0.3000000   0.3000000   0.0000000), wk =   0.0327869
        k(   50) = (   0.2750000   0.2750000   0.0000000), wk =   0.0327869
        k(   51) = (   0.2500000   0.2500000   0.0000000), wk =   0.0327869
        k(   52) = (   0.2250000   0.2250000   0.0000000), wk =   0.0327869
        k(   53) = (   0.2000000   0.2000000   0.0000000), wk =   0.0327869
        k(   54) = (   0.1750000   0.1750000   0.0000000), wk =   0.0327869
        k(   55) = (   0.1500000   0.1500000   0.0000000), wk =   0.0327869
        k(   56) = (   0.1250000   0.1250000   0.0000000), wk =   0.0327869
        k(   57) = (   0.1000000   0.1000000   0.0000000), wk =   0.0327869
        k(   58) = (   0.0750000   0.0750000   0.0000000), wk =   0.0327869
        k(   59) = (   0.0500000   0.0500000   0.0000000), wk =   0.0327869
        k(   60) = (   0.0250000   0.0250000   0.0000000), wk =   0.0327869
        k(   61) = (   0.0000000   0.0000000   0.0000000), wk =   0.0327869

     Dense  grid:   804151 G-vectors     FFT dimensions: (  48,  60, 600)

     Smooth grid:   284257 G-vectors     FFT dimensions: (  36,  40, 432)

     Dynamical RAM for                 wfc:      20.33 MB

     Dynamical RAM for     wfc (w. buffer):      20.33 MB

     Dynamical RAM for           str. fact:       3.07 MB

     Dynamical RAM for           local pot:       0.00 MB

     Dynamical RAM for          nlocal pot:      29.28 MB

     Dynamical RAM for                qrad:       3.21 MB

     Dynamical RAM for          rho,v,vnew:       9.55 MB

     Dynamical RAM for           G-vectors:       6.02 MB

     Dynamical RAM for          h,s,v(r/c):       4.12 MB

     Dynamical RAM for          <psi|beta>:       1.98 MB

     Dynamical RAM for                 psi:      40.67 MB

     Dynamical RAM for                hpsi:      40.67 MB

     Dynamical RAM for                spsi:      40.67 MB

     Dynamical RAM for      wfcinit/wfcrot:      42.73 MB

     Dynamical RAM for           addusdens:     303.69 MB

     Estimated static dynamical RAM per process >      84.30 MB

     Estimated max dynamical RAM per process >     387.99 MB

     Estimated total dynamical RAM >       3.03 GB

     The potential is recalculated from file :
     ./tri/sns.save/charge-density


     negative rho (up, down):  1.100E-03 0.000E+00
     Starting wfcs are  156 randomized atomic wfcs +  144 random wfcs
     Checking if some PAW data can be deallocated... 
       PAW data deallocated on    2 nodes for type:  1
       PAW data deallocated on    2 nodes for type:  2

     Band Structure Calculation
     Davidson diagonalization with overlap

     Computing kpt #:     1  of    61
     c_bands:  1 eigenvalues not converged
     total cpu time spent up to now is       64.9 secs

     Computing kpt #:     2  of    61
     total cpu time spent up to now is      124.8 secs

     Computing kpt #:     3  of    61
     total cpu time spent up to now is      174.8 secs

     Computing kpt #:     4  of    61
     total cpu time spent up to now is      228.1 secs

     Computing kpt #:     5  of    61
     total cpu time spent up to now is      283.5 secs

     Computing kpt #:     6  of    61
     c_bands:  1 eigenvalues not converged
     total cpu time spent up to now is      343.9 secs

     Computing kpt #:     7  of    61
     total cpu time spent up to now is      393.7 secs

     Computing kpt #:     8  of    61
     c_bands:  1 eigenvalues not converged
     total cpu time spent up to now is      454.3 secs

     Computing kpt #:     9  of    61
     total cpu time spent up to now is      507.9 secs

     Computing kpt #:    10  of    61
     total cpu time spent up to now is      566.7 secs

     Computing kpt #:    11  of    61
     total cpu time spent up to now is      618.5 secs

     Computing kpt #:    12  of    61
     total cpu time spent up to now is      669.5 secs

     Computing kpt #:    13  of    61
     total cpu time spent up to now is      717.6 secs

     Computing kpt #:    14  of    61
     total cpu time spent up to now is      765.5 secs

     Computing kpt #:    15  of    61
     total cpu time spent up to now is      816.8 secs

     Computing kpt #:    16  of    61
     total cpu time spent up to now is      869.0 secs

     Computing kpt #:    17  of    61
     total cpu time spent up to now is      924.0 secs

     Computing kpt #:    18  of    61
     total cpu time spent up to now is      976.4 secs

     Computing kpt #:    19  of    61
     total cpu time spent up to now is     1036.8 secs

     Computing kpt #:    20  of    61
     total cpu time spent up to now is     1089.7 secs

     Computing kpt #:    21  of    61
     total cpu time spent up to now is     1141.2 secs

     Computing kpt #:    22  of    61
     total cpu time spent up to now is     1193.1 secs

     Computing kpt #:    23  of    61
     total cpu time spent up to now is     1244.8 secs

     Computing kpt #:    24  of    61
     total cpu time spent up to now is     1296.4 secs

     Computing kpt #:    25  of    61
     total cpu time spent up to now is     1347.7 secs

     Computing kpt #:    26  of    61
     total cpu time spent up to now is     1399.1 secs

     Computing kpt #:    27  of    61
     total cpu time spent up to now is     1455.4 secs

     Computing kpt #:    28  of    61
     total cpu time spent up to now is     1515.1 secs

     Computing kpt #:    29  of    61
     total cpu time spent up to now is     1567.1 secs

     Computing kpt #:    30  of    61
     total cpu time spent up to now is     1617.9 secs

     Computing kpt #:    31  of    61
     total cpu time spent up to now is     1674.4 secs

     Computing kpt #:    32  of    61
     total cpu time spent up to now is     1726.4 secs

     Computing kpt #:    33  of    61
     total cpu time spent up to now is     1776.9 secs

     Computing kpt #:    34  of    61
     total cpu time spent up to now is     1830.9 secs

     Computing kpt #:    35  of    61
     total cpu time spent up to now is     1886.4 secs

     Computing kpt #:    36  of    61
     total cpu time spent up to now is     1950.5 secs

     Computing kpt #:    37  of    61
     total cpu time spent up to now is     2009.2 secs

     Computing kpt #:    38  of    61
     total cpu time spent up to now is     2088.1 secs

     Computing kpt #:    39  of    61
     total cpu time spent up to now is     2150.6 secs

     Computing kpt #:    40  of    61
     total cpu time spent up to now is     2223.3 secs

     Computing kpt #:    41  of    61
     total cpu time spent up to now is     2277.7 secs

     Computing kpt #:    42  of    61
     c_bands:  1 eigenvalues not converged
     total cpu time spent up to now is     2350.7 secs

     Computing kpt #:    43  of    61
     total cpu time spent up to now is     2429.2 secs

     Computing kpt #:    44  of    61
     total cpu time spent up to now is     2503.8 secs

     Computing kpt #:    45  of    61
     total cpu time spent up to now is     2579.6 secs

     Computing kpt #:    46  of    61
     c_bands:  1 eigenvalues not converged
     total cpu time spent up to now is     2662.1 secs

     Computing kpt #:    47  of    61
     c_bands:  1 eigenvalues not converged
     total cpu time spent up to now is     2746.0 secs

     Computing kpt #:    48  of    61
     total cpu time spent up to now is     2821.8 secs

     Computing kpt #:    49  of    61
     total cpu time spent up to now is     2881.6 secs

     Computing kpt #:    50  of    61
     total cpu time spent up to now is     2972.3 secs

     Computing kpt #:    51  of    61
     total cpu time spent up to now is     3167.1 secs

     Computing kpt #:    52  of    61
     total cpu time spent up to now is     3230.3 secs

     Computing kpt #:    53  of    61
     total cpu time spent up to now is     3305.7 secs

     Computing kpt #:    54  of    61
     total cpu time spent up to now is     3372.9 secs

     Computing kpt #:    55  of    61
     total cpu time spent up to now is     3437.6 secs

     Computing kpt #:    56  of    61
     total cpu time spent up to now is     3508.2 secs

     Computing kpt #:    57  of    61
     total cpu time spent up to now is     3590.2 secs

     Computing kpt #:    58  of    61
     total cpu time spent up to now is     3691.2 secs

     Computing kpt #:    59  of    61
     total cpu time spent up to now is     3765.7 secs

     Computing kpt #:    60  of    61
     total cpu time spent up to now is     3847.6 secs

     Computing kpt #:    61  of    61
     c_bands:  1 eigenvalues not converged
     total cpu time spent up to now is     3933.1 secs

     ethr =  4.17E-12,  avg # of iterations = 84.4

     total cpu time spent up to now is     3933.1 secs

     End of band structure calculation

          k = 0.0000 0.0000 0.0000 ( 35607 PWs)   bands (ev):

   -17.3432 -17.3394 -17.3350 -17.3327 -17.3229 -17.3202 -17.3179 -17.3175
   -17.3121 -17.3117 -17.3115 -17.3107 -17.3083 -17.3074 -17.3055 -17.3043
   -17.3016 -17.3013 -17.2963 -17.2962 -17.2930 -17.2926 -17.2889 -17.2888
   -17.2870 -17.2868 -17.2833 -17.2799 -17.2798 -17.2796 -17.2764 -17.2762
   -17.2748 -17.2714 -17.2712 -17.2662 -17.2661 -17.2660 -17.2657 -17.2548
   -17.2527 -17.2510 -17.2508 -17.2464 -17.2462 -17.2429 -17.2413 -17.2407
   -17.2371 -17.2371 -17.2369 -17.2344 -17.2297 -17.2296 -17.2256 -17.2255
   -17.2178 -17.2175 -17.2143 -17.2142  -9.7401  -9.7015  -9.6478  -9.5872
    -9.5335  -9.5090  -8.4953  -8.4230  -8.3359  -8.2540  -8.1922  -8.1619
    -3.2729  -3.1803  -3.0355  -2.8485  -2.6474  -2.4972  -1.3181  -1.0826
    -0.8860  -0.7754  -0.7166  -0.6946  -0.6941  -0.6103  -0.4283  -0.1684
     0.0919   0.3793   0.4455   0.6812   0.7171   0.7247   0.7532   0.7862
     0.8313   0.8574   0.8929   0.9229   0.9247   0.9586   1.7722   1.8156
     1.8171   1.8479   1.8867   1.9364   2.0185   2.0259   2.0809   2.1136
     2.3164   2.6735   3.1289   3.2507   3.3780   3.4953   3.5784   3.6027
     5.1142   5.3944   5.8733   6.3395   6.5076   6.5406   6.5920   6.6021
     6.6760   6.7091   6.7494   6.9729   6.9818   7.1558   7.3052   7.5378
     7.7023   7.7395   7.7924   7.8009   7.9556   7.9576   8.1608   8.1815
     8.4028   8.4320   8.6290   8.7996   8.9179   8.9640   9.1059   9.1682
     9.3291   9.3296   9.3777   9.6416   9.7993   9.8660   9.9702  10.0121
    10.0329  10.1305  10.2009  10.4365  10.6548  10.6997  10.9913  11.1172
    11.1809  11.2129  11.4046  11.4420  11.4756  11.5558  11.6969  11.7267
    11.9052  11.9965  12.0385  12.0924  12.1480  12.2994  12.3224  12.3797
    12.5424  12.5678  12.6288  12.6673  12.6844  12.6993  12.8340  12.8408
    12.9809  13.0328  13.0608  13.1361  13.1448  13.1751  13.7011  13.9195
    13.9762  14.0123  14.1609  14.2305  14.4192  14.4985  14.5010  14.5494
    14.5794  14.5884  14.6792  14.6982  14.7682  14.8020  14.8521  14.9727
    14.9843  15.0486  15.1612  15.2451  15.3452  15.4791  15.5917  15.6578
    15.7433  15.9601  15.9687  16.0638  16.3408  16.3820  16.4330  16.4536
    16.5487  16.5883  16.6883  16.7957  16.8044  16.9139  16.9273  16.9959
    17.0888  17.2125  17.2175  17.4115  17.4749  17.5073  17.5997  17.6872
    17.6936  17.7308  17.8886  17.9202  17.9920  18.0248  18.0646  18.0719
    18.1805  18.3924  18.4564  18.4686  18.6864  18.7217  18.7401  18.7894
    18.8888  19.0326  19.1595  19.2242  19.4100  19.4449  19.4638  19.5893
    19.6671  19.7451  19.7784  19.8658  20.0411  20.1928  20.2487  20.4472
    20.4834  20.4842  20.5525  20.6460  20.7580  20.7836  20.8300  20.9868
    21.0661  21.0915  21.1762  21.2923  21.4172  21.5497  21.5758  21.5803
    21.6690  21.6961  21.7851  21.9220

          k = 0.0250 0.0000 0.0000 ( 35593 PWs)   bands (ev):

   -17.3430 -17.3392 -17.3348 -17.3325 -17.3227 -17.3200 -17.3177 -17.3173
   -17.3122 -17.3116 -17.3114 -17.3108 -17.3084 -17.3075 -17.3056 -17.3044
   -17.3017 -17.3014 -17.2962 -17.2960 -17.2930 -17.2926 -17.2889 -17.2887
   -17.2871 -17.2869 -17.2834 -17.2800 -17.2799 -17.2797 -17.2769 -17.2757
   -17.2747 -17.2714 -17.2712 -17.2662 -17.2660 -17.2660 -17.2657 -17.2549
   -17.2527 -17.2510 -17.2507 -17.2464 -17.2462 -17.2429 -17.2413 -17.2407
   -17.2372 -17.2370 -17.2368 -17.2344 -17.2297 -17.2297 -17.2256 -17.2254
   -17.2179 -17.2176 -17.2142 -17.2141  -9.7362  -9.6976  -9.6440  -9.5834
    -9.5298  -9.5053  -8.4934  -8.4212  -8.3344  -8.2528  -8.1912  -8.1610
    -3.2764  -3.1839  -3.0394  -2.8529  -2.6526  -2.5031  -1.3196  -1.0879
    -0.8968  -0.7898  -0.7299  -0.7116  -0.7003  -0.6116  -0.4260  -0.1647
     0.0960   0.3830   0.4493   0.6474   0.7029   0.7400   0.7625   0.7714
     0.8322   0.8551   0.9120   0.9185   0.9394   0.9519   1.7717   1.8168
     1.8180   1.8426   1.8882   1.9238   2.0188   2.0402   2.0805   2.1084
     2.3287   2.6847   3.1300   3.2533   3.3802   3.4962   3.5777   3.6012
     5.1192   5.3991   5.8776   6.3440   6.5219   6.5570   6.6080   6.6176
     6.6913   6.7239   6.7600   6.9822   6.9887   7.1335   7.2851   7.5200
     7.6791   7.7449   7.7658   7.7964   7.9239   7.9627   8.1080   8.1823
     8.3556   8.4545   8.5816   8.8205   8.9287   8.9783   9.0871   9.1875
     9.3432   9.3490   9.3656   9.6147   9.8034   9.8336   9.9758   9.9960
    10.0304  10.1073  10.2024  10.4345  10.6491  10.7005  10.9729  11.0756
    11.1495  11.1671  11.3427  11.3794  11.4046  11.5143  11.6721  11.6976
    11.9193  12.0078  12.0696  12.0758  12.1607  12.2589  12.2996  12.4572
    12.5564  12.5845  12.6365  12.7081  12.7336  12.7386  12.8320  12.8331
    13.0365  13.0418  13.1274  13.1674  13.1936  13.2163  13.7263  13.9381
    13.9766  14.0384  14.1763  14.2592  14.4267  14.4810  14.4943  14.5522
    14.5943  14.6732  14.7144  14.7181  14.8237  14.8255  14.8709  14.9780
    15.0132  15.0862  15.1734  15.2688  15.3119  15.4866  15.6072  15.6544
    15.8098  15.9229  15.9454  16.1163  16.2807  16.3453  16.3939  16.4311
    16.5470  16.5616  16.6329  16.7643  16.8046  16.8853  16.9954  17.0460
    17.1053  17.1825  17.2454  17.2704  17.4204  17.4857  17.5541  17.6833
    17.6920  17.7402  17.7715  17.8289  17.9291  18.1308  18.2523  18.2897
    18.3242  18.3709  18.4382  18.4687  18.5322  18.6355  18.7196  18.8432
    18.9610  19.1415  19.1745  19.2415  19.3471  19.4590  19.5909  19.5975
    19.6280  19.7205  19.7990  19.8414  19.9733  20.3557  20.3664  20.4311
    20.4942  20.5059  20.5712  20.6550  20.6603  20.7371  20.8555  20.9743
    20.9841  21.1102  21.1268  21.2761  21.4925  21.5311  21.5861  21.6347
    21.6907  21.7161  21.7565  21.9254

          k = 0.0500 0.0000 0.0000 ( 35599 PWs)   bands (ev):

   -17.3425 -17.3387 -17.3343 -17.3321 -17.3222 -17.3195 -17.3172 -17.3168
   -17.3125 -17.3112 -17.3111 -17.3110 -17.3087 -17.3078 -17.3060 -17.3047
   -17.3020 -17.3017 -17.2957 -17.2956 -17.2928 -17.2924 -17.2889 -17.2887
   -17.2873 -17.2871 -17.2835 -17.2803 -17.2802 -17.2800 -17.2776 -17.2752
   -17.2746 -17.2715 -17.2713 -17.2663 -17.2660 -17.2658 -17.2656 -17.2550
   -17.2527 -17.2510 -17.2506 -17.2465 -17.2462 -17.2431 -17.2412 -17.2408
   -17.2373 -17.2371 -17.2367 -17.2343 -17.2299 -17.2299 -17.2254 -17.2252
   -17.2182 -17.2180 -17.2140 -17.2139  -9.7244  -9.6859  -9.6325  -9.5721
    -9.5187  -9.4944  -8.4877  -8.4160  -8.3298  -8.2490  -8.1880  -8.1583
    -3.2868  -3.1947  -3.0510  -2.8659  -2.6680  -2.5210  -1.3249  -1.1050
    -0.9297  -0.8329  -0.7756  -0.7632  -0.7105  -0.6139  -0.4185  -0.1533
     0.1084   0.3939   0.4606   0.5992   0.6596   0.7286   0.7554   0.7996
     0.8015   0.8913   0.9078   0.9311   0.9428   0.9705   1.7708   1.8194
     1.8198   1.8308   1.8904   1.9016   2.0212   2.0512   2.0942   2.0979
     2.3630   2.7167   3.1332   3.2610   3.3865   3.4983   3.5751   3.5963
     5.1342   5.4132   5.8900   6.3562   6.5612   6.6042   6.6528   6.6613
     6.7338   6.7592   6.7982   7.0013   7.0082   7.0698   7.2199   7.4579
     7.6242   7.6989   7.7608   7.7749   7.8535   7.9696   8.0092   8.1594
     8.2660   8.4341   8.5224   8.8678   8.9014   9.0062   9.0747   9.2058
     9.3210   9.3965   9.4109   9.5439   9.7579   9.8107   9.9392   9.9743
    10.0434  10.0453  10.2015  10.4233  10.6270  10.6995  10.9141  10.9572
    11.0445  11.0595  11.2006  11.2312  11.2439  11.4136  11.5927  11.6253
    11.9128  11.9710  12.1379  12.1412  12.1647  12.2321  12.2707  12.4661
    12.6396  12.6813  12.7069  12.7736  12.8230  12.8292  12.8539  12.8713
    13.0571  13.1975  13.2413  13.2804  13.3158  13.3280  13.8028  13.9964
    13.9966  14.1169  14.2209  14.3465  14.4524  14.5003  14.5017  14.5757
    14.6133  14.7517  14.8313  14.8323  14.8734  14.9069  14.9475  15.0324
    15.0962  15.1527  15.2334  15.2743  15.3552  15.5145  15.6431  15.6578
    15.7984  15.9029  15.9651  16.0155  16.2762  16.3362  16.3828  16.4273
    16.4402  16.4903  16.6094  16.6833  16.7700  16.8545  16.9078  16.9683
    17.0693  17.1232  17.1942  17.3270  17.3736  17.3953  17.5670  17.5771
    17.6550  17.6616  17.8102  17.8487  18.0550  18.2372  18.2656  18.3169
    18.3268  18.4173  18.4752  18.5109  18.6538  18.7232  18.7328  18.9148
    18.9834  19.2038  19.2256  19.2980  19.3110  19.3370  19.6027  19.6118
    19.6968  19.8443  19.9425  19.9693  20.1293  20.2293  20.3038  20.3986
    20.5118  20.6062  20.6198  20.6242  20.7135  20.7860  20.8517  20.8843
    21.0344  21.0873  21.1470  21.2235  21.3736  21.5240  21.6472  21.6722
    21.7044  21.8012  21.8290  21.9079

          k = 0.0750 0.0000 0.0000 ( 35611 PWs)   bands (ev):

   -17.3415 -17.3378 -17.3335 -17.3315 -17.3213 -17.3187 -17.3164 -17.3161
   -17.3130 -17.3117 -17.3105 -17.3103 -17.3092 -17.3084 -17.3065 -17.3051
   -17.3024 -17.3022 -17.2949 -17.2948 -17.2924 -17.2920 -17.2890 -17.2888
   -17.2874 -17.2872 -17.2837 -17.2807 -17.2806 -17.2804 -17.2783 -17.2747
   -17.2745 -17.2716 -17.2714 -17.2665 -17.2662 -17.2656 -17.2654 -17.2551
   -17.2528 -17.2509 -17.2504 -17.2467 -17.2462 -17.2433 -17.2412 -17.2408
   -17.2375 -17.2372 -17.2366 -17.2343 -17.2302 -17.2302 -17.2250 -17.2249
   -17.2186 -17.2184 -17.2138 -17.2136  -9.7049  -9.6666  -9.6135  -9.5535
    -9.5004  -9.4763  -8.4784  -8.4076  -8.3225  -8.2429  -8.1829  -8.1540
    -3.3041  -3.2126  -3.0702  -2.8875  -2.6935  -2.5506  -1.3364  -1.1367
    -0.9856  -0.9046  -0.8526  -0.8459  -0.7213  -0.6138  -0.4045  -0.1340
     0.1290   0.4119   0.4787   0.5512   0.6129   0.6878   0.7583   0.7636
     0.8440   0.8960   0.9020   0.9317   0.9726   1.0061   1.7707   1.8119
     1.8190   1.8279   1.8847   1.8912   2.0273   2.0409   2.0758   2.1415
     2.4131   2.7658   3.1381   3.2734   3.3959   3.5005   3.5698   3.5870
     5.1588   5.4362   5.9097   6.3726   6.6120   6.6748   6.7141   6.7231
     6.7799   6.8006   6.8671   6.9323   7.0414   7.0612   7.1172   7.3417
     7.5611   7.6129   7.7028   7.7672   7.8038   7.9134   8.0128   8.0338
     8.2535   8.2848   8.5549   8.7829   8.9235   9.0014   9.0978   9.1719
     9.3477   9.4449   9.4514   9.4685   9.6601   9.7916   9.8837   9.9232
     9.9955  10.0729  10.1952  10.3956  10.5811  10.6787  10.7892  10.8007
    10.8880  10.9149  11.0306  11.0542  11.0763  11.2841  11.4761  11.5367
    11.8654  11.9106  12.1531  12.2261  12.2275  12.2615  12.2659  12.4215
    12.7088  12.7675  12.8487  12.8687  12.8957  12.8977  13.0114  13.0168
    13.0905  13.3107  13.4010  13.4312  13.4779  13.5274  13.9289  14.0815
    14.0963  14.2464  14.2936  14.4756  14.5054  14.5490  14.5577  14.6275
    14.6415  14.7422  14.8626  14.9195  15.0265  15.0478  15.0796  15.1715
    15.1821  15.1916  15.3188  15.3900  15.4903  15.5683  15.6090  15.6323
    15.7626  15.8403  15.9801  16.0566  16.2379  16.2677  16.3203  16.4365
    16.4514  16.4743  16.4829  16.5332  16.6788  16.7869  16.8678  16.9090
    17.0091  17.1087  17.1233  17.2605  17.3200  17.3255  17.4380  17.5847
    17.6558  17.7881  17.8918  17.9220  18.0908  18.1484  18.2132  18.3046
    18.4449  18.4623  18.5769  18.6043  18.6311  18.8208  18.8941  18.9516
    19.0310  19.1656  19.2162  19.3283  19.3708  19.5553  19.6187  19.7127
    19.7483  19.9814  20.0736  20.1262  20.1969  20.2392  20.3137  20.3350
    20.3867  20.6371  20.6499  20.6973  20.7266  20.7937  20.7992  21.0221
    21.0407  21.1249  21.1922  21.2816  21.3646  21.5761  21.6277  21.6555
    21.6847  21.7943  21.8260  21.9919

          k = 0.1000 0.0000 0.0000 ( 35629 PWs)   bands (ev):

   -17.3403 -17.3367 -17.3325 -17.3306 -17.3201 -17.3177 -17.3153 -17.3151
   -17.3135 -17.3124 -17.3101 -17.3097 -17.3094 -17.3089 -17.3071 -17.3058
   -17.3030 -17.3027 -17.2939 -17.2938 -17.2920 -17.2916 -17.2895 -17.2893
   -17.2872 -17.2870 -17.2840 -17.2813 -17.2812 -17.2809 -17.2791 -17.2744
   -17.2742 -17.2718 -17.2715 -17.2667 -17.2664 -17.2652 -17.2650 -17.2554
   -17.2529 -17.2509 -17.2502 -17.2471 -17.2462 -17.2435 -17.2411 -17.2410
   -17.2376 -17.2373 -17.2364 -17.2343 -17.2306 -17.2305 -17.2247 -17.2245
   -17.2191 -17.2189 -17.2134 -17.2133  -9.6778  -9.6398  -9.5870  -9.5275
    -9.4748  -9.4511  -8.4659  -8.3962  -8.3128  -8.2348  -8.1764  -8.1486
    -3.3282  -3.2376  -3.0970  -2.9176  -2.7288  -2.5912  -1.3582  -1.1865
    -1.0653  -1.0045  -0.9560  -0.9539  -0.7299  -0.6072  -0.3825  -0.1066
     0.1579   0.4361   0.5016   0.5068   0.5705   0.6467   0.7281   0.7564
     0.8663   0.8783   0.8993   0.9708   1.0051   1.0427   1.7725   1.7987
     1.8126   1.8313   1.8783   1.8912   2.0283   2.0285   2.0684   2.1931
     2.4726   2.8263   3.1439   3.2904   3.4072   3.5011   3.5602   3.5718
     5.1925   5.4675   5.9352   6.3872   6.6511   6.6696   6.7342   6.7537
     6.7972   6.8449   6.9219   6.9260   7.0336   7.1011   7.1033   7.1973
     7.4903   7.4980   7.6099   7.7095   7.8292   7.8838   7.8847   8.0462
     8.1262   8.2775   8.5886   8.6281   8.9172   8.9587   9.1082   9.1619
     9.3643   9.3858   9.4729   9.5019   9.5601   9.6989   9.8132   9.8934
     9.9946  10.1046  10.2009  10.3507  10.5088  10.5444  10.6258  10.6652
    10.7429  10.7475  10.8540  10.8770  10.9778  11.1444  11.3528  11.4353
    11.8161  11.8229  12.1323  12.2335  12.2906  12.3292  12.3683  12.4309
    12.7285  12.7577  12.9786  12.9870  13.0307  13.0959  13.1510  13.1678
    13.2232  13.3558  13.5663  13.5992  13.6728  13.7758  14.0845  14.2256
    14.2529  14.3957  14.4191  14.5616  14.5773  14.6069  14.6708  14.6922
    14.7038  14.7529  14.8538  14.8771  15.0683  15.0969  15.1570  15.2744
    15.3262  15.4551  15.4960  15.5407  15.5408  15.6069  15.6625  15.7644
    15.8292  15.8566  15.9650  16.0670  16.0859  16.1092  16.2519  16.3069
    16.4003  16.4499  16.5338  16.6255  16.6347  16.7109  16.7170  16.9156
    17.0172  17.0287  17.0862  17.1746  17.3124  17.4117  17.4386  17.4436
    17.6244  17.8037  17.9033  18.0241  18.0415  18.1246  18.3973  18.3980
    18.4851  18.5359  18.5520  18.6543  18.6969  18.7669  18.9061  18.9984
    18.9985  19.1579  19.4304  19.4542  19.5342  19.6468  19.7470  19.7733
    19.8995  19.9179  20.0010  20.1231  20.2503  20.3572  20.4106  20.4270
    20.5571  20.6525  20.6654  20.7445  20.7634  20.7857  20.8175  20.9810
    21.0870  21.2095  21.2652  21.3011  21.5203  21.5829  21.6085  21.6979
    21.7510  21.8071  21.8791  22.0280

          k = 0.1250 0.0000 0.0000 ( 35625 PWs)   bands (ev):

   -17.3389 -17.3353 -17.3313 -17.3296 -17.3187 -17.3166 -17.3146 -17.3142
   -17.3134 -17.3130 -17.3107 -17.3102 -17.3086 -17.3084 -17.3077 -17.3065
   -17.3036 -17.3033 -17.2927 -17.2925 -17.2915 -17.2912 -17.2904 -17.2901
   -17.2868 -17.2867 -17.2842 -17.2820 -17.2818 -17.2814 -17.2799 -17.2743
   -17.2739 -17.2720 -17.2718 -17.2669 -17.2666 -17.2647 -17.2645 -17.2557
   -17.2531 -17.2509 -17.2499 -17.2476 -17.2462 -17.2436 -17.2411 -17.2410
   -17.2377 -17.2375 -17.2363 -17.2343 -17.2311 -17.2310 -17.2242 -17.2241
   -17.2196 -17.2194 -17.2131 -17.2130  -9.6432  -9.6055  -9.5533  -9.4944
    -9.4423  -9.4191  -8.4505  -8.3824  -8.3011  -8.2253  -8.1687  -8.1424
    -3.3587  -3.2692  -3.1310  -2.9557  -2.7732  -2.6420  -1.3949  -1.2570
    -1.1687  -1.1318  -1.0804  -1.0802  -0.7315  -0.5910  -0.3520  -0.0711
     0.1948   0.4567   0.4770   0.5117   0.5516   0.6106   0.6959   0.7447
     0.8293   0.8936   0.9367   1.0097   1.0403   1.0800   1.7767   1.7885
     1.8038   1.8323   1.8780   1.8916   2.0159   2.0221   2.0872   2.2478
     2.5360   2.8921   3.1499   3.3124   3.4192   3.4980   3.5452   3.5499
     5.2348   5.5062   5.9631   6.3866   6.4552   6.5870   6.6628   6.8034
     6.8174   6.8919   6.9586   6.9661   7.0985   7.1022   7.1370   7.1635
     7.3598   7.4293   7.5337   7.6319   7.7410   7.8617   7.8993   7.9731
     8.1079   8.3053   8.4702   8.6061   8.8060   8.9399   9.1046   9.1547
     9.3048   9.3913   9.4490   9.4699   9.5311   9.5858   9.6953   9.9273
    10.0136  10.1065  10.2422  10.2832  10.3390  10.4087  10.4529  10.5317
    10.6067  10.6530  10.7168  10.7561  10.9200  11.0090  11.2507  11.3217
    11.6943  11.8079  12.1310  12.1393  12.3486  12.4328  12.4962  12.5202
    12.6623  12.8068  13.0355  13.0826  13.2253  13.3122  13.3152  13.3308
    13.3968  13.4303  13.6851  13.7666  13.8929  14.0355  14.2302  14.3425
    14.4561  14.5142  14.5792  14.6018  14.6202  14.6493  14.7116  14.7261
    14.7643  14.8262  14.8718  14.8956  15.0231  15.0398  15.1418  15.4743
    15.5585  15.5882  15.6337  15.6584  15.7055  15.7836  15.7935  15.8029
    15.9105  15.9149  15.9917  16.0801  16.1066  16.1198  16.1978  16.2519
    16.2835  16.4144  16.4263  16.5350  16.7099  16.8065  16.8117  16.8775
    16.9538  17.0301  17.0489  17.1318  17.2038  17.3965  17.4574  17.6378
    17.6945  17.8022  17.9052  17.9450  17.9696  18.1189  18.4329  18.5045
    18.5437  18.6035  18.6298  18.6836  18.7416  18.8369  18.9033  19.0522
    19.1344  19.1351  19.4351  19.4655  19.6410  19.6901  19.7720  19.7950
    19.9399  19.9995  20.1446  20.2584  20.3038  20.4548  20.4897  20.5166
    20.5311  20.5415  20.7855  20.8201  20.8726  20.8808  20.9605  21.1027
    21.1988  21.2426  21.2546  21.3210  21.5681  21.6228  21.6749  21.7111
    21.7315  21.8290  22.0166  22.0976

          k = 0.1500 0.0000 0.0000 ( 35613 PWs)   bands (ev):

   -17.3372 -17.3338 -17.3299 -17.3286 -17.3172 -17.3163 -17.3143 -17.3141
   -17.3125 -17.3124 -17.3111 -17.3109 -17.3088 -17.3076 -17.3073 -17.3071
   -17.3040 -17.3038 -17.2915 -17.2914 -17.2912 -17.2910 -17.2909 -17.2907
   -17.2864 -17.2862 -17.2843 -17.2826 -17.2824 -17.2820 -17.2808 -17.2742
   -17.2735 -17.2724 -17.2721 -17.2671 -17.2668 -17.2642 -17.2640 -17.2562
   -17.2536 -17.2512 -17.2497 -17.2483 -17.2460 -17.2435 -17.2412 -17.2408
   -17.2377 -17.2376 -17.2361 -17.2342 -17.2316 -17.2315 -17.2239 -17.2237
   -17.2199 -17.2197 -17.2127 -17.2126  -9.6014  -9.5641  -9.5126  -9.4544
    -9.4031  -9.3806  -8.4329  -8.3667  -8.2880  -8.2150  -8.1607  -8.1362
    -3.3951  -3.3070  -3.1715  -3.0010  -2.8258  -2.7016  -1.4506  -1.3490
    -1.2955  -1.2831  -1.2191  -1.2190  -0.7215  -0.5635  -0.3127  -0.0276
     0.2396   0.4327   0.4887   0.5015   0.5745   0.5844   0.6705   0.7268
     0.7976   0.9188   0.9801   1.0500   1.0783   1.1190   1.7805   1.7825
     1.8001   1.8306   1.8767   1.8904   2.0080   2.0278   2.1190   2.3036
     2.5988   2.9560   3.1548   3.3405   3.4308   3.4875   3.5233   3.5242
     5.2850   5.5506   5.9846   6.2059   6.3504   6.3824   6.6099   6.7107
     6.8212   6.8877   6.9792   7.0054   7.1076   7.1080   7.1981   7.2119
     7.3111   7.3527   7.4625   7.5538   7.6611   7.8107   7.9006   7.9679
     8.1686   8.2612   8.4006   8.5569   8.7527   8.8483   9.1053   9.1108
     9.2612   9.3394   9.4059   9.4123   9.5001   9.5005   9.5925   9.9606
    10.0160  10.0576  10.1338  10.2185  10.2254  10.3145  10.4008  10.4310
    10.5273  10.6198  10.6648  10.7130  10.8694  10.8887  11.1901  11.2103
    11.5726  11.8022  12.0317  12.1555  12.3774  12.5133  12.5846  12.6364
    12.6561  12.8527  13.0643  13.1682  13.3917  13.4592  13.4989  13.5170
    13.5631  13.6392  13.7780  13.9032  14.0810  14.2249  14.3372  14.3653
    14.4295  14.4986  14.6204  14.6220  14.6844  14.7273  14.7316  14.8326
    14.8545  14.8910  15.0026  15.0483  15.0505  15.1082  15.1767  15.2502
    15.6550  15.6892  15.7561  15.8009  15.8616  15.8811  15.9261  15.9717
    16.0200  16.0926  16.1201  16.1504  16.1684  16.2476  16.2501  16.2958
    16.3413  16.3550  16.4564  16.5498  16.6716  16.7220  16.8525  16.9263
    17.0270  17.0649  17.0993  17.1345  17.1578  17.3092  17.6323  17.6696
    17.7917  17.8721  17.8983  17.9771  17.9955  18.0496  18.4854  18.4936
    18.5907  18.6066  18.6409  18.7100  18.8005  18.8367  19.0557  19.2107
    19.2363  19.2671  19.3208  19.4484  19.6178  19.6591  19.7922  19.8974
    19.9561  20.0664  20.1255  20.2382  20.4040  20.4489  20.5456  20.5617
    20.7446  20.7667  20.8708  20.8833  20.9724  21.0191  21.0302  21.0978
    21.1597  21.3708  21.3818  21.5562  21.5872  21.6351  21.7214  21.7300
    21.7760  21.7912  21.9631  22.0520

          k = 0.1750 0.0000 0.0000 ( 35581 PWs)   bands (ev):

   -17.3353 -17.3322 -17.3286 -17.3276 -17.3172 -17.3166 -17.3141 -17.3134
   -17.3128 -17.3122 -17.3101 -17.3099 -17.3094 -17.3081 -17.3068 -17.3067
   -17.3040 -17.3038 -17.2925 -17.2923 -17.2904 -17.2903 -17.2899 -17.2897
   -17.2860 -17.2857 -17.2842 -17.2832 -17.2830 -17.2823 -17.2816 -17.2742
   -17.2733 -17.2727 -17.2725 -17.2672 -17.2670 -17.2635 -17.2634 -17.2568
   -17.2542 -17.2518 -17.2495 -17.2488 -17.2457 -17.2434 -17.2414 -17.2407
   -17.2378 -17.2377 -17.2359 -17.2341 -17.2321 -17.2320 -17.2237 -17.2235
   -17.2199 -17.2197 -17.2123 -17.2122  -9.5526  -9.5159  -9.4651  -9.4079
    -9.3574  -9.3357  -8.4139  -8.3500  -8.2744  -8.2046  -8.1531  -8.1306
    -3.4366  -3.3500  -3.2175  -3.0524  -2.8850  -2.7682  -1.5272  -1.4626
    -1.4517  -1.4443  -1.3668  -1.3657  -0.6972  -0.5244  -0.2648   0.0236
     0.2916   0.4110   0.4677   0.5218   0.5798   0.5951   0.6581   0.7120
     0.7813   0.9553   1.0245   1.0932   1.1188   1.1604   1.7800   1.7802
     1.8067   1.8281   1.8730   1.8843   2.0150   2.0463   2.1574   2.3587
     2.6573   3.0108   3.1575   3.3761   3.4402   3.4601   3.4984   3.5009
     5.3421   5.5966   5.9562   5.9603   6.2051   6.2317   6.4953   6.6154
     6.7645   6.8046   6.9777   7.0029   7.0727   7.0966   7.2098   7.2312
     7.2977   7.3188   7.4140   7.5043   7.6171   7.7398   7.8943   8.0465
     8.1369   8.2409   8.4397   8.4421   8.7210   8.7677   9.0028   9.0996
     9.2114   9.2860   9.3049   9.3441   9.4050   9.4423   9.5346   9.9562
     9.9751   9.9821  10.0230  10.1411  10.1445  10.2305  10.4583  10.5059
    10.5730  10.6442  10.6987  10.7333  10.8003  10.8256  11.1170  11.1667
    11.4719  11.7673  11.9869  12.1465  12.3836  12.5695  12.5848  12.7457
    12.7690  12.8896  13.1200  13.2317  13.4308  13.6404  13.6702  13.7151
    13.7730  13.7933  13.8938  13.9430  14.1011  14.1368  14.2913  14.3904
    14.4445  14.5192  14.5418  14.5968  14.7058  14.8302  14.8565  14.9300
    14.9313  15.0398  15.0476  15.1276  15.1815  15.2367  15.2936  15.3164
    15.6261  15.7246  15.7495  15.7829  15.8578  15.9949  16.0090  16.1579
    16.2216  16.2510  16.2793  16.3513  16.3631  16.3733  16.4225  16.4327
    16.4838  16.4850  16.5355  16.6380  16.7130  16.7508  16.8204  16.9394
    17.0361  17.0913  17.1392  17.2024  17.3114  17.3474  17.6749  17.6817
    17.7407  17.9699  17.9844  18.0671  18.0849  18.3186  18.3453  18.4483
    18.5882  18.6659  18.6974  18.7557  18.7618  18.8548  19.1703  19.2254
    19.2522  19.4370  19.4600  19.5042  19.6414  19.6424  19.7266  19.8431
    19.9967  20.1104  20.1876  20.2588  20.3426  20.4803  20.5813  20.5972
    20.7208  20.8015  20.9894  21.0553  21.0956  21.1064  21.1529  21.1586
    21.3569  21.4344  21.4691  21.4967  21.5755  21.6623  21.7020  21.7909
    21.8501  21.9177  21.9931  22.0222

          k = 0.2000 0.0000 0.0000 ( 35543 PWs)   bands (ev):

   -17.3335 -17.3308 -17.3274 -17.3268 -17.3183 -17.3175 -17.3143 -17.3141
   -17.3124 -17.3108 -17.3096 -17.3089 -17.3082 -17.3081 -17.3067 -17.3066
   -17.3035 -17.3032 -17.2937 -17.2935 -17.2899 -17.2898 -17.2887 -17.2886
   -17.2856 -17.2852 -17.2839 -17.2835 -17.2833 -17.2824 -17.2821 -17.2743
   -17.2733 -17.2730 -17.2726 -17.2674 -17.2672 -17.2629 -17.2627 -17.2576
   -17.2550 -17.2528 -17.2494 -17.2491 -17.2453 -17.2433 -17.2417 -17.2406
   -17.2377 -17.2376 -17.2356 -17.2340 -17.2327 -17.2326 -17.2237 -17.2235
   -17.2195 -17.2193 -17.2119 -17.2118  -9.4971  -9.4610  -9.4112  -9.3552
    -9.3058  -9.2850  -8.3941  -8.3330  -8.2611  -8.1951  -8.1467  -8.1267
    -3.4820  -3.3970  -3.2677  -3.1081  -2.9488  -2.8393  -1.6324  -1.6246
    -1.6096  -1.5968  -1.5183  -1.5174  -0.6579  -0.4744  -0.2088   0.0821
     0.3503   0.3994   0.4561   0.5222   0.5989   0.6011   0.6579   0.7114
     0.7943   1.0005   1.0690   1.1402   1.1616   1.2049   1.7783   1.7805
     1.8185   1.8255   1.8696   1.8750   2.0365   2.0751   2.1996   2.4115
     2.7081   3.0499   3.1560   3.4129   3.4195   3.4370   3.4783   3.4869
     5.4042   5.6094   5.7424   5.8131   6.0590   6.1381   6.3511   6.5053
     6.6706   6.7069   6.9283   6.9561   7.0239   7.0383   7.1175   7.1859
     7.2811   7.3216   7.3898   7.4644   7.5978   7.6762   7.9076   8.0204
     8.1314   8.2888   8.3452   8.5027   8.5801   8.7732   8.8860   9.0213
     9.1452   9.2045   9.2093   9.2294   9.2807   9.3632   9.5054   9.9515
     9.9523   9.9954  10.0002  10.0980  10.1067  10.1960  10.5890  10.6460
    10.6837  10.6973  10.7327  10.7956  10.8530  10.8544  11.0566  11.1563
    11.4108  11.7014  12.0045  12.0928  12.4170  12.5879  12.6025  12.8200
    12.8742  12.9405  13.1979  13.2700  13.4777  13.6334  13.7035  13.7571
    13.8537  13.9252  14.0291  14.0506  14.0606  14.1465  14.1651  14.3492
    14.3668  14.4075  14.5421  14.5778  14.8026  14.8650  14.9012  15.0111
    15.0141  15.1307  15.2056  15.2450  15.3112  15.3995  15.4801  15.5119
    15.5588  15.7498  15.8287  15.8518  15.8887  15.9149  16.0692  16.2048
    16.2948  16.3627  16.4100  16.5223  16.5442  16.5593  16.6441  16.6660
    16.6808  16.7069  16.7306  16.8118  16.8552  16.9091  16.9180  16.9434
    17.1003  17.1256  17.2687  17.3241  17.3631  17.3754  17.6770  17.8041
    17.8180  17.9724  18.1408  18.1951  18.2637  18.3173  18.3582  18.5629
    18.5859  18.6081  18.8181  18.8211  18.8580  18.8733  19.0356  19.1872
    19.3692  19.4224  19.5757  19.6220  19.6779  19.7131  19.8012  19.8562
    19.9403  20.1672  20.2913  20.3058  20.3351  20.4396  20.5565  20.6240
    20.7203  20.8324  20.8645  20.9818  21.0396  21.2161  21.2204  21.3210
    21.4079  21.4613  21.4692  21.5477  21.5571  21.6589  21.6725  21.7550
    21.7858  21.8865  21.9444  22.0063

          k = 0.2250 0.0000 0.0000 ( 35559 PWs)   bands (ev):

   -17.3318 -17.3296 -17.3265 -17.3262 -17.3196 -17.3187 -17.3156 -17.3154
   -17.3107 -17.3098 -17.3091 -17.3088 -17.3068 -17.3066 -17.3065 -17.3063
   -17.3027 -17.3025 -17.2948 -17.2947 -17.2896 -17.2894 -17.2879 -17.2877
   -17.2852 -17.2852 -17.2839 -17.2832 -17.2831 -17.2822 -17.2819 -17.2745
   -17.2737 -17.2733 -17.2724 -17.2676 -17.2673 -17.2622 -17.2620 -17.2584
   -17.2560 -17.2542 -17.2494 -17.2493 -17.2448 -17.2434 -17.2421 -17.2404
   -17.2376 -17.2374 -17.2353 -17.2339 -17.2333 -17.2332 -17.2239 -17.2236
   -17.2188 -17.2187 -17.2115 -17.2114  -9.4354  -9.4001  -9.3515  -9.2968
    -9.2486  -9.2288  -8.3748  -8.3168  -8.2492  -8.1875  -8.1425  -8.1253
    -3.5295  -3.4461  -3.3201  -3.1661  -3.0147  -2.9121  -1.8198  -1.7872
    -1.7506  -1.7394  -1.6717  -1.6696  -0.6047  -0.4142  -0.1450   0.1474
     0.3983   0.4135   0.4564   0.5220   0.5987   0.6211   0.6580   0.7360
     0.8383   1.0526   1.1127   1.1906   1.2065   1.2524   1.7769   1.7816
     1.8217   1.8291   1.8675   1.8710   2.0688   2.1111   2.2437   2.4603
     2.7489   3.0703   3.1484   3.3597   3.4058   3.4414   3.4797   3.4950
     5.4343   5.4605   5.6224   5.7064   5.8973   6.0602   6.2642   6.3496
     6.5146   6.6724   6.8310   6.8683   6.9424   6.9439   7.0080   7.1213
     7.2364   7.2870   7.3467   7.4184   7.5672   7.6056   7.9090   7.9347
     8.1850   8.1892   8.4176   8.4305   8.5663   8.6566   8.8514   8.8571
     9.0018   9.0532   9.1310   9.1456   9.1798   9.2638   9.4939  10.0091
    10.0519  10.0721  10.0851  10.1223  10.1287  10.2221  10.6600  10.6611
    10.7939  10.7958  10.9389  10.9420  10.9951  10.9966  11.0658  11.1447
    11.4051  11.6416  12.0197  12.0547  12.4791  12.5905  12.6084  12.8629
    12.9503  13.0126  13.2612  13.2834  13.4065  13.4821  13.6031  13.7738
    13.7999  13.8834  14.0168  14.0262  14.1116  14.1470  14.2001  14.3409
    14.3946  14.4188  14.5402  14.6145  14.7396  14.7856  14.9408  15.1669
    15.1832  15.2528  15.2670  15.3046  15.4800  15.5426  15.5909  15.6944
    15.7216  15.8313  15.8718  15.9030  15.9314  15.9487  16.0197  16.2631
    16.3372  16.3666  16.4941  16.5631  16.7159  16.8140  16.8192  16.9014
    16.9269  16.9663  16.9792  17.0035  17.0616  17.0808  17.1145  17.1379
    17.1972  17.2115  17.3398  17.4444  17.4683  17.4751  17.8344  17.8407
    17.9557  17.9875  18.2953  18.3164  18.3232  18.3748  18.4452  18.6231
    18.6438  18.7038  18.8482  18.8972  18.9226  18.9872  19.0581  19.1624
    19.2489  19.4125  19.6544  19.6633  19.7389  19.7960  19.9001  20.0433
    20.0897  20.1058  20.2220  20.2551  20.3717  20.5123  20.5564  20.6276
    20.7497  20.8211  20.8363  20.9085  20.9282  20.9899  21.1934  21.2403
    21.2519  21.2932  21.4406  21.5043  21.5841  21.6101  21.6737  21.6976
    21.7750  21.9046  21.9196  21.9343

          k = 0.2500 0.0000 0.0000 ( 35525 PWs)   bands (ev):

   -17.3304 -17.3289 -17.3259 -17.3258 -17.3208 -17.3201 -17.3170 -17.3168
   -17.3098 -17.3092 -17.3083 -17.3073 -17.3064 -17.3062 -17.3048 -17.3047
   -17.3021 -17.3019 -17.2959 -17.2958 -17.2893 -17.2891 -17.2873 -17.2871
   -17.2853 -17.2850 -17.2844 -17.2825 -17.2823 -17.2813 -17.2810 -17.2748
   -17.2742 -17.2734 -17.2721 -17.2677 -17.2675 -17.2615 -17.2613 -17.2593
   -17.2571 -17.2557 -17.2495 -17.2493 -17.2443 -17.2437 -17.2424 -17.2401
   -17.2373 -17.2369 -17.2349 -17.2342 -17.2340 -17.2334 -17.2240 -17.2238
   -17.2180 -17.2178 -17.2111 -17.2110  -9.3680  -9.3335  -9.2862  -9.2332
    -9.1863  -9.1678  -8.3569  -8.3026  -8.2398  -8.1830  -8.1417  -8.1275
    -3.5772  -3.4953  -3.3724  -3.2239  -3.0798  -2.9836  -2.0103  -1.9691
    -1.9170  -1.8744  -1.8235  -1.8209  -0.5391  -0.3448  -0.0740   0.2189
     0.4075   0.4575   0.4910   0.5296   0.6050   0.6356   0.6614   0.7823
     0.9018   1.1102   1.1544   1.2409   1.2550   1.3022   1.7746   1.7813
     1.8144   1.8335   1.8653   1.8812   2.1093   2.1517   2.2877   2.5038
     2.7783   3.0723   3.1330   3.2994   3.3621   3.4265   3.4858   3.5354
     5.2229   5.3840   5.5741   5.6150   5.8571   5.9097   6.1807   6.2375
     6.3748   6.6085   6.7100   6.7459   6.8301   6.8420   6.9127   7.0513
     7.1629   7.2122   7.2771   7.3528   7.5118   7.5162   7.8624   7.8756
     8.0872   8.2147   8.2731   8.4692   8.5042   8.6180   8.6477   8.7662
     8.8372   8.9414   9.0108   9.0802   9.1042   9.1687   9.5048  10.1140
    10.2078  10.2080  10.2412  10.2602  10.2796  10.3058  10.6645  10.6711
    10.8795  10.9730  11.1050  11.1425  11.1563  11.1761  11.2289  11.2337
    11.4548  11.6104  11.9541  12.1254  12.5549  12.5828  12.5952  12.8978
    12.9616  13.0784  13.1751  13.1935  13.3609  13.3938  13.5250  13.6163
    13.7570  13.7831  13.8056  13.9776  14.0758  14.1139  14.2160  14.3929
    14.5021  14.5145  14.6100  14.6369  14.7043  14.7650  15.0010  15.1831
    15.2724  15.3436  15.3448  15.4231  15.6509  15.6768  15.7038  15.7065
    15.8025  15.8247  15.9724  15.9753  16.0290  16.0817  16.1838  16.2710
    16.3384  16.4617  16.4941  16.6944  16.7324  16.9935  17.0099  17.0662
    17.1113  17.1390  17.2321  17.2338  17.2855  17.2932  17.3079  17.3206
    17.3741  17.4519  17.4957  17.5327  17.6101  17.7160  17.9393  17.9674
    18.0939  18.0947  18.2387  18.4459  18.4745  18.5490  18.5649  18.7114
    18.7265  18.7800  18.9046  18.9351  18.9472  19.0545  19.0900  19.1865
    19.3678  19.4114  19.6786  19.6848  19.7509  19.9099  19.9893  20.0976
    20.1478  20.1617  20.2291  20.2410  20.3759  20.4640  20.5852  20.6287
    20.7290  20.7299  20.7434  20.7872  20.8835  20.9221  21.0270  21.0447
    21.1102  21.1537  21.3473  21.4618  21.5132  21.5367  21.5736  21.7016
    21.7330  21.7794  21.8232  21.9131

          k = 0.2750 0.0000 0.0000 ( 35527 PWs)   bands (ev):

   -17.3294 -17.3288 -17.3257 -17.3256 -17.3221 -17.3216 -17.3184 -17.3182
   -17.3095 -17.3085 -17.3069 -17.3062 -17.3055 -17.3051 -17.3036 -17.3035
   -17.3014 -17.3011 -17.2969 -17.2967 -17.2891 -17.2889 -17.2869 -17.2867
   -17.2855 -17.2851 -17.2841 -17.2818 -17.2814 -17.2801 -17.2797 -17.2752
   -17.2745 -17.2734 -17.2718 -17.2679 -17.2676 -17.2609 -17.2606 -17.2601
   -17.2583 -17.2573 -17.2496 -17.2494 -17.2445 -17.2442 -17.2422 -17.2396
   -17.2369 -17.2364 -17.2350 -17.2348 -17.2342 -17.2333 -17.2241 -17.2239
   -17.2170 -17.2169 -17.2107 -17.2106  -9.2953  -9.2619  -9.2162  -9.1650
    -9.1197  -9.1026  -8.3418  -8.2916  -8.2341  -8.1827  -8.1452  -8.1343
    -3.6227  -3.5421  -3.4221  -3.2785  -3.1412  -3.0507  -2.2008  -2.1525
    -2.0889  -2.0265  -1.9735  -1.9690  -0.4629  -0.2671   0.0036   0.2958
     0.4259   0.4785   0.5465   0.5601   0.6221   0.6533   0.6738   0.8390
     0.9767   1.1713   1.1934   1.2852   1.3104   1.3529   1.7693   1.7768
     1.8034   1.8326   1.8682   1.8977   2.1566   2.1953   2.3301   2.5407
     2.7964   3.0587   3.1090   3.2372   3.3142   3.3989   3.4845   3.5678
     5.0415   5.2228   5.4665   5.6283   5.7626   5.8775   6.0364   6.1267
     6.3302   6.4773   6.5941   6.6040   6.7133   6.7477   6.8372   6.9619
     7.0758   7.1054   7.1945   7.2660   7.4079   7.4401   7.7938   7.8125
     8.0018   8.1034   8.2130   8.2661   8.4215   8.5282   8.5721   8.6402
     8.7984   8.8302   8.8930   8.9684   9.0497   9.1282   9.5411  10.2129
    10.3213  10.3783  10.4614  10.4733  10.5297  10.5447  10.7269  10.7376
    10.9281  11.0430  11.2297  11.3472  11.3497  11.4178  11.4627  11.4709
    11.5452  11.6415  11.9261  12.2137  12.5237  12.5845  12.6350  12.8821
    12.8960  12.9827  13.0977  13.1473  13.3049  13.3079  13.4660  13.5197
    13.5614  13.6639  13.7012  13.9232  13.9953  14.1092  14.2503  14.3654
    14.4498  14.4989  14.6317  14.7085  14.8215  14.9680  15.0423  15.1770
    15.2510  15.3668  15.3857  15.5695  15.6297  15.6981  15.7352  15.7555
    15.9062  15.9318  16.1111  16.1288  16.1681  16.1889  16.3027  16.3253
    16.4405  16.5060  16.5804  16.6413  16.8749  17.0698  17.1046  17.1509
    17.2332  17.2708  17.3225  17.4579  17.4811  17.5042  17.5590  17.5889
    17.6302  17.6788  17.7570  17.7734  17.8442  17.9043  18.0111  18.0743
    18.1927  18.2514  18.4017  18.5296  18.5849  18.6592  18.7048  18.7996
    18.8248  18.9040  18.9538  18.9962  19.0571  19.1198  19.1443  19.1955
    19.4800  19.5775  19.6122  19.7176  19.7447  19.9328  19.9737  20.0282
    20.0744  20.2241  20.2704  20.3422  20.3714  20.4392  20.4959  20.5199
    20.5409  20.6524  20.7302  20.7531  20.7619  20.8838  20.9261  20.9577
    21.0943  21.1912  21.2376  21.2922  21.3804  21.3887  21.4749  21.5676
    21.6568  21.7352  21.7378  21.8219

          k = 0.3000 0.0000 0.0000 ( 35537 PWs)   bands (ev):

   -17.3291 -17.3289 -17.3257 -17.3256 -17.3233 -17.3230 -17.3197 -17.3195
   -17.3090 -17.3075 -17.3057 -17.3053 -17.3044 -17.3039 -17.3030 -17.3029
   -17.3002 -17.3000 -17.2977 -17.2976 -17.2889 -17.2888 -17.2869 -17.2862
   -17.2861 -17.2845 -17.2833 -17.2811 -17.2804 -17.2788 -17.2783 -17.2756
   -17.2748 -17.2734 -17.2715 -17.2680 -17.2678 -17.2615 -17.2603 -17.2599
   -17.2591 -17.2587 -17.2496 -17.2495 -17.2451 -17.2449 -17.2416 -17.2390
   -17.2365 -17.2359 -17.2355 -17.2354 -17.2339 -17.2331 -17.2242 -17.2239
   -17.2160 -17.2159 -17.2103 -17.2102  -9.2181  -9.1859  -9.1420  -9.0930
    -9.0495  -9.0340  -8.3306  -8.2851  -8.2336  -8.1881  -8.1540  -8.1465
    -3.6634  -3.5839  -3.4663  -3.3271  -3.1957  -3.1101  -2.3885  -2.3342
    -2.2612  -2.1861  -2.1266  -2.1118  -0.3775  -0.1820   0.0872   0.3772
     0.4516   0.5057   0.5724   0.6227   0.6574   0.6786   0.6992   0.8989
     1.0592   1.2194   1.2434   1.3231   1.3691   1.4023   1.7589   1.7643
     1.7908   1.8292   1.8739   1.9159   2.2095   2.2404   2.3696   2.5706
     2.8045   3.0327   3.0772   3.1765   3.2643   3.3622   3.4668   3.5707
     4.9092   5.0935   5.3348   5.5771   5.7425   5.7995   5.9740   6.0099
     6.3066   6.3128   6.4566   6.4740   6.6073   6.6808   6.7557   6.8603
     6.9775   6.9873   7.1034   7.1701   7.2893   7.3671   7.7189   7.7340
     7.9222   7.9291   8.0569   8.1856   8.2044   8.2981   8.5806   8.6032
     8.7081   8.7475   8.8240   8.8663   9.0085   9.1434   9.6008  10.2922
    10.4127  10.5206  10.6924  10.7439  10.8292  10.8594  10.8782  10.9099
    11.0284  11.0832  11.3741  11.4721  11.5739  11.6083  11.6529  11.6976
    11.7237  11.8151  11.9997  12.2936  12.4586  12.4992  12.7116  12.7462
    12.8540  12.8913  13.0369  13.0399  13.2275  13.2568  13.3460  13.4177
    13.5101  13.5902  13.5940  13.8460  13.9276  14.1452  14.2208  14.3048
    14.4145  14.5120  14.7172  14.7780  14.9361  14.9584  15.1118  15.1729
    15.2468  15.3849  15.4101  15.5129  15.5922  15.7638  15.8509  15.8749
    16.0011  16.0204  16.1583  16.1866  16.2511  16.2560  16.3778  16.4317
    16.5854  16.6273  16.6805  16.7609  16.9186  17.0121  17.1146  17.2354
    17.3635  17.3812  17.4995  17.5149  17.6251  17.6724  17.7037  17.8892
    17.9224  17.9589  18.0172  18.0259  18.0635  18.1045  18.1378  18.1587
    18.2935  18.3827  18.5517  18.6460  18.6998  18.8351  18.8444  18.9460
    18.9746  19.0030  19.0486  19.0957  19.1359  19.1750  19.1751  19.2646
    19.5282  19.6015  19.6356  19.7310  19.7338  19.8239  19.9092  19.9293
    19.9930  20.1423  20.1575  20.2324  20.2576  20.3973  20.4037  20.5378
    20.5575  20.5884  20.7422  20.7674  20.7933  20.8675  20.9107  20.9324
    20.9904  21.1073  21.1952  21.2326  21.3111  21.3224  21.3894  21.4079
    21.5384  21.6041  21.6327  21.6381

          k = 0.3250 0.0000 0.0000 ( 35529 PWs)   bands (ev):

   -17.3296 -17.3289 -17.3261 -17.3259 -17.3245 -17.3243 -17.3210 -17.3208
   -17.3082 -17.3064 -17.3054 -17.3052 -17.3034 -17.3029 -17.3020 -17.3019
   -17.2992 -17.2990 -17.2981 -17.2980 -17.2887 -17.2887 -17.2870 -17.2867
   -17.2858 -17.2837 -17.2823 -17.2805 -17.2795 -17.2779 -17.2769 -17.2756
   -17.2750 -17.2732 -17.2712 -17.2682 -17.2679 -17.2625 -17.2612 -17.2608
   -17.2588 -17.2586 -17.2497 -17.2496 -17.2460 -17.2457 -17.2407 -17.2383
   -17.2364 -17.2363 -17.2358 -17.2351 -17.2335 -17.2330 -17.2241 -17.2238
   -17.2150 -17.2148 -17.2099 -17.2098  -9.1370  -9.1063  -9.0645  -9.0180
    -8.9764  -8.9628  -8.3248  -8.2843  -8.2394  -8.2005  -8.1690  -8.1646
    -3.6966  -3.6179  -3.5023  -3.3669  -3.2404  -3.1591  -2.5709  -2.5115
    -2.4307  -2.3458  -2.2783  -2.2538  -0.2845  -0.0905   0.1757   0.4616
     0.4820   0.5386   0.6060   0.6659   0.7099   0.7125   0.7468   0.9572
     1.1471   1.2457   1.3106   1.3537   1.4274   1.4474   1.7418   1.7419
     1.7774   1.8240   1.8796   1.9331   2.2670   2.2863   2.4056   2.5940
     2.8052   2.9988   3.0402   3.1196   3.2124   3.3145   3.4249   3.5308
     4.8391   5.0117   5.2365   5.4640   5.6683   5.7926   5.8359   6.0368
     6.1456   6.2363   6.3204   6.3489   6.5243   6.6355   6.6585   6.7797
     6.8445   6.8908   7.0029   7.0764   7.1714   7.3131   7.6275   7.6335
     7.7551   7.8137   7.9048   7.9734   8.0795   8.1883   8.5084   8.5269
     8.5736   8.6629   8.6982   8.9155   8.9990   9.2006   9.6791  10.3633
    10.4835  10.6112  10.8694  10.9294  11.1281  11.1465  11.1713  11.2083
    11.2510  11.2626  11.4993  11.5340  11.6243  11.7952  11.8078  11.9497
    11.9580  12.0407  12.1858  12.2569  12.3848  12.5248  12.5554  12.7586
    12.8213  12.8370  12.9310  13.0097  13.0741  13.1189  13.3458  13.4327
    13.4551  13.4810  13.5464  13.8142  13.8453  14.1350  14.2758  14.3048
    14.3881  14.5122  14.7429  14.8077  14.9092  14.9988  15.1860  15.1863
    15.2175  15.3323  15.4211  15.5427  15.6363  15.8338  15.8941  15.9511
    15.9962  16.0569  16.1888  16.2368  16.2572  16.3210  16.5632  16.5700
    16.6035  16.7401  16.8757  16.8847  16.9240  17.0509  17.1162  17.2203
    17.3397  17.4219  17.5797  17.6988  17.7510  17.7658  17.8336  17.9831
    18.0281  18.1765  18.2421  18.2479  18.2764  18.2998  18.3254  18.4021
    18.4163  18.4997  18.7275  18.8462  18.8947  18.9325  18.9468  19.0126
    19.0311  19.1112  19.1215  19.1278  19.2545  19.2872  19.2879  19.3678
    19.4729  19.5120  19.6233  19.6377  19.6475  19.7816  19.8040  19.8346
    19.9124  19.9948  19.9978  20.0915  20.1512  20.3578  20.3776  20.5360
    20.5880  20.6515  20.7049  20.7080  20.7482  20.9042  20.9187  20.9727
    21.0026  21.1434  21.1740  21.2145  21.2197  21.2756  21.2799  21.4470
    21.4901  21.4987  21.5434  21.5632

          k = 0.3500 0.0000 0.0000 ( 35551 PWs)   bands (ev):

   -17.3302 -17.3292 -17.3268 -17.3265 -17.3256 -17.3253 -17.3222 -17.3220
   -17.3071 -17.3061 -17.3059 -17.3049 -17.3022 -17.3017 -17.3009 -17.3008
   -17.2995 -17.2994 -17.2973 -17.2970 -17.2887 -17.2885 -17.2871 -17.2870
   -17.2855 -17.2829 -17.2812 -17.2798 -17.2787 -17.2776 -17.2757 -17.2753
   -17.2749 -17.2729 -17.2709 -17.2683 -17.2681 -17.2635 -17.2623 -17.2621
   -17.2581 -17.2579 -17.2498 -17.2497 -17.2469 -17.2467 -17.2398 -17.2375
   -17.2369 -17.2368 -17.2353 -17.2345 -17.2332 -17.2329 -17.2240 -17.2237
   -17.2140 -17.2138 -17.2096 -17.2095  -9.0530  -9.0238  -8.9845  -8.9409
    -8.9015  -8.8898  -8.3254  -8.2906  -8.2528  -8.2214  -8.1908  -8.1889
    -3.7196  -3.6415  -3.5275  -3.3951  -3.2729  -3.1951  -2.7457  -2.6820
    -2.5946  -2.5017  -2.4265  -2.3935  -0.1855   0.0059   0.2678   0.5129
     0.5477   0.5745   0.6451   0.7078   0.7539   0.7568   0.8155   1.0100
     1.2388   1.2632   1.3757   1.3803   1.4822   1.4850   1.7103   1.7174
     1.7615   1.8171   1.8836   1.9472   2.3280   2.3334   2.4388   2.6121
     2.8019   2.9624   3.0014   3.0675   3.1579   3.2537   3.3558   3.4478
     4.8327   4.9817   5.1777   5.3736   5.5487   5.6848   5.8588   5.9655
     6.0579   6.1127   6.2115   6.2227   6.4684   6.5708   6.5715   6.6998
     6.7804   6.7846   6.9016   6.9853   7.0641   7.2799   7.5077   7.5161
     7.5934   7.6249   7.7768   7.8576   7.9019   8.1941   8.3963   8.4224
     8.4585   8.5005   8.6447   8.8941   9.0951   9.2874   9.7717  10.4279
    10.5561  10.6840  10.9880  10.9928  11.4155  11.4181  11.4910  11.4916
    11.5548  11.5892  11.6443  11.6524  11.6870  11.8043  11.9398  12.1173
    12.1411  12.2229  12.2512  12.3891  12.4020  12.4159  12.6043  12.6318
    12.7105  12.8352  12.9156  12.9804  13.0643  13.0953  13.2807  13.3063
    13.4456  13.5762  13.5963  13.6815  13.8982  14.2020  14.2172  14.3158
    14.4003  14.4493  14.7134  14.9006  14.9185  14.9685  15.1734  15.2014
    15.3043  15.3570  15.4158  15.5112  15.6837  15.8417  15.8962  15.9076
    16.0002  16.0860  16.2227  16.2362  16.3642  16.4551  16.6094  16.7013
    16.7749  16.7784  16.8919  16.9097  17.0260  17.0318  17.0794  17.1710
    17.4004  17.4965  17.6679  17.7131  17.7490  17.8196  17.9105  17.9574
    17.9735  18.3090  18.3373  18.4126  18.4281  18.5119  18.5794  18.5925
    18.6039  18.7538  18.7700  18.8334  18.8737  18.9667  18.9828  19.0773
    19.1637  19.2173  19.2313  19.2374  19.2682  19.3328  19.3772  19.4321
    19.4362  19.4914  19.4943  19.5846  19.6484  19.6767  19.6810  19.7414
    19.8518  19.9807  20.0251  20.0502  20.0887  20.3721  20.4149  20.4777
    20.4866  20.5131  20.5281  20.7936  20.8224  20.9663  20.9682  21.0998
    21.1219  21.1426  21.1456  21.1833  21.1909  21.2835  21.3585  21.3773
    21.4886  21.5264  21.6518  21.6522

          k = 0.3750 0.0000 0.0000 ( 35555 PWs)   bands (ev):

   -17.3308 -17.3296 -17.3276 -17.3275 -17.3263 -17.3262 -17.3233 -17.3230
   -17.3069 -17.3066 -17.3058 -17.3036 -17.3011 -17.3007 -17.3002 -17.3000
   -17.2996 -17.2995 -17.2963 -17.2960 -17.2887 -17.2883 -17.2872 -17.2869
   -17.2853 -17.2824 -17.2801 -17.2791 -17.2781 -17.2776 -17.2747 -17.2747
   -17.2746 -17.2724 -17.2707 -17.2684 -17.2681 -17.2646 -17.2635 -17.2633
   -17.2573 -17.2571 -17.2498 -17.2497 -17.2478 -17.2476 -17.2388 -17.2375
   -17.2374 -17.2367 -17.2348 -17.2340 -17.2329 -17.2328 -17.2238 -17.2236
   -17.2130 -17.2129 -17.2094 -17.2092  -8.9669  -8.9396  -8.9031  -8.8629
    -8.8258  -8.8163  -8.3336  -8.3050  -8.2751  -8.2521  -8.2194  -8.2189
    -3.7300  -3.6521  -3.5393  -3.4095  -3.2909  -3.2161  -2.9110  -2.8436
    -2.7507  -2.6510  -2.5689  -2.5289  -0.0821   0.1058   0.3619   0.5398
     0.6092   0.6326   0.6867   0.7532   0.8011   0.8058   0.8852   1.0535
     1.2746   1.3323   1.3891   1.4489   1.5121   1.5296   1.6708   1.6855
     1.7432   1.8088   1.8840   1.9559   2.3831   2.3910   2.4719   2.6263
     2.7976   2.9288   2.9644   3.0197   3.0995   3.1798   3.2639   3.3347
     4.8780   4.9995   5.1597   5.3146   5.4516   5.5672   5.8139   5.8774
     5.9711   6.0193   6.0964   6.1108   6.4072   6.5065   6.5460   6.5860
     6.6832   6.7816   6.8308   6.9023   6.9751   7.2316   7.3680   7.3925
     7.4471   7.4543   7.6311   7.7006   7.8963   8.2007   8.2810   8.2872
     8.3467   8.3753   8.5862   8.8462   9.2299   9.3924   9.8742  10.4821
    10.6450  10.7527  11.0393  11.0998  11.4718  11.4738  11.6833  11.6964
    11.7974  11.8277  11.8924  11.9251  11.9638  11.9965  11.9967  12.0118
    12.2434  12.3002  12.3852  12.4581  12.4802  12.5019  12.5775  12.6304
    12.6379  12.7156  12.9441  13.0033  13.0853  13.1711  13.2665  13.2968
    13.5334  13.6483  13.6510  13.7651  14.0157  14.0391  14.2035  14.3058
    14.3404  14.5306  14.7363  14.7949  14.9897  15.0674  15.2063  15.2150
    15.3432  15.3672  15.4426  15.5023  15.6496  15.8240  15.8917  15.9252
    15.9274  16.0319  16.2806  16.3428  16.4734  16.5559  16.6800  16.7053
    16.7599  16.7699  16.8644  16.9244  17.0067  17.0578  17.0761  17.1941
    17.4761  17.5300  17.5977  17.6111  17.7179  17.8179  17.8786  17.9128
    18.1740  18.2113  18.2388  18.3972  18.4300  18.5406  18.6578  18.6800
    18.7538  18.7764  18.8583  18.8795  18.8847  18.9053  19.0689  19.1052
    19.1525  19.1733  19.2267  19.2390  19.2864  19.3048  19.3122  19.4286
    19.5485  19.5835  19.5945  19.6567  19.6573  19.7239  19.8000  19.8075
    19.8933  19.9525  20.1124  20.1384  20.1694  20.2220  20.2359  20.4746
    20.5364  20.5578  20.6058  20.8361  20.8443  20.9870  21.0035  21.0680
    21.1051  21.1263  21.2502  21.2902  21.2995  21.3300  21.4117  21.4402
    21.5940  21.6137  21.7219  21.7594

          k = 0.4000 0.0000 0.0000 ( 35553 PWs)   bands (ev):

   -17.3313 -17.3300 -17.3287 -17.3283 -17.3270 -17.3269 -17.3242 -17.3239
   -17.3076 -17.3074 -17.3045 -17.3023 -17.3011 -17.3010 -17.2997 -17.2993
   -17.2987 -17.2986 -17.2955 -17.2952 -17.2887 -17.2883 -17.2870 -17.2868
   -17.2853 -17.2823 -17.2790 -17.2783 -17.2777 -17.2775 -17.2743 -17.2742
   -17.2738 -17.2718 -17.2704 -17.2685 -17.2681 -17.2658 -17.2645 -17.2643
   -17.2566 -17.2564 -17.2499 -17.2498 -17.2487 -17.2485 -17.2379 -17.2379
   -17.2378 -17.2359 -17.2343 -17.2337 -17.2327 -17.2326 -17.2237 -17.2234
   -17.2121 -17.2119 -17.2092 -17.2090  -8.8797  -8.8547  -8.8215  -8.7852
    -8.7505  -8.7432  -8.3503  -8.3285  -8.3072  -8.2931  -8.2546  -8.2545
    -3.7256  -3.6479  -3.5360  -3.4084  -3.2929  -3.2206  -3.0648  -2.9944
    -2.8969  -2.7915  -2.7034  -2.6574   0.0236   0.2071   0.4555   0.5559
     0.6371   0.7125   0.7276   0.7998   0.8514   0.8583   0.9463   1.0846
     1.2844   1.3924   1.4302   1.5127   1.5278   1.5647   1.6242   1.6470
     1.7248   1.8015   1.8800   1.9562   2.4375   2.4533   2.5106   2.6390
     2.7941   2.9017   2.9326   2.9748   3.0362   3.0954   3.1586   3.2096
     4.9592   5.0560   5.1800   5.2895   5.3816   5.4694   5.6743   5.8311
     5.8522   5.9454   5.9721   6.0049   6.3430   6.4657   6.4973   6.5695
     6.6007   6.7232   6.8372   6.8375   6.9103   7.1347   7.2292   7.2729
     7.3013   7.3284   7.5698   7.5751   7.9141   8.1325   8.1462   8.1611
     8.2969   8.3040   8.5235   8.7910   9.3761   9.5067   9.9824  10.5222
    10.7531  10.8107  11.0922  11.2014  11.3797  11.4530  11.6947  11.7049
    11.8455  11.9481  12.0386  12.0869  12.1195  12.1570  12.2671  12.2751
    12.3391  12.3839  12.4364  12.4695  12.5772  12.6040  12.6117  12.6519
    12.7817  12.8372  12.8419  12.8647  13.1565  13.2937  13.3268  13.4727
    13.6835  13.7329  13.8035  13.8686  13.9608  14.0761  14.1824  14.2523
    14.3290  14.6236  14.7445  14.7621  15.0726  15.0946  15.2032  15.2952
    15.3259  15.3786  15.5220  15.5858  15.6527  15.7441  15.7579  15.9415
    15.9646  16.0433  16.2562  16.4095  16.4519  16.5514  16.6235  16.6728
    16.7387  16.7507  16.8475  16.8884  16.9807  17.1178  17.1828  17.2552
    17.2849  17.3290  17.4194  17.6799  17.7071  17.8111  17.9046  17.9313
    17.9868  18.0731  18.1734  18.2684  18.4340  18.4570  18.5494  18.6169
    18.6275  18.6620  18.7217  18.8270  18.9266  19.0002  19.0409  19.0686
    19.1435  19.1444  19.1941  19.2000  19.2813  19.3683  19.4727  19.5190
    19.5479  19.6323  19.7084  19.8070  19.8287  19.8311  19.9864  19.9896
    20.0099  20.0320  20.0665  20.0818  20.2576  20.3078  20.4625  20.5459
    20.6313  20.6338  20.7320  20.8340  20.8633  20.9774  20.9825  21.0276
    21.1856  21.2065  21.3331  21.3568  21.3943  21.4113  21.5322  21.5773
    21.6222  21.7319  21.7769  21.8785

          k = 0.4250 0.0000 0.0000 ( 35582 PWs)   bands (ev):

   -17.3317 -17.3304 -17.3297 -17.3290 -17.3276 -17.3275 -17.3249 -17.3246
   -17.3083 -17.3080 -17.3033 -17.3017 -17.3016 -17.3009 -17.2994 -17.2985
   -17.2979 -17.2975 -17.2950 -17.2947 -17.2887 -17.2884 -17.2866 -17.2865
   -17.2854 -17.2826 -17.2783 -17.2779 -17.2772 -17.2770 -17.2739 -17.2738
   -17.2729 -17.2713 -17.2703 -17.2686 -17.2680 -17.2669 -17.2655 -17.2652
   -17.2559 -17.2557 -17.2499 -17.2498 -17.2495 -17.2493 -17.2383 -17.2382
   -17.2370 -17.2352 -17.2339 -17.2337 -17.2326 -17.2325 -17.2235 -17.2232
   -17.2113 -17.2111 -17.2091 -17.2089  -8.7927  -8.7702  -8.7409  -8.7093
    -8.6770  -8.6720  -8.3759  -8.3617  -8.3496  -8.3438  -8.2956  -8.2955
    -3.7047  -3.6272  -3.5161  -3.3905  -3.2779  -3.2092  -3.2042  -3.1325
    -3.0312  -2.9211  -2.8279  -2.7770   0.1293   0.3072   0.5455   0.5545
     0.6516   0.7570   0.7883   0.8439   0.9017   0.9122   0.9932   1.1008
     1.2985   1.3984   1.5231   1.5312   1.5686   1.5718   1.5815   1.6044
     1.7108   1.7982   1.8723   1.9449   2.4984   2.5122   2.5615   2.6538
     2.7914   2.8802   2.9065   2.9314   2.9694   3.0062   3.0513   3.0886
     5.0626   5.1404   5.2331   5.2978   5.3415   5.3953   5.5540   5.7007
     5.7826   5.8312   5.8639   5.8912   6.3023   6.4252   6.4589   6.5463
     6.5909   6.6788   6.7979   6.8211   6.8704   7.0155   7.1086   7.1625
     7.2029   7.2259   7.4941   7.5855   7.9070   7.9892   8.0449   8.0550
     8.2318   8.3413   8.4607   8.7311   9.5245   9.6219  10.0914  10.5405
    10.8386  10.8783  11.1501  11.1622  11.3977  11.4406  11.6837  11.6900
    11.7871  11.8895  11.9785  12.0146  12.0955  12.2125  12.3357  12.5250
    12.5637  12.5862  12.6067  12.6223  12.6296  12.7215  12.7402  12.8114
    12.8174  12.8681  12.9589  13.0073  13.1471  13.4420  13.4945  13.5938
    13.7707  13.8242  13.8760  13.9343  14.0399  14.0571  14.2651  14.2940
    14.4303  14.6402  14.7062  14.8774  14.9217  15.1714  15.3114  15.3848
    15.3932  15.4146  15.5140  15.6258  15.7020  15.7312  15.7586  15.9434
    15.9701  16.0191  16.1531  16.1607  16.4443  16.4781  16.5556  16.6431
    16.6850  16.6984  16.8449  16.8473  16.9821  17.0293  17.0681  17.1153
    17.2927  17.3452  17.4825  17.5124  17.6508  17.6605  17.7387  17.8730
    17.9613  18.0149  18.1562  18.2523  18.3016  18.3053  18.3617  18.4649
    18.5229  18.5668  18.6802  18.7508  18.7939  18.8074  18.9415  18.9447
    19.1053  19.2069  19.2425  19.2584  19.4193  19.4558  19.5338  19.5584
    19.6766  19.6924  19.7412  19.8602  19.8799  19.9762  20.0004  20.0657
    20.1582  20.2108  20.3117  20.3537  20.4177  20.4297  20.5085  20.6002
    20.6757  20.7215  20.8467  20.9499  20.9881  21.0108  21.1544  21.1640
    21.2648  21.3119  21.3128  21.3400  21.3692  21.5376  21.6612  21.7350
    21.7660  21.8230  21.8674  21.9443

          k = 0.4500 0.0000 0.0000 ( 35574 PWs)   bands (ev):

   -17.3318 -17.3307 -17.3303 -17.3296 -17.3281 -17.3279 -17.3254 -17.3251
   -17.3088 -17.3085 -17.3022 -17.3021 -17.3019 -17.3000 -17.2994 -17.2982
   -17.2971 -17.2967 -17.2947 -17.2944 -17.2887 -17.2885 -17.2864 -17.2859
   -17.2855 -17.2831 -17.2780 -17.2777 -17.2767 -17.2765 -17.2736 -17.2735
   -17.2720 -17.2708 -17.2702 -17.2686 -17.2679 -17.2678 -17.2663 -17.2659
   -17.2553 -17.2551 -17.2502 -17.2500 -17.2500 -17.2498 -17.2385 -17.2385
   -17.2361 -17.2346 -17.2339 -17.2335 -17.2325 -17.2324 -17.2234 -17.2231
   -17.2106 -17.2104 -17.2091 -17.2090  -8.7071  -8.6875  -8.6627  -8.6367
    -8.6074  -8.6043  -8.4109  -8.4060  -8.4021  -8.4017  -8.3414  -8.3413
    -3.6663  -3.5889  -3.4788  -3.3558  -3.3311  -3.2605  -3.2414  -3.1787
    -3.1505  -3.0378  -2.9404  -2.8855   0.2320   0.4027   0.5304   0.6266
     0.6469   0.7754   0.8480   0.8805   0.9482   0.9643   1.0217   1.1010
     1.3224   1.4085   1.5159   1.5255   1.5633   1.5774   1.6115   1.6142
     1.7020   1.8006   1.8643   1.9197   2.5663   2.5715   2.6232   2.6762
     2.7912   2.8518   2.8695   2.8838   2.9106   2.9296   2.9581   2.9854
     5.1786   5.2423   5.3086   5.3306   5.3357   5.3555   5.4584   5.5839
     5.6828   5.7051   5.7537   5.7717   6.2913   6.3995   6.4375   6.5213
     6.5831   6.6631   6.7613   6.7864   6.8559   6.9030   7.0046   7.0633
     7.1683   7.1755   7.4816   7.6180   7.8333   7.8433   7.9757   8.0054
     8.1992   8.3655   8.4262   8.6678   9.6638   9.7268  10.1951  10.5230
    10.8302  11.0112  11.0199  11.2583  11.4629  11.4895  11.6456  11.6697
    11.7085  11.8162  11.8686  11.9623  11.9811  12.2123  12.3355  12.4208
    12.4928  12.7093  12.7650  12.7925  12.8143  12.8945  12.9479  12.9504
    13.0336  13.0383  13.0860  13.1437  13.2376  13.4578  13.6534  13.6712
    13.8299  13.8795  13.9721  14.0179  14.0737  14.1675  14.2756  14.4399
    14.5924  14.6099  14.7398  14.7742  15.0526  15.2784  15.3316  15.3990
    15.4728  15.5024  15.5175  15.6939  15.7376  15.7728  15.8159  15.8787
    15.9037  15.9619  15.9943  16.0388  16.3430  16.3465  16.3985  16.5341
    16.5574  16.6599  16.7880  16.8133  16.8674  16.9060  16.9487  17.1874
    17.2791  17.3692  17.4819  17.4845  17.5460  17.5574  17.6777  17.7517
    17.8132  17.9171  18.1173  18.2217  18.2279  18.2916  18.3386  18.3699
    18.4317  18.4798  18.5251  18.5645  18.6006  18.6868  18.8315  18.9781
    19.1777  19.2458  19.2651  19.3407  19.3654  19.4902  19.5009  19.5233
    19.7036  19.7473  19.7956  19.9600  19.9956  20.1207  20.1757  20.2245
    20.2601  20.3029  20.3616  20.3875  20.5512  20.5606  20.6481  20.6721
    20.8624  20.8847  20.9426  20.9569  21.0368  21.1006  21.2552  21.3262
    21.3350  21.3564  21.4589  21.5091  21.5358  21.6542  21.7394  21.7983
    21.8092  21.8732  21.8940  21.9555

          k = 0.4750 0.0000 0.0000 ( 35584 PWs)   bands (ev):

   -17.3318 -17.3312 -17.3305 -17.3301 -17.3283 -17.3282 -17.3257 -17.3254
   -17.3091 -17.3088 -17.3023 -17.3023 -17.3011 -17.2997 -17.2991 -17.2982
   -17.2964 -17.2962 -17.2945 -17.2943 -17.2887 -17.2885 -17.2862 -17.2857
   -17.2852 -17.2838 -17.2779 -17.2776 -17.2763 -17.2761 -17.2734 -17.2734
   -17.2711 -17.2706 -17.2701 -17.2691 -17.2682 -17.2675 -17.2671 -17.2665
   -17.2549 -17.2547 -17.2507 -17.2504 -17.2500 -17.2498 -17.2387 -17.2386
   -17.2354 -17.2343 -17.2340 -17.2335 -17.2324 -17.2323 -17.2233 -17.2230
   -17.2100 -17.2099 -17.2093 -17.2091  -8.6241  -8.6081  -8.5887  -8.5695
    -8.5457  -8.5440  -8.4712  -8.4637  -8.4567  -8.4540  -8.3883  -8.3882
    -3.6097  -3.5327  -3.4418  -3.4243  -3.3653  -3.3043  -3.2566  -3.1965
    -3.1381  -3.1287  -3.0387  -2.9810   0.3282   0.4818   0.4902   0.6156
     0.6970   0.7732   0.8894   0.9038   0.9866   1.0084   1.0334   1.0860
     1.3584   1.4283   1.4596   1.4982   1.5464   1.5639   1.6423   1.6789
     1.7084   1.8002   1.8599   1.8848   2.6383   2.6400   2.6880   2.7111
     2.7930   2.7972   2.8013   2.8157   2.8524   2.8854   2.9197   2.9245
     5.2983   5.3176   5.3396   5.3588   5.3991   5.4107   5.4184   5.4880
     5.5673   5.5834   5.6369   5.6498   6.3070   6.3800   6.4301   6.5033
     6.5701   6.6580   6.7031   6.8007   6.8102   6.8708   6.9162   6.9786
     7.1722   7.1728   7.5226   7.6477   7.7164   7.7483   7.9335   7.9711
     8.2137   8.3159   8.4736   8.6025   9.7738   9.8035  10.2892  10.4625
    10.8168  10.9029  11.1735  11.3732  11.4974  11.5119  11.5306  11.6418
    11.6964  11.7447  11.7754  11.9810  11.9829  12.0722  12.2869  12.3276
    12.5029  12.7519  12.8255  12.8899  12.9547  13.0132  13.0364  13.0887
    13.1354  13.1888  13.2071  13.2280  13.3407  13.4404  13.7335  13.7480
    13.9048  13.9272  14.1160  14.1331  14.1661  14.2042  14.3581  14.4732
    14.5046  14.5834  14.6972  15.0414  15.1581  15.2309  15.4120  15.4740
    15.4982  15.5664  15.6110  15.7066  15.7098  15.7522  15.7852  15.8272
    15.8561  15.8862  15.9082  16.0063  16.1450  16.2090  16.4032  16.4242
    16.4665  16.5689  16.7183  16.7191  16.7820  16.8414  16.9478  17.1047
    17.3123  17.3305  17.3695  17.4553  17.4983  17.6103  17.6447  17.8038
    17.8407  17.8635  17.9037  18.0875  18.2211  18.2360  18.2772  18.3273
    18.3577  18.4227  18.4841  18.4979  18.5524  18.6728  18.7876  18.8776
    19.1358  19.1733  19.3335  19.3653  19.4278  19.4965  19.5322  19.6408
    19.6502  19.6852  19.8659  20.0136  20.0421  20.1209  20.2168  20.2570
    20.3275  20.3461  20.5161  20.5512  20.6881  20.7092  20.7611  20.7887
    20.8459  20.9039  20.9335  21.0102  21.1481  21.1489  21.2978  21.3466
    21.4630  21.4681  21.5466  21.6412  21.7244  21.7414  21.7785  21.7787
    21.8506  21.8912  21.9380  21.9464

          k = 0.5000 0.0000 0.0000 ( 35608 PWs)   bands (ev):

   -17.3316 -17.3316 -17.3304 -17.3303 -17.3284 -17.3283 -17.3258 -17.3255
   -17.3092 -17.3089 -17.3024 -17.3024 -17.3003 -17.3003 -17.2986 -17.2985
   -17.2961 -17.2961 -17.2945 -17.2943 -17.2886 -17.2886 -17.2860 -17.2859
   -17.2845 -17.2845 -17.2779 -17.2776 -17.2762 -17.2760 -17.2734 -17.2733
   -17.2706 -17.2704 -17.2699 -17.2699 -17.2677 -17.2677 -17.2670 -17.2670
   -17.2547 -17.2545 -17.2508 -17.2506 -17.2500 -17.2499 -17.2387 -17.2387
   -17.2348 -17.2347 -17.2337 -17.2336 -17.2323 -17.2323 -17.2233 -17.2230
   -17.2096 -17.2096 -17.2095 -17.2093  -8.5453  -8.5453  -8.5348  -8.5347
    -8.5228  -8.5227  -8.5107  -8.5106  -8.5033  -8.5033  -8.4164  -8.4163
    -3.5348  -3.5348  -3.4585  -3.4585  -3.3505  -3.3505  -3.2304  -3.2303
    -3.1244  -3.1244  -3.0611  -3.0611   0.4134   0.4134   0.5624   0.5624
     0.7468   0.7468   0.9080   0.9081   1.0124   1.0124   1.0581   1.0582
     1.4049   1.4049   1.4606   1.4606   1.5508   1.5509   1.6660   1.6661
     1.7697   1.7697   1.8625   1.8626   2.7118   2.7119   2.7185   2.7186
     2.7477   2.7477   2.7732   2.7733   2.8412   2.8412   2.9148   2.9148
     5.3281   5.3281   5.3964   5.3964   5.4428   5.4429   5.4727   5.4728
     5.5212   5.5213   5.5322   5.5322   6.3414   6.3415   6.4617   6.4618
     6.6036   6.6036   6.7360   6.7361   6.8468   6.8469   6.9136   6.9136
     7.1790   7.1791   7.5998   7.5998   7.6917   7.6918   7.9375   7.9375
     8.2589   8.2589   8.5369   8.5369   9.8252   9.8252  10.3776  10.3776
    10.8367  10.8367  11.3403  11.3403  11.4705  11.4706  11.6114  11.6114
    11.6387  11.6387  11.9083  11.9084  12.0199  12.0200  12.2434  12.2435
    12.6392  12.6392  12.8998  12.8998  13.0227  13.0228  13.1001  13.1001
    13.1948  13.1949  13.2557  13.2557  13.4140  13.4141  13.7657  13.7658
    13.9573  13.9574  14.1748  14.1748  14.2877  14.2877  14.3557  14.3557
    14.4847  14.4848  14.9367  14.9367  15.2041  15.2041  15.5222  15.5222
    15.6192  15.6192  15.6484  15.6484  15.6773  15.6774  15.7639  15.7639
    15.8295  15.8296  15.9289  15.9290  16.1032  16.1033  16.4482  16.4482
    16.5437  16.5437  16.5655  16.5656  16.8433  16.8433  16.9613  16.9613
    17.3079  17.3079  17.3934  17.3934  17.6061  17.6062  17.6547  17.6547
    17.8853  17.8854  18.0515  18.0515  18.0762  18.0762  18.2952  18.2952
    18.3379  18.3379  18.5331  18.5332  18.5765  18.5765  18.9194  18.9194
    18.9985  18.9985  19.3755  19.3756  19.5239  19.5239  19.6075  19.6075
    19.7021  19.7021  19.9114  19.9115  19.9544  19.9544  20.3945  20.3945
    20.4671  20.4671  20.5404  20.5404  20.5969  20.5969  20.7625  20.7625
    20.9909  20.9909  21.0677  21.0678  21.0933  21.0933  21.3882  21.3882
    21.4741  21.4741  21.5960  21.5960  21.6614  21.6614  21.8354  21.8354
    21.9028  21.9029  21.9866  21.9867

          k = 0.5000 0.0218 0.0000 ( 35608 PWs)   bands (ev):

   -17.3317 -17.3317 -17.3305 -17.3304 -17.3284 -17.3284 -17.3258 -17.3255
   -17.3092 -17.3090 -17.3025 -17.3024 -17.3003 -17.3003 -17.2986 -17.2985
   -17.2961 -17.2961 -17.2945 -17.2943 -17.2886 -17.2886 -17.2859 -17.2859
   -17.2845 -17.2845 -17.2778 -17.2776 -17.2762 -17.2760 -17.2734 -17.2733
   -17.2707 -17.2705 -17.2699 -17.2699 -17.2677 -17.2677 -17.2669 -17.2669
   -17.2547 -17.2545 -17.2508 -17.2506 -17.2499 -17.2498 -17.2387 -17.2387
   -17.2348 -17.2348 -17.2337 -17.2336 -17.2323 -17.2323 -17.2233 -17.2230
   -17.2096 -17.2096 -17.2095 -17.2093  -8.5442  -8.5442  -8.5337  -8.5336
    -8.5217  -8.5216  -8.5096  -8.5096  -8.5023  -8.5022  -8.4154  -8.4153
    -3.5320  -3.5320  -3.4558  -3.4558  -3.3481  -3.3481  -3.2283  -3.2282
    -3.1225  -3.1225  -3.0595  -3.0595   0.4084   0.4084   0.5550   0.5550
     0.7358   0.7358   0.8938   0.8939   0.9973   0.9973   1.0437   1.0437
     1.3818   1.3818   1.4434   1.4434   1.5421   1.5421   1.6665   1.6666
     1.7781   1.7781   1.8650   1.8652   2.7054   2.7054   2.7120   2.7120
     2.7330   2.7330   2.7773   2.7774   2.8521   2.8521   2.9174   2.9174
     5.3075   5.3075   5.3876   5.3876   5.4539   5.4540   5.4778   5.4779
     5.5237   5.5238   5.5363   5.5363   6.3570   6.3570   6.4798   6.4799
     6.6288   6.6289   6.7695   6.7696   6.8856   6.8856   6.9550   6.9550
     7.1884   7.1885   7.6072   7.6072   7.6969   7.6969   7.9385   7.9385
     8.2560   8.2560   8.5313   8.5313   9.8262   9.8263  10.3801  10.3801
    10.8344  10.8344  11.2388  11.2388  11.4047  11.4048  11.6506  11.6507
    11.7244  11.7244  11.8612  11.8612  12.0589  12.0590  12.2727  12.2727
    12.6347  12.6347  12.8913  12.8914  12.9924  12.9924  13.1227  13.1227
    13.2122  13.2123  13.2653  13.2654  13.4140  13.4141  13.7752  13.7753
    13.9641  13.9642  14.1681  14.1681  14.2501  14.2501  14.3788  14.3788
    14.5365  14.5365  14.9404  14.9404  15.2101  15.2101  15.5152  15.5153
    15.6234  15.6234  15.6497  15.6497  15.6791  15.6792  15.7658  15.7658
    15.8308  15.8309  15.9324  15.9325  16.1105  16.1106  16.4103  16.4103
    16.5207  16.5207  16.6149  16.6149  16.7809  16.7809  16.9519  16.9519
    17.2937  17.2938  17.3929  17.3929  17.4669  17.4669  17.6618  17.6618
    17.8880  17.8881  18.0623  18.0624  18.1961  18.1961  18.2721  18.2721
    18.3263  18.3263  18.5419  18.5419  18.5930  18.5930  18.9400  18.9400
    19.0515  19.0515  19.3342  19.3343  19.5205  19.5205  19.5702  19.5702
    19.7033  19.7033  19.9480  19.9480  19.9878  19.9878  20.3071  20.3071
    20.4013  20.4013  20.5717  20.5717  20.6296  20.6296  20.7805  20.7806
    20.9572  20.9572  21.0015  21.0015  21.1430  21.1430  21.3824  21.3824
    21.4627  21.4628  21.5775  21.5775  21.6515  21.6515  21.8386  21.8386
    21.9038  21.9038  21.9476  21.9476

          k = 0.5000 0.0436 0.0000 ( 35612 PWs)   bands (ev):

   -17.3319 -17.3319 -17.3306 -17.3305 -17.3286 -17.3285 -17.3260 -17.3257
   -17.3094 -17.3091 -17.3026 -17.3025 -17.3004 -17.3004 -17.2986 -17.2986
   -17.2962 -17.2961 -17.2945 -17.2943 -17.2885 -17.2885 -17.2859 -17.2859
   -17.2844 -17.2844 -17.2778 -17.2775 -17.2762 -17.2760 -17.2734 -17.2733
   -17.2707 -17.2705 -17.2699 -17.2699 -17.2676 -17.2676 -17.2667 -17.2667
   -17.2546 -17.2545 -17.2508 -17.2505 -17.2498 -17.2497 -17.2387 -17.2386
   -17.2349 -17.2348 -17.2337 -17.2336 -17.2323 -17.2323 -17.2233 -17.2230
   -17.2096 -17.2096 -17.2095 -17.2093  -8.5408  -8.5408  -8.5303  -8.5302
    -8.5185  -8.5184  -8.5065  -8.5064  -8.4992  -8.4992  -8.4123  -8.4122
    -3.5235  -3.5235  -3.4478  -3.4478  -3.3409  -3.3409  -3.2219  -3.2218
    -3.1171  -3.1171  -3.0548  -3.0547   0.3927   0.3927   0.5327   0.5327
     0.7032   0.7033   0.8522   0.8523   0.9526   0.9526   1.0013   1.0014
     1.3265   1.3265   1.4005   1.4005   1.5181   1.5181   1.6628   1.6629
     1.7911   1.7911   1.8700   1.8701   2.6745   2.6745   2.6811   2.6811
     2.7155   2.7156   2.7858   2.7858   2.8733   2.8733   2.9317   2.9317
     5.2613   5.2614   5.3608   5.3608   5.4672   5.4673   5.5062   5.5062
     5.5377   5.5377   5.5551   5.5551   6.4098   6.4098   6.5376   6.5376
     6.7013   6.7013   6.8592   6.8593   6.9872   6.9872   7.0668   7.0668
     7.2212   7.2213   7.6303   7.6303   7.7133   7.7133   7.9423   7.9423
     8.2481   8.2481   8.5150   8.5150   9.8293   9.8293  10.3874  10.3874
    10.8230  10.8230  11.0815  11.0815  11.2757  11.2757  11.6577  11.6578
    11.7535  11.7535  11.9158  11.9158  12.1317  12.1317  12.3163  12.3164
    12.6428  12.6428  12.8663  12.8663  12.9387  12.9387  13.1520  13.1520
    13.2538  13.2539  13.3023  13.3023  13.4216  13.4217  13.8003  13.8003
    13.9818  13.9818  14.1635  14.1635  14.1833  14.1833  14.4460  14.4460
    14.6338  14.6338  14.9518  14.9519  15.2241  15.2241  15.5059  15.5059
    15.6163  15.6164  15.6575  15.6576  15.6896  15.6896  15.7717  15.7717
    15.8354  15.8354  15.9430  15.9431  16.1270  16.1271  16.3294  16.3294
    16.4949  16.4949  16.6531  16.6531  16.6995  16.6995  16.8675  16.8675
    17.1833  17.1834  17.3095  17.3095  17.4243  17.4243  17.6214  17.6214
    17.9265  17.9265  18.0487  18.0487  18.1528  18.1528  18.2549  18.2549
    18.4970  18.4970  18.5944  18.5944  18.6528  18.6528  18.9472  18.9472
    19.1710  19.1710  19.2949  19.2949  19.3840  19.3840  19.5861  19.5861
    19.7182  19.7182  19.9827  19.9827  20.0847  20.0847  20.1749  20.1749
    20.2801  20.2801  20.5083  20.5083  20.7269  20.7269  20.7996  20.7996
    20.8332  20.8332  20.9960  20.9960  21.1443  21.1443  21.3489  21.3489
    21.4390  21.4391  21.5214  21.5214  21.6201  21.6201  21.8328  21.8328
    21.8806  21.8806  21.9247  21.9247

          k = 0.5000 0.0655 0.0000 ( 35560 PWs)   bands (ev):

   -17.3322 -17.3322 -17.3308 -17.3307 -17.3288 -17.3287 -17.3262 -17.3259
   -17.3096 -17.3094 -17.3028 -17.3027 -17.3005 -17.3005 -17.2986 -17.2986
   -17.2962 -17.2961 -17.2945 -17.2943 -17.2884 -17.2884 -17.2858 -17.2857
   -17.2842 -17.2842 -17.2776 -17.2774 -17.2762 -17.2760 -17.2734 -17.2733
   -17.2708 -17.2706 -17.2699 -17.2698 -17.2674 -17.2674 -17.2665 -17.2665
   -17.2546 -17.2544 -17.2507 -17.2504 -17.2496 -17.2495 -17.2386 -17.2385
   -17.2349 -17.2349 -17.2336 -17.2335 -17.2323 -17.2322 -17.2233 -17.2230
   -17.2096 -17.2095 -17.2095 -17.2093  -8.5352  -8.5352  -8.5249  -8.5248
    -8.5132  -8.5131  -8.5013  -8.5013  -8.4942  -8.4942  -8.4072  -8.4071
    -3.5096  -3.5095  -3.4347  -3.4346  -3.3289  -3.3289  -3.2115  -3.2114
    -3.1082  -3.1082  -3.0470  -3.0470   0.3653   0.3653   0.4947   0.4947
     0.6502   0.6502   0.7864   0.7865   0.8808   0.8808   0.9352   0.9353
     1.2606   1.2606   1.3461   1.3461   1.4833   1.4833   1.6482   1.6483
     1.7916   1.7916   1.8696   1.8696   2.6058   2.6058   2.6372   2.6372
     2.6972   2.6973   2.7902   2.7902   2.8939   2.8939   2.9651   2.9652
     5.2064   5.2064   5.3302   5.3302   5.4699   5.4700   5.5656   5.5656
     5.5730   5.5730   5.6044   5.6045   6.5054   6.5054   6.6350   6.6350
     6.8098   6.8098   6.9811   6.9811   7.1180   7.1180   7.2186   7.2186
     7.2993   7.2994   7.6716   7.6716   7.7442   7.7443   7.9513   7.9513
     8.2366   8.2366   8.4894   8.4894   9.8340   9.8340  10.3983  10.3983
    10.7789  10.7789  10.9579  10.9579  11.1372  11.1372  11.6203  11.6203
    11.6707  11.6708  12.0911  12.0911  12.1593  12.1594  12.3491  12.3491
    12.6734  12.6734  12.8371  12.8371  12.9054  12.9054  13.1673  13.1674
    13.3156  13.3156  13.3528  13.3529  13.4498  13.4499  13.8354  13.8354
    14.0057  14.0057  14.1257  14.1257  14.1877  14.1877  14.5331  14.5331
    14.7400  14.7400  14.9719  14.9719  15.2362  15.2362  15.5075  15.5075
    15.5976  15.5976  15.6551  15.6552  15.7102  15.7102  15.7834  15.7834
    15.8438  15.8439  15.9602  15.9603  16.1237  16.1237  16.2469  16.2469
    16.4317  16.4317  16.5784  16.5784  16.6978  16.6978  16.7848  16.7848
    17.0150  17.0150  17.1771  17.1772  17.4365  17.4365  17.6623  17.6624
    17.8583  17.8583  17.9605  17.9605  18.1113  18.1113  18.2798  18.2799
    18.5739  18.5739  18.6912  18.6912  18.7837  18.7838  18.9772  18.9772
    19.1448  19.1448  19.2859  19.2859  19.3572  19.3572  19.6438  19.6438
    19.7070  19.7071  19.9967  19.9967  20.0295  20.0295  20.1208  20.1208
    20.2441  20.2441  20.4498  20.4498  20.6591  20.6591  20.7416  20.7416
    20.8447  20.8448  21.0144  21.0144  21.1129  21.1129  21.2562  21.2562
    21.3954  21.3954  21.4821  21.4821  21.5706  21.5706  21.7816  21.7816
    21.8797  21.8797  21.9197  21.9197

          k = 0.5000 0.0873 0.0000 ( 35540 PWs)   bands (ev):

   -17.3326 -17.3326 -17.3311 -17.3311 -17.3291 -17.3291 -17.3265 -17.3262
   -17.3100 -17.3097 -17.3031 -17.3030 -17.3006 -17.3006 -17.2987 -17.2987
   -17.2962 -17.2962 -17.2946 -17.2944 -17.2883 -17.2882 -17.2856 -17.2856
   -17.2840 -17.2840 -17.2775 -17.2772 -17.2763 -17.2760 -17.2734 -17.2733
   -17.2708 -17.2707 -17.2698 -17.2698 -17.2672 -17.2672 -17.2661 -17.2661
   -17.2545 -17.2543 -17.2505 -17.2503 -17.2494 -17.2493 -17.2385 -17.2384
   -17.2351 -17.2350 -17.2336 -17.2334 -17.2322 -17.2322 -17.2233 -17.2230
   -17.2096 -17.2095 -17.2095 -17.2093  -8.5275  -8.5275  -8.5174  -8.5173
    -8.5059  -8.5058  -8.4943  -8.4942  -8.4873  -8.4873  -8.4002  -8.4002
    -3.4902  -3.4902  -3.4164  -3.4164  -3.3124  -3.3124  -3.1971  -3.1970
    -3.0959  -3.0959  -3.0364  -3.0364   0.3240   0.3240   0.4405   0.4405
     0.5790   0.5790   0.7017   0.7018   0.7884   0.7884   0.8525   0.8526
     1.1950   1.1951   1.2887   1.2887   1.4414   1.4415   1.6209   1.6210
     1.7736   1.7736   1.8549   1.8549   2.5185   2.5185   2.5757   2.5757
     2.6655   2.6655   2.7853   2.7854   2.9132   2.9132   3.0080   3.0080
     5.1568   5.1568   5.3100   5.3100   5.4865   5.4865   5.6171   5.6172
     5.6659   5.6659   5.6902   5.6903   6.6378   6.6378   6.7609   6.7610
     6.9356   6.9356   7.1067   7.1068   7.2456   7.2456   7.3782   7.3782
     7.4534   7.4534   7.7380   7.7380   7.7969   7.7969   7.9709   7.9709
     8.2250   8.2250   8.4567   8.4567   9.8400   9.8400  10.4096  10.4096
    10.6756  10.6756  10.9030  10.9030  11.0102  11.0102  11.5256  11.5256
    11.6415  11.6416  12.1181  12.1181  12.2254  12.2254  12.3447  12.3447
    12.7039  12.7039  12.8289  12.8289  12.9331  12.9331  13.1899  13.1900
    13.3603  13.3603  13.4230  13.4231  13.4947  13.4947  13.8799  13.8799
    14.0334  14.0334  14.1065  14.1065  14.2417  14.2417  14.6257  14.6257
    14.8405  14.8405  15.0064  15.0064  15.2390  15.2391  15.5203  15.5204
    15.5759  15.5759  15.6409  15.6410  15.7213  15.7213  15.8001  15.8001
    15.8528  15.8528  15.9795  15.9796  16.0458  16.0458  16.1966  16.1967
    16.3483  16.3483  16.4574  16.4574  16.6808  16.6808  16.7736  16.7737
    16.8854  16.8854  17.0556  17.0556  17.4327  17.4327  17.6571  17.6571
    17.7829  17.7829  17.8551  17.8551  18.0934  18.0934  18.3077  18.3077
    18.5536  18.5536  18.7105  18.7105  18.8304  18.8305  18.9374  18.9374
    19.1248  19.1248  19.3569  19.3569  19.4654  19.4654  19.6372  19.6372
    19.7184  19.7184  19.8994  19.8994  19.9841  19.9842  20.1370  20.1370
    20.2609  20.2609  20.4003  20.4003  20.5519  20.5519  20.6896  20.6896
    20.8497  20.8498  20.9927  20.9927  21.0832  21.0833  21.1869  21.1869
    21.3496  21.3496  21.4642  21.4642  21.5228  21.5228  21.7299  21.7300
    21.8292  21.8292  21.8899  21.8899

          k = 0.5000 0.1091 0.0000 ( 35518 PWs)   bands (ev):

   -17.3330 -17.3330 -17.3315 -17.3314 -17.3295 -17.3294 -17.3269 -17.3266
   -17.3104 -17.3101 -17.3034 -17.3034 -17.3008 -17.3008 -17.2988 -17.2987
   -17.2962 -17.2962 -17.2947 -17.2944 -17.2881 -17.2880 -17.2854 -17.2854
   -17.2838 -17.2838 -17.2773 -17.2770 -17.2763 -17.2761 -17.2734 -17.2733
   -17.2709 -17.2707 -17.2697 -17.2697 -17.2670 -17.2669 -17.2657 -17.2657
   -17.2544 -17.2542 -17.2504 -17.2502 -17.2491 -17.2489 -17.2383 -17.2382
   -17.2352 -17.2352 -17.2335 -17.2334 -17.2321 -17.2321 -17.2233 -17.2230
   -17.2096 -17.2095 -17.2095 -17.2093  -8.5180  -8.5179  -8.5080  -8.5079
    -8.4968  -8.4967  -8.4855  -8.4854  -8.4788  -8.4787  -8.3916  -8.3915
    -3.4657  -3.4657  -3.3934  -3.3934  -3.2916  -3.2916  -3.1791  -3.1790
    -3.0807  -3.0807  -3.0232  -3.0232   0.2669   0.2669   0.3699   0.3699
     0.4930   0.4930   0.6049   0.6050   0.6850   0.6850   0.7603   0.7604
     1.1321   1.1322   1.2311   1.2311   1.3937   1.3938   1.5810   1.5811
     1.7373   1.7374   1.8210   1.8210   2.4200   2.4200   2.5008   2.5008
     2.6206   2.6206   2.7703   2.7704   2.9270   2.9270   3.0462   3.0462
     5.1265   5.1265   5.3113   5.3113   5.5271   5.5271   5.6971   5.6971
     5.7823   5.7823   5.8135   5.8136   6.7937   6.7938   6.8972   6.8972
     7.0570   7.0570   7.2214   7.2214   7.3740   7.3740   7.5376   7.5376
     7.6412   7.6413   7.8454   7.8454   7.8830   7.8830   8.0112   8.0112
     8.2202   8.2202   8.4218   8.4218   9.8465   9.8466  10.4109  10.4109
    10.5604  10.5604  10.8627  10.8627  10.9217  10.9217  11.4424  11.4424
    11.6101  11.6102  12.0700  12.0700  12.2264  12.2264  12.3071  12.3071
    12.7266  12.7266  12.8764  12.8764  12.9966  12.9966  13.2248  13.2248
    13.4059  13.4060  13.4900  13.4900  13.5483  13.5483  13.9378  13.9379
    14.0594  14.0594  14.1509  14.1509  14.3230  14.3230  14.7155  14.7155
    14.9077  14.9078  15.0761  15.0762  15.2303  15.2303  15.5261  15.5262
    15.5580  15.5580  15.6212  15.6212  15.7176  15.7176  15.7992  15.7992
    15.8421  15.8421  15.9483  15.9484  15.9863  15.9863  16.1239  16.1239
    16.2658  16.2659  16.3962  16.3962  16.6463  16.6463  16.7488  16.7488
    16.8277  16.8277  16.9902  16.9902  17.3806  17.3806  17.5399  17.5399
    17.7580  17.7581  17.8254  17.8254  18.0268  18.0269  18.3122  18.3123
    18.4629  18.4629  18.6530  18.6530  18.7249  18.7250  18.8547  18.8547
    19.1836  19.1836  19.3989  19.3989  19.5949  19.5949  19.6429  19.6429
    19.7375  19.7375  19.7823  19.7823  20.0357  20.0357  20.1446  20.1446
    20.2354  20.2354  20.4008  20.4008  20.5204  20.5204  20.6441  20.6441
    20.7617  20.7617  20.9208  20.9208  21.0981  21.0981  21.1546  21.1546
    21.3589  21.3589  21.4404  21.4404  21.5133  21.5134  21.6729  21.6729
    21.7399  21.7399  21.9052  21.9052

          k = 0.5000 0.1309 0.0000 ( 35484 PWs)   bands (ev):

   -17.3336 -17.3336 -17.3320 -17.3319 -17.3299 -17.3299 -17.3273 -17.3270
   -17.3108 -17.3106 -17.3039 -17.3038 -17.3010 -17.3009 -17.2989 -17.2988
   -17.2963 -17.2963 -17.2947 -17.2945 -17.2878 -17.2878 -17.2852 -17.2852
   -17.2835 -17.2835 -17.2771 -17.2768 -17.2763 -17.2761 -17.2733 -17.2733
   -17.2710 -17.2708 -17.2696 -17.2695 -17.2667 -17.2666 -17.2652 -17.2652
   -17.2542 -17.2540 -17.2502 -17.2500 -17.2487 -17.2486 -17.2381 -17.2380
   -17.2353 -17.2353 -17.2335 -17.2333 -17.2320 -17.2320 -17.2233 -17.2230
   -17.2096 -17.2095 -17.2095 -17.2093  -8.5066  -8.5066  -8.4969  -8.4968
    -8.4861  -8.4860  -8.4751  -8.4751  -8.4687  -8.4687  -8.3814  -8.3813
    -3.4363  -3.4363  -3.3658  -3.3658  -3.2669  -3.2669  -3.1578  -3.1577
    -3.0627  -3.0627  -3.0078  -3.0078   0.1930   0.1930   0.2845   0.2845
     0.3964   0.3964   0.5026   0.5027   0.5803   0.5803   0.6639   0.6640
     1.0706   1.0707   1.1723   1.1723   1.3394   1.3394   1.5286   1.5287
     1.6844   1.6844   1.7677   1.7677   2.3173   2.3173   2.4187   2.4187
     2.5669   2.5669   2.7462   2.7463   2.9301   2.9301   3.0698   3.0698
     5.1261   5.1261   5.3405   5.3405   5.5946   5.5946   5.8052   5.8052
     5.9233   5.9233   5.9669   5.9669   6.9527   6.9528   7.0254   7.0254
     7.1658   7.1659   7.3313   7.3313   7.4948   7.4948   7.6716   7.6716
     7.8247   7.8248   8.0037   8.0037   8.0126   8.0126   8.0891   8.0891
     8.2369   8.2369   8.3950   8.3950   9.8526   9.8527  10.3664  10.3664
    10.4923  10.4923  10.7964  10.7964  10.8940  10.8940  11.3825  11.3825
    11.5736  11.5737  12.0046  12.0047  12.1450  12.1450  12.2609  12.2609
    12.7222  12.7222  12.9710  12.9710  13.0327  13.0327  13.2761  13.2761
    13.4416  13.4416  13.5682  13.5682  13.6118  13.6118  14.0173  14.0173
    14.0960  14.0960  14.2605  14.2605  14.4159  14.4160  14.7830  14.7830
    14.9464  14.9464  15.1777  15.1777  15.2059  15.2060  15.4920  15.4920
    15.5367  15.5367  15.6233  15.6234  15.6874  15.6874  15.7357  15.7357
    15.8041  15.8041  15.9098  15.9098  15.9701  15.9702  16.1013  16.1014
    16.1622  16.1622  16.3753  16.3753  16.6075  16.6075  16.7117  16.7117
    16.8398  16.8398  16.9520  16.9520  17.3063  17.3063  17.4183  17.4183
    17.7218  17.7218  17.8023  17.8024  17.9247  17.9247  18.2376  18.2376
    18.3169  18.3170  18.4911  18.4911  18.6408  18.6408  18.8309  18.8309
    19.1455  19.1456  19.4015  19.4015  19.5666  19.5666  19.6583  19.6583
    19.7197  19.7197  19.8556  19.8557  19.9967  19.9967  20.2299  20.2299
    20.3376  20.3377  20.4166  20.4166  20.4561  20.4562  20.5683  20.5683
    20.7641  20.7641  20.8665  20.8665  21.0051  21.0052  21.2315  21.2315
    21.3183  21.3183  21.4526  21.4526  21.5305  21.5305  21.6453  21.6453
    21.7400  21.7400  21.9138  21.9138

          k = 0.5000 0.1528 0.0000 ( 35496 PWs)   bands (ev):

   -17.3343 -17.3343 -17.3325 -17.3324 -17.3304 -17.3303 -17.3278 -17.3276
   -17.3114 -17.3111 -17.3043 -17.3043 -17.3012 -17.3012 -17.2990 -17.2990
   -17.2964 -17.2963 -17.2948 -17.2946 -17.2876 -17.2876 -17.2849 -17.2849
   -17.2832 -17.2832 -17.2768 -17.2766 -17.2764 -17.2761 -17.2733 -17.2732
   -17.2710 -17.2709 -17.2694 -17.2694 -17.2663 -17.2663 -17.2647 -17.2647
   -17.2540 -17.2538 -17.2500 -17.2498 -17.2483 -17.2482 -17.2379 -17.2378
   -17.2354 -17.2354 -17.2334 -17.2333 -17.2319 -17.2319 -17.2233 -17.2230
   -17.2096 -17.2095 -17.2095 -17.2093  -8.4938  -8.4938  -8.4844  -8.4843
    -8.4740  -8.4739  -8.4634  -8.4634  -8.4574  -8.4573  -8.3698  -8.3698
    -3.4024  -3.4024  -3.3342  -3.3342  -3.2386  -3.2386  -3.1336  -3.1335
    -3.0425  -3.0425  -2.9905  -2.9905   0.1036   0.1036   0.1873   0.1873
     0.2936   0.2937   0.3999   0.4000   0.4807   0.4807   0.5672   0.5673
     1.0078   1.0078   1.1094   1.1094   1.2765   1.2766   1.4639   1.4639
     1.6170   1.6170   1.6978   1.6978   2.2167   2.2167   2.3360   2.3360
     2.5101   2.5101   2.7156   2.7157   2.9207   2.9207   3.0738   3.0738
     5.1606   5.1606   5.3986   5.3986   5.6866   5.6866   5.9371   5.9371
     6.0868   6.0868   6.1428   6.1429   7.0659   7.0660   7.1624   7.1624
     7.2690   7.2691   7.4271   7.4271   7.5941   7.5941   7.7736   7.7737
     7.9985   7.9986   8.1583   8.1583   8.1767   8.1767   8.2194   8.2194
     8.3125   8.3125   8.4092   8.4092   9.8573   9.8574  10.2793  10.2793
    10.4698  10.4698  10.7548  10.7548  10.8808  10.8808  11.3462  11.3462
    11.5369  11.5369  11.9185  11.9185  12.0385  12.0385  12.2310  12.2310
    12.7020  12.7021  12.9989  12.9989  13.0750  13.0750  13.3210  13.3211
    13.4561  13.4561  13.6735  13.6735  13.6883  13.6883  14.1263  14.1264
    14.1660  14.1660  14.4013  14.4013  14.5072  14.5072  14.7883  14.7883
    15.0193  15.0193  15.1372  15.1372  15.2763  15.2764  15.4133  15.4133
    15.5026  15.5026  15.6090  15.6091  15.6539  15.6540  15.7162  15.7162
    15.7793  15.7793  15.8677  15.8677  15.9662  15.9662  16.0683  16.0684
    16.1330  16.1331  16.3539  16.3540  16.5044  16.5044  16.7616  16.7616
    16.8376  16.8376  16.9214  16.9215  17.2484  17.2484  17.3207  17.3207
    17.6502  17.6502  17.7315  17.7315  17.8019  17.8019  18.0467  18.0467
    18.2075  18.2075  18.2712  18.2712  18.6067  18.6067  18.7536  18.7536
    19.1311  19.1311  19.3676  19.3676  19.4998  19.4998  19.6304  19.6304
    19.6878  19.6878  19.8452  19.8453  20.0843  20.0843  20.3008  20.3009
    20.3203  20.3204  20.4144  20.4144  20.4733  20.4733  20.6407  20.6408
    20.7634  20.7634  20.7914  20.7914  21.0403  21.0403  21.2399  21.2399
    21.2975  21.2976  21.4514  21.4514  21.5360  21.5360  21.6880  21.6880
    21.7946  21.7946  21.8970  21.8970

          k = 0.5000 0.1746 0.0000 ( 35476 PWs)   bands (ev):

   -17.3350 -17.3350 -17.3331 -17.3330 -17.3309 -17.3309 -17.3284 -17.3281
   -17.3120 -17.3117 -17.3049 -17.3048 -17.3014 -17.3014 -17.2991 -17.2991
   -17.2964 -17.2964 -17.2949 -17.2947 -17.2873 -17.2873 -17.2847 -17.2847
   -17.2829 -17.2829 -17.2767 -17.2765 -17.2764 -17.2762 -17.2732 -17.2731
   -17.2711 -17.2709 -17.2692 -17.2692 -17.2660 -17.2659 -17.2642 -17.2642
   -17.2539 -17.2537 -17.2498 -17.2495 -17.2478 -17.2477 -17.2377 -17.2376
   -17.2356 -17.2356 -17.2334 -17.2333 -17.2318 -17.2318 -17.2233 -17.2230
   -17.2095 -17.2095 -17.2095 -17.2093  -8.4798  -8.4798  -8.4707  -8.4706
    -8.4608  -8.4607  -8.4507  -8.4507  -8.4450  -8.4450  -8.3572  -8.3572
    -3.3646  -3.3646  -3.2989  -3.2989  -3.2073  -3.2073  -3.1071  -3.1070
    -3.0206  -3.0206  -2.9719  -2.9718   0.0030   0.0030   0.0830   0.0830
     0.1890   0.1890   0.3001   0.3002   0.3885   0.3886   0.4735   0.4736
     0.9400   0.9400   1.0391   1.0391   1.2031   1.2032   1.3871   1.3871
     1.5376   1.5376   1.6160   1.6160   2.1226   2.1226   2.2585   2.2585
     2.4558   2.4558   2.6822   2.6823   2.9004   2.9005   3.0583   3.0584
     5.2288   5.2288   5.4823   5.4823   5.7977   5.7977   6.0861   6.0862
     6.2676   6.2676   6.3353   6.3354   7.1246   7.1247   7.3048   7.3048
     7.3598   7.3598   7.5024   7.5024   7.6712   7.6712   7.8494   7.8494
     8.1630   8.1631   8.2702   8.2703   8.3084   8.3084   8.3857   8.3857
     8.4805   8.4805   8.5437   8.5437   9.8596   9.8597  10.1970  10.1971
    10.4495  10.4495  10.7506  10.7507  10.8727  10.8727  11.3272  11.3273
    11.5063  11.5063  11.8197  11.8198  11.9307  11.9307  12.2239  12.2240
    12.6791  12.6792  12.9739  12.9739  13.0987  13.0988  13.3443  13.3443
    13.4593  13.4593  13.7414  13.7415  13.8128  13.8128  14.2304  14.2305
    14.3169  14.3169  14.4625  14.4626  14.6422  14.6422  14.7746  14.7746
    14.9934  14.9934  15.1339  15.1339  15.2841  15.2841  15.3607  15.3607
    15.4945  15.4945  15.5841  15.5842  15.6775  15.6775  15.7224  15.7224
    15.7612  15.7612  15.8173  15.8173  15.9561  15.9561  16.0473  16.0473
    16.1541  16.1541  16.3349  16.3349  16.4073  16.4073  16.7415  16.7415
    16.8055  16.8056  16.9694  16.9694  17.1854  17.1854  17.2578  17.2578
    17.5249  17.5249  17.6072  17.6073  17.6689  17.6690  17.8280  17.8280
    18.0540  18.0540  18.1135  18.1136  18.5172  18.5172  18.6867  18.6867
    19.1430  19.1430  19.3239  19.3239  19.4373  19.4373  19.5838  19.5838
    19.6473  19.6474  19.8891  19.8891  20.1078  20.1078  20.2242  20.2243
    20.3014  20.3014  20.3820  20.3820  20.5393  20.5393  20.6400  20.6400
    20.7241  20.7241  20.9668  20.9668  21.1013  21.1013  21.2268  21.2268
    21.3071  21.3071  21.4088  21.4088  21.6242  21.6242  21.7137  21.7137
    21.8166  21.8167  21.9049  21.9049

          k = 0.5000 0.1964 0.0000 ( 35430 PWs)   bands (ev):

   -17.3357 -17.3357 -17.3337 -17.3336 -17.3315 -17.3314 -17.3290 -17.3287
   -17.3126 -17.3123 -17.3054 -17.3054 -17.3016 -17.3016 -17.2993 -17.2992
   -17.2965 -17.2965 -17.2950 -17.2948 -17.2870 -17.2870 -17.2844 -17.2844
   -17.2826 -17.2826 -17.2765 -17.2765 -17.2763 -17.2762 -17.2730 -17.2729
   -17.2711 -17.2709 -17.2690 -17.2690 -17.2656 -17.2656 -17.2636 -17.2636
   -17.2537 -17.2535 -17.2495 -17.2493 -17.2473 -17.2472 -17.2374 -17.2373
   -17.2357 -17.2357 -17.2333 -17.2332 -17.2317 -17.2317 -17.2232 -17.2230
   -17.2095 -17.2095 -17.2094 -17.2093  -8.4649  -8.4649  -8.4562  -8.4561
    -8.4468  -8.4467  -8.4372  -8.4372  -8.4320  -8.4319  -8.3439  -8.3438
    -3.3232  -3.3232  -3.2606  -3.2606  -3.1736  -3.1736  -3.0788  -3.0787
    -2.9976  -2.9976  -2.9524  -2.9523  -0.1030  -0.1030  -0.0233  -0.0233
     0.0861   0.0862   0.2053   0.2054   0.3040   0.3041   0.3852   0.3854
     0.8639   0.8639   0.9584   0.9584   1.1183   1.1183   1.2993   1.2993
     1.4490   1.4490   1.5276   1.5276   2.0384   2.0384   2.1909   2.1909
     2.4082   2.4082   2.6496   2.6496   2.8726   2.8726   3.0271   3.0271
     5.3253   5.3253   5.5859   5.5859   5.9204   5.9204   6.2440   6.2440
     6.4590   6.4591   6.5384   6.5385   7.1597   7.1598   7.3996   7.3997
     7.4396   7.4397   7.5745   7.5745   7.7283   7.7283   7.8996   7.8996
     8.3107   8.3107   8.3572   8.3573   8.4704   8.4704   8.5858   8.5858
     8.6903   8.6904   8.7548   8.7548   9.8594   9.8595  10.1346  10.1346
    10.4312  10.4312  10.7720  10.7721  10.8746  10.8746  11.3143  11.3143
    11.4888  11.4888  11.7231  11.7232  11.8336  11.8336  12.2329  12.2329
    12.6588  12.6589  12.9405  12.9405  13.0883  13.0884  13.3421  13.3421
    13.4639  13.4640  13.7862  13.7862  13.9262  13.9262  14.2945  14.2945
    14.4575  14.4575  14.5185  14.5185  14.7291  14.7291  14.7952  14.7952
    14.9251  14.9251  15.1619  15.1619  15.2156  15.2156  15.3955  15.3955
    15.5093  15.5094  15.6028  15.6028  15.6844  15.6844  15.7303  15.7304
    15.7575  15.7575  15.7933  15.7933  15.9106  15.9106  16.0532  16.0532
    16.1832  16.1832  16.3177  16.3177  16.3575  16.3575  16.6731  16.6731
    16.7470  16.7470  17.0488  17.0488  17.1033  17.1033  17.1992  17.1992
    17.3589  17.3589  17.4487  17.4488  17.5287  17.5287  17.6160  17.6161
    17.8830  17.8830  18.0083  18.0083  18.4042  18.4042  18.6579  18.6579
    19.1070  19.1070  19.2797  19.2797  19.4329  19.4329  19.5539  19.5539
    19.6545  19.6545  19.9140  19.9140  19.9801  19.9802  20.1991  20.1991
    20.2744  20.2744  20.3729  20.3729  20.5532  20.5533  20.5932  20.5932
    20.7182  20.7182  21.0244  21.0244  21.1406  21.1406  21.2405  21.2405
    21.3498  21.3498  21.4917  21.4917  21.7022  21.7022  21.7584  21.7584
    21.8619  21.8620  21.9143  21.9143

          k = 0.5000 0.2182 0.0000 ( 35428 PWs)   bands (ev):

   -17.3364 -17.3364 -17.3343 -17.3342 -17.3320 -17.3320 -17.3295 -17.3293
   -17.3132 -17.3130 -17.3060 -17.3059 -17.3018 -17.3018 -17.2994 -17.2994
   -17.2966 -17.2966 -17.2951 -17.2949 -17.2868 -17.2867 -17.2841 -17.2841
   -17.2824 -17.2824 -17.2765 -17.2764 -17.2763 -17.2762 -17.2729 -17.2727
   -17.2711 -17.2709 -17.2688 -17.2688 -17.2652 -17.2652 -17.2631 -17.2631
   -17.2535 -17.2533 -17.2493 -17.2491 -17.2468 -17.2467 -17.2372 -17.2371
   -17.2358 -17.2358 -17.2333 -17.2332 -17.2316 -17.2316 -17.2232 -17.2229
   -17.2095 -17.2095 -17.2094 -17.2093  -8.4494  -8.4494  -8.4411  -8.4410
    -8.4323  -8.4322  -8.4233  -8.4233  -8.4185  -8.4185  -8.3301  -8.3300
    -3.2792  -3.2792  -3.2200  -3.2200  -3.1382  -3.1382  -3.0495  -3.0494
    -2.9740  -2.9740  -2.9325  -2.9324  -0.2089  -0.2089  -0.1271  -0.1271
    -0.0119  -0.0118   0.1171   0.1172   0.2270   0.2270   0.3042   0.3043
     0.7775   0.7775   0.8667   0.8667   1.0227   1.0227   1.2020   1.2020
     1.3535   1.3535   1.4362   1.4362   1.9670   1.9670   2.1363   2.1363
     2.3701   2.3701   2.6201   2.6202   2.8405   2.8405   2.9853   2.9853
     5.4429   5.4429   5.7025   5.7025   6.0470   6.0470   6.4005   6.4005
     6.6527   6.6527   6.7459   6.7460   7.1813   7.1814   7.4447   7.4447
     7.5005   7.5005   7.6523   7.6523   7.7746   7.7746   7.9362   7.9362
     8.4255   8.4255   8.5120   8.5120   8.6614   8.6614   8.7969   8.7970
     8.9077   8.9078   8.9764   8.9765   9.8590   9.8590  10.0967  10.0968
    10.4233  10.4233  10.8011  10.8011  10.8950  10.8951  11.2978  11.2979
    11.4871  11.4871  11.6390  11.6391  11.7583  11.7583  12.2513  12.2513
    12.6435  12.6435  12.9084  12.9084  13.0598  13.0598  13.3249  13.3249
    13.4702  13.4702  13.8119  13.8119  14.0026  14.0026  14.2053  14.2054
    14.4897  14.4897  14.6360  14.6361  14.7491  14.7491  14.8531  14.8532
    15.0089  15.0090  15.0947  15.0947  15.2515  15.2515  15.4539  15.4539
    15.4970  15.4970  15.6425  15.6425  15.6921  15.6921  15.7136  15.7137
    15.7542  15.7542  15.7755  15.7755  15.8709  15.8709  16.0656  16.0656
    16.2018  16.2018  16.3146  16.3146  16.3647  16.3647  16.6062  16.6063
    16.6738  16.6738  17.0077  17.0078  17.0644  17.0644  17.1226  17.1226
    17.1927  17.1928  17.2941  17.2941  17.3578  17.3578  17.4611  17.4612
    17.7629  17.7629  17.9044  17.9044  18.3168  18.3168  18.6607  18.6607
    19.0019  19.0020  19.2775  19.2776  19.4569  19.4569  19.5351  19.5351
    19.6770  19.6770  19.8290  19.8290  19.9378  19.9378  20.1106  20.1106
    20.2332  20.2332  20.3817  20.3817  20.5402  20.5402  20.5819  20.5819
    20.7199  20.7200  20.9430  20.9430  21.1301  21.1302  21.1972  21.1972
    21.4099  21.4099  21.6448  21.6449  21.7182  21.7182  21.7891  21.7891
    21.8849  21.8849  21.9633  21.9634

          k = 0.5000 0.2401 0.0000 ( 35456 PWs)   bands (ev):

   -17.3372 -17.3372 -17.3349 -17.3348 -17.3326 -17.3326 -17.3301 -17.3298
   -17.3138 -17.3136 -17.3065 -17.3065 -17.3021 -17.3021 -17.2996 -17.2995
   -17.2967 -17.2967 -17.2952 -17.2950 -17.2865 -17.2865 -17.2839 -17.2839
   -17.2821 -17.2821 -17.2766 -17.2764 -17.2763 -17.2761 -17.2726 -17.2725
   -17.2711 -17.2709 -17.2685 -17.2685 -17.2648 -17.2648 -17.2626 -17.2626
   -17.2533 -17.2531 -17.2491 -17.2488 -17.2463 -17.2463 -17.2369 -17.2368
   -17.2359 -17.2359 -17.2333 -17.2332 -17.2315 -17.2315 -17.2232 -17.2229
   -17.2095 -17.2094 -17.2094 -17.2093  -8.4337  -8.4337  -8.4259  -8.4258
    -8.4177  -8.4176  -8.4093  -8.4093  -8.4051  -8.4050  -8.3162  -8.3161
    -3.2332  -3.2332  -3.1779  -3.1779  -3.1019  -3.1019  -3.0199  -3.0198
    -2.9507  -2.9507  -2.9127  -2.9126  -0.3102  -0.3102  -0.2248  -0.2248
    -0.1024  -0.1024   0.0370   0.0371   0.1577   0.1577   0.2314   0.2315
     0.6820   0.6820   0.7656   0.7657   0.9185   0.9185   1.0974   1.0975
     1.2527   1.2527   1.3426   1.3426   1.9110   1.9110   2.0961   2.0961
     2.3423   2.3423   2.5952   2.5952   2.8070   2.8070   2.9374   2.9374
     5.5745   5.5745   5.8256   5.8256   6.1697   6.1697   6.5431   6.5431
     6.8353   6.8353   6.9518   6.9519   7.1931   7.1932   7.4748   7.4748
     7.5470   7.5470   7.7072   7.7072   7.8257   7.8257   7.9838   7.9839
     8.5492   8.5493   8.6879   8.6879   8.8614   8.8614   9.0079   9.0079
     9.1208   9.1208   9.1919   9.1919   9.8644   9.8645  10.0839  10.0840
    10.4289  10.4289  10.8261  10.8261  10.9387  10.9387  11.2795  11.2795
    11.4899  11.4900  11.5739  11.5740  11.7187  11.7187  12.2750  12.2751
    12.6347  12.6348  12.8819  12.8819  13.0231  13.0231  13.3040  13.3040
    13.4736  13.4736  13.8046  13.8047  14.0179  14.0179  14.1197  14.1197
    14.3140  14.3141  14.7031  14.7031  14.8306  14.8306  14.9293  14.9293
    15.0785  15.0785  15.2043  15.2043  15.2613  15.2613  15.4095  15.4095
    15.5288  15.5289  15.6352  15.6352  15.6740  15.6740  15.7093  15.7094
    15.7595  15.7596  15.7822  15.7823  15.8712  15.8712  16.0630  16.0630
    16.2053  16.2054  16.3490  16.3491  16.3880  16.3880  16.5471  16.5471
    16.6020  16.6020  16.9085  16.9085  16.9659  16.9659  17.0013  17.0013
    17.0918  17.0918  17.1748  17.1749  17.2138  17.2138  17.3746  17.3746
    17.6757  17.6757  17.8416  17.8416  18.2487  18.2488  18.6898  18.6899
    18.9033  18.9033  19.2665  19.2665  19.4332  19.4333  19.5023  19.5023
    19.6867  19.6867  19.7847  19.7847  19.8715  19.8715  20.0572  20.0573
    20.1764  20.1764  20.3644  20.3644  20.5370  20.5370  20.5826  20.5826
    20.6748  20.6749  20.8539  20.8539  21.0371  21.0371  21.2520  21.2520
    21.4665  21.4665  21.5561  21.5561  21.5959  21.5960  21.7332  21.7333
    21.8119  21.8119  21.9485  21.9485

          k = 0.5000 0.2619 0.0000 ( 35426 PWs)   bands (ev):

   -17.3379 -17.3379 -17.3355 -17.3355 -17.3331 -17.3331 -17.3307 -17.3304
   -17.3144 -17.3142 -17.3071 -17.3070 -17.3023 -17.3023 -17.2997 -17.2997
   -17.2968 -17.2968 -17.2953 -17.2951 -17.2862 -17.2862 -17.2836 -17.2836
   -17.2818 -17.2818 -17.2766 -17.2765 -17.2762 -17.2761 -17.2723 -17.2722
   -17.2711 -17.2709 -17.2683 -17.2682 -17.2645 -17.2644 -17.2621 -17.2621
   -17.2531 -17.2529 -17.2488 -17.2486 -17.2459 -17.2458 -17.2367 -17.2366
   -17.2360 -17.2360 -17.2332 -17.2331 -17.2314 -17.2314 -17.2232 -17.2229
   -17.2095 -17.2094 -17.2094 -17.2093  -8.4181  -8.4181  -8.4108  -8.4107
    -8.4034  -8.4033  -8.3956  -8.3956  -8.3919  -8.3919  -8.3025  -8.3024
    -3.1863  -3.1863  -3.1353  -3.1353  -3.0656  -3.0656  -2.9909  -2.9908
    -2.9284  -2.9284  -2.8935  -2.8935  -0.4036  -0.4036  -0.3137  -0.3137
    -0.1834  -0.1834  -0.0335  -0.0334   0.0966   0.0966   0.1666   0.1667
     0.5819   0.5820   0.6590   0.6591   0.8090   0.8090   0.9883   0.9884
     1.1481   1.1481   1.2462   1.2462   1.8718   1.8718   2.0701   2.0701
     2.3241   2.3241   2.5749   2.5750   2.7738   2.7738   2.8872   2.8872
     5.7138   5.7138   5.9499   5.9499   6.2819   6.2820   6.6582   6.6582
     6.9828   6.9828   7.1489   7.1490   7.2000   7.2001   7.5149   7.5149
     7.5979   7.5979   7.7423   7.7423   7.8840   7.8840   8.0496   8.0497
     8.6753   8.6754   8.8630   8.8630   9.0594   9.0594   9.2124   9.2124
     9.3242   9.3242   9.3948   9.3948   9.8845   9.8846  10.0933  10.0933
    10.4466  10.4467  10.8485  10.8485  10.9984  10.9985  11.2689  11.2689
    11.4722  11.4722  11.5418  11.5418  11.7248  11.7248  12.3010  12.3011
    12.6342  12.6342  12.8622  12.8623  12.9847  12.9847  13.2833  13.2833
    13.4678  13.4679  13.7425  13.7425  13.9289  13.9290  14.1156  14.1156
    14.1820  14.1820  14.5380  14.5381  14.9488  14.9488  15.0476  15.0476
    15.1603  15.1603  15.2056  15.2056  15.2766  15.2766  15.3717  15.3717
    15.5510  15.5511  15.5893  15.5893  15.6603  15.6604  15.6789  15.6789
    15.7845  15.7845  15.8275  15.8276  15.9086  15.9087  16.0394  16.0394
    16.2200  16.2201  16.3825  16.3826  16.4102  16.4102  16.4951  16.4951
    16.5441  16.5442  16.8097  16.8098  16.8619  16.8619  16.8929  16.8929
    16.9793  16.9793  17.0860  17.0860  17.1748  17.1748  17.3419  17.3420
    17.6039  17.6039  17.8409  17.8410  18.1851  18.1851  18.7231  18.7231
    18.8351  18.8352  19.2119  19.2119  19.3582  19.3583  19.4451  19.4451
    19.6345  19.6345  19.7269  19.7270  19.8858  19.8858  20.0518  20.0518
    20.1319  20.1319  20.2886  20.2886  20.5054  20.5054  20.5713  20.5713
    20.6371  20.6372  20.7806  20.7806  20.9578  20.9578  21.2988  21.2988
    21.3723  21.3723  21.4189  21.4189  21.5147  21.5147  21.6184  21.6184
    21.7684  21.7684  21.8946  21.8946

          k = 0.5000 0.2837 0.0000 ( 35406 PWs)   bands (ev):

   -17.3385 -17.3385 -17.3361 -17.3360 -17.3336 -17.3336 -17.3312 -17.3309
   -17.3150 -17.3148 -17.3076 -17.3076 -17.3025 -17.3025 -17.2999 -17.2999
   -17.2969 -17.2969 -17.2953 -17.2952 -17.2860 -17.2859 -17.2834 -17.2834
   -17.2816 -17.2816 -17.2767 -17.2765 -17.2762 -17.2761 -17.2721 -17.2719
   -17.2710 -17.2709 -17.2680 -17.2680 -17.2641 -17.2641 -17.2616 -17.2616
   -17.2529 -17.2527 -17.2486 -17.2484 -17.2454 -17.2453 -17.2365 -17.2364
   -17.2360 -17.2360 -17.2332 -17.2331 -17.2313 -17.2313 -17.2232 -17.2229
   -17.2095 -17.2094 -17.2094 -17.2092  -8.4030  -8.4030  -8.3963  -8.3962
    -8.3896  -8.3895  -8.3826  -8.3825  -8.3794  -8.3794  -8.2894  -8.2893
    -3.1396  -3.1396  -3.0932  -3.0932  -3.0303  -3.0303  -2.9633  -2.9632
    -2.9080  -2.9079  -2.8753  -2.8752  -0.4868  -0.4868  -0.3919  -0.3919
    -0.2534  -0.2534  -0.0933  -0.0933   0.0443   0.0443   0.1084   0.1084
     0.4841   0.4841   0.5520   0.5520   0.6983   0.6984   0.8777   0.8777
     1.0415   1.0415   1.1469   1.1469   1.8488   1.8488   2.0565   2.0565
     2.3143   2.3143   2.5590   2.5590   2.7419   2.7419   2.8372   2.8372
     5.8561   5.8561   6.0707   6.0707   6.3791   6.3791   6.7361   6.7361
     7.0597   7.0597   7.1988   7.1988   7.3415   7.3417   7.5834   7.5834
     7.6685   7.6685   7.7883   7.7883   7.9433   7.9434   8.1204   8.1205
     8.7891   8.7891   9.0273   9.0273   9.2487   9.2487   9.4067   9.4067
     9.5149   9.5149   9.5818   9.5818   9.9268   9.9269  10.1207  10.1207
    10.4726  10.4726  10.8722  10.8722  11.0643  11.0643  11.2747  11.2747
    11.4406  11.4407  11.5395  11.5395  11.7706  11.7706  12.3251  12.3252
    12.6439  12.6440  12.8490  12.8491  12.9498  12.9498  13.2577  13.2577
    13.4366  13.4366  13.6582  13.6582  13.7923  13.7924  14.0744  14.0744
    14.1610  14.1610  14.3766  14.3766  14.9327  14.9327  15.0606  15.0606
    15.1346  15.1346  15.1940  15.1941  15.2734  15.2734  15.3572  15.3573
    15.5056  15.5057  15.5583  15.5584  15.6560  15.6560  15.6956  15.6956
    15.8149  15.8150  15.9076  15.9077  15.9451  15.9451  16.0311  16.0312
    16.2522  16.2522  16.3795  16.3795  16.4190  16.4190  16.4797  16.4798
    16.4993  16.4994  16.7191  16.7192  16.8058  16.8059  16.8372  16.8372
    16.9010  16.9010  17.0548  17.0549  17.1913  17.1913  17.3543  17.3544
    17.5806  17.5806  17.8457  17.8457  18.1483  18.1483  18.7033  18.7033
    18.8092  18.8092  19.1234  19.1235  19.2715  19.2715  19.3457  19.3457
    19.4993  19.4993  19.6826  19.6826  19.9419  19.9419  20.0378  20.0379
    20.1047  20.1048  20.2188  20.2188  20.4334  20.4334  20.4879  20.4880
    20.6354  20.6354  20.7639  20.7639  20.8826  20.8827  21.1976  21.1976
    21.2710  21.2710  21.3109  21.3109  21.4126  21.4127  21.5366  21.5366
    21.8040  21.8040  21.8858  21.8858

          k = 0.5000 0.3055 0.0000 ( 35402 PWs)   bands (ev):

   -17.3392 -17.3392 -17.3366 -17.3366 -17.3341 -17.3341 -17.3317 -17.3314
   -17.3155 -17.3153 -17.3081 -17.3080 -17.3027 -17.3027 -17.3000 -17.3000
   -17.2970 -17.2970 -17.2954 -17.2953 -17.2857 -17.2857 -17.2832 -17.2832
   -17.2814 -17.2814 -17.2768 -17.2766 -17.2763 -17.2761 -17.2718 -17.2717
   -17.2710 -17.2708 -17.2677 -17.2677 -17.2638 -17.2638 -17.2612 -17.2612
   -17.2527 -17.2525 -17.2484 -17.2482 -17.2450 -17.2449 -17.2364 -17.2363
   -17.2359 -17.2359 -17.2332 -17.2331 -17.2312 -17.2312 -17.2232 -17.2229
   -17.2095 -17.2094 -17.2093 -17.2092  -8.3889  -8.3889  -8.3827  -8.3826
    -8.3768  -8.3767  -8.3705  -8.3704  -8.3679  -8.3679  -8.2772  -8.2771
    -3.0942  -3.0942  -3.0529  -3.0529  -2.9971  -2.9971  -2.9380  -2.9379
    -2.8901  -2.8900  -2.8584  -2.8583  -0.5581  -0.5581  -0.4579  -0.4579
    -0.3112  -0.3112  -0.1418  -0.1417   0.0004   0.0004   0.0535   0.0535
     0.3965   0.3965   0.4503   0.4503   0.5907   0.5907   0.7689   0.7689
     0.9354   0.9354   1.0460   1.0460   1.8396   1.8397   2.0530   2.0530
     2.3110   2.3110   2.5466   2.5466   2.7119   2.7119   2.7892   2.7892
     5.9976   5.9976   6.1850   6.1851   6.4592   6.4592   6.7776   6.7776
     7.0633   7.0633   7.1913   7.1914   7.5144   7.5145   7.6809   7.6810
     7.7634   7.7634   7.8585   7.8585   8.0025   8.0025   8.1845   8.1845
     8.8813   8.8813   9.1744   9.1744   9.4249   9.4250   9.5883   9.5883
     9.6915   9.6915   9.7518   9.7519   9.9926   9.9927  10.1619  10.1619
    10.5018  10.5019  10.8981  10.8981  11.1276  11.1276  11.2993  11.2993
    11.4220  11.4220  11.5548  11.5548  11.8427  11.8427  12.3423  12.3424
    12.6646  12.6646  12.8402  12.8402  12.9247  12.9247  13.2079  13.2079
    13.3698  13.3698  13.6048  13.6049  13.6502  13.6502  14.0183  14.0183
    14.1256  14.1256  14.2735  14.2735  14.7701  14.7701  14.9832  14.9832
    15.0970  15.0970  15.1355  15.1355  15.2382  15.2382  15.2960  15.2960
    15.3996  15.3996  15.5687  15.5688  15.6406  15.6406  15.7549  15.7549
    15.8886  15.8886  15.9234  15.9234  16.0071  16.0072  16.0797  16.0798
    16.2999  16.2999  16.3718  16.3718  16.4008  16.4008  16.4428  16.4429
    16.5233  16.5234  16.6476  16.6476  16.7649  16.7649  16.8493  16.8493
    16.9220  16.9220  17.0708  17.0708  17.2230  17.2230  17.4403  17.4403
    17.6129  17.6130  17.8081  17.8081  18.1739  18.1739  18.6144  18.6144
    18.7997  18.7997  19.0152  19.0152  19.1750  19.1750  19.2160  19.2160
    19.3490  19.3491  19.6241  19.6241  19.8917  19.8918  20.0040  20.0040
    20.0931  20.0931  20.2048  20.2048  20.3553  20.3553  20.4096  20.4097
    20.6265  20.6265  20.7794  20.7795  20.8079  20.8079  21.0576  21.0576
    21.1572  21.1572  21.2072  21.2072  21.3290  21.3291  21.5306  21.5307
    21.7971  21.7971  21.8979  21.8979

          k = 0.5000 0.3274 0.0000 ( 35396 PWs)   bands (ev):

   -17.3397 -17.3397 -17.3371 -17.3371 -17.3345 -17.3345 -17.3321 -17.3319
   -17.3160 -17.3158 -17.3085 -17.3085 -17.3029 -17.3029 -17.3002 -17.3001
   -17.2971 -17.2970 -17.2955 -17.2953 -17.2855 -17.2855 -17.2830 -17.2830
   -17.2812 -17.2812 -17.2768 -17.2766 -17.2763 -17.2762 -17.2715 -17.2714
   -17.2709 -17.2708 -17.2675 -17.2675 -17.2635 -17.2635 -17.2609 -17.2609
   -17.2525 -17.2523 -17.2482 -17.2481 -17.2446 -17.2446 -17.2364 -17.2364
   -17.2358 -17.2357 -17.2331 -17.2330 -17.2311 -17.2311 -17.2232 -17.2229
   -17.2095 -17.2094 -17.2093 -17.2092  -8.3760  -8.3760  -8.3704  -8.3703
    -8.3653  -8.3653  -8.3597  -8.3596  -8.3578  -8.3577  -8.2662  -8.2661
    -3.0515  -3.0515  -3.0154  -3.0154  -2.9670  -2.9669  -2.9159  -2.9158
    -2.8754  -2.8754  -2.8429  -2.8428  -0.6166  -0.6166  -0.5110  -0.5110
    -0.3564  -0.3564  -0.1788  -0.1787  -0.0365  -0.0365  -0.0019  -0.0018
     0.3265   0.3265   0.3610   0.3610   0.4905   0.4906   0.6653   0.6654
     0.8326   0.8326   0.9462   0.9462   1.8408   1.8408   2.0567   2.0567
     2.3123   2.3123   2.5370   2.5370   2.6843   2.6843   2.7447   2.7447
     6.1355   6.1355   6.2906   6.2906   6.5225   6.5225   6.7924   6.7925
     7.0318   7.0319   7.1571   7.1571   7.6669   7.6670   7.7908   7.7909
     7.8656   7.8656   7.9489   7.9489   8.0619   8.0619   8.2366   8.2366
     8.9494   8.9495   9.3014   9.3014   9.5847   9.5848   9.7551   9.7551
     9.8527   9.8527   9.9047   9.9047  10.0758  10.0758  10.2134  10.2134
    10.5295  10.5296  10.9242  10.9243  11.1818  11.1819  11.3346  11.3346
    11.4278  11.4278  11.5912  11.5912  11.9316  11.9316  12.3470  12.3471
    12.6904  12.6905  12.8317  12.8317  12.9166  12.9166  13.1150  13.1150
    13.2998  13.2999  13.5289  13.5289  13.5805  13.5805  13.9349  13.9349
    14.0333  14.0333  14.2522  14.2522  14.5836  14.5836  14.8237  14.8237
    14.9442  14.9442  15.0699  15.0699  15.1807  15.1807  15.2555  15.2556
    15.3167  15.3168  15.5474  15.5474  15.6515  15.6516  15.8046  15.8047
    15.8994  15.8995  15.9871  15.9871  16.0647  16.0647  16.1280  16.1280
    16.3140  16.3140  16.3956  16.3957  16.4152  16.4152  16.4396  16.4397
    16.5333  16.5334  16.5980  16.5981  16.7530  16.7530  16.9431  16.9431
    16.9858  16.9858  17.1098  17.1098  17.3231  17.3231  17.5662  17.5662
    17.6772  17.6772  17.7568  17.7568  18.2389  18.2389  18.5055  18.5056
    18.7478  18.7478  18.8942  18.8943  19.0573  19.0573  19.0739  19.0740
    19.2029  19.2029  19.5418  19.5419  19.7640  19.7640  19.9668  19.9668
    19.9959  19.9959  20.2162  20.2162  20.2771  20.2771  20.3936  20.3936
    20.6313  20.6313  20.7432  20.7433  20.8123  20.8123  20.9506  20.9506
    21.0454  21.0455  21.1176  21.1177  21.2935  21.2936  21.5385  21.5386
    21.7673  21.7673  21.8582  21.8582

          k = 0.5000 0.3492 0.0000 ( 35390 PWs)   bands (ev):

   -17.3402 -17.3402 -17.3375 -17.3375 -17.3349 -17.3349 -17.3325 -17.3322
   -17.3164 -17.3162 -17.3089 -17.3088 -17.3030 -17.3030 -17.3003 -17.3002
   -17.2971 -17.2971 -17.2956 -17.2954 -17.2853 -17.2853 -17.2828 -17.2828
   -17.2811 -17.2811 -17.2768 -17.2766 -17.2763 -17.2762 -17.2713 -17.2713
   -17.2708 -17.2708 -17.2673 -17.2673 -17.2633 -17.2632 -17.2606 -17.2606
   -17.2524 -17.2522 -17.2481 -17.2479 -17.2443 -17.2443 -17.2364 -17.2364
   -17.2356 -17.2355 -17.2331 -17.2330 -17.2311 -17.2310 -17.2232 -17.2229
   -17.2095 -17.2094 -17.2093 -17.2092  -8.3647  -8.3646  -8.3597  -8.3596
    -8.3555  -8.3555  -8.3505  -8.3505  -8.3492  -8.3492  -8.2568  -8.2567
    -3.0130  -3.0130  -2.9821  -2.9821  -2.9410  -2.9409  -2.8976  -2.8975
    -2.8643  -2.8642  -2.8293  -2.8292  -0.6619  -0.6619  -0.5513  -0.5513
    -0.3892  -0.3892  -0.2050  -0.2050  -0.0692  -0.0691  -0.0586  -0.0585
     0.2726   0.2727   0.2959   0.2959   0.4033   0.4033   0.5707   0.5707
     0.7368   0.7368   0.8508   0.8508   1.8484   1.8484   2.0649   2.0649
     2.3165   2.3165   2.5295   2.5295   2.6596   2.6596   2.7051   2.7052
     6.2678   6.2678   6.3859   6.3859   6.5714   6.5714   6.7912   6.7913
     6.9878   6.9878   7.1014   7.1014   7.7945   7.7946   7.8910   7.8911
     7.9640   7.9640   8.0407   8.0407   8.1230   8.1230   8.2760   8.2761
     8.9963   8.9963   9.4075   9.4075   9.7249   9.7249   9.9042   9.9043
     9.9964   9.9964  10.0396  10.0396  10.1641  10.1642  10.2713  10.2713
    10.5525  10.5526  10.9456  10.9456  11.2259  11.2259  11.3637  11.3637
    11.4629  11.4629  11.6556  11.6556  12.0297  12.0298  12.3356  12.3356
    12.6995  12.6995  12.8219  12.8219  12.9251  12.9251  13.0150  13.0150
    13.2419  13.2420  13.4338  13.4338  13.5605  13.5605  13.8391  13.8391
    13.9232  13.9232  14.2585  14.2585  14.4023  14.4023  14.6465  14.6465
    14.7737  14.7738  14.9174  14.9174  15.1145  15.1145  15.2088  15.2088
    15.3117  15.3117  15.5109  15.5109  15.7017  15.7017  15.8370  15.8370
    15.9052  15.9052  16.0279  16.0280  16.0765  16.0765  16.1628  16.1628
    16.3148  16.3149  16.4171  16.4171  16.4450  16.4450  16.4809  16.4810
    16.5325  16.5326  16.5818  16.5818  16.7918  16.7919  16.9951  16.9951
    17.1052  17.1052  17.2300  17.2300  17.4756  17.4756  17.6523  17.6523
    17.7307  17.7308  17.7953  17.7953  18.2844  18.2844  18.4194  18.4194
    18.6526  18.6526  18.7657  18.7658  18.9191  18.9191  18.9309  18.9309
    19.0798  19.0798  19.4089  19.4090  19.6583  19.6584  19.8485  19.8486
    19.9032  19.9032  20.1642  20.1642  20.2192  20.2192  20.3801  20.3801
    20.6169  20.6169  20.7547  20.7547  20.8510  20.8510  20.8812  20.8812
    20.9824  20.9824  21.0793  21.0793  21.3002  21.3003  21.5240  21.5240
    21.7070  21.7070  21.7249  21.7249

          k = 0.5000 0.3710 0.0000 ( 35426 PWs)   bands (ev):

   -17.3406 -17.3406 -17.3379 -17.3378 -17.3352 -17.3352 -17.3328 -17.3325
   -17.3167 -17.3165 -17.3092 -17.3091 -17.3031 -17.3031 -17.3004 -17.3003
   -17.2972 -17.2972 -17.2956 -17.2955 -17.2852 -17.2852 -17.2827 -17.2827
   -17.2810 -17.2810 -17.2769 -17.2767 -17.2764 -17.2763 -17.2712 -17.2712
   -17.2707 -17.2707 -17.2672 -17.2672 -17.2631 -17.2630 -17.2603 -17.2603
   -17.2523 -17.2521 -17.2480 -17.2478 -17.2441 -17.2440 -17.2364 -17.2364
   -17.2355 -17.2354 -17.2331 -17.2330 -17.2310 -17.2310 -17.2232 -17.2229
   -17.2095 -17.2093 -17.2093 -17.2092  -8.3553  -8.3552  -8.3510  -8.3508
    -8.3476  -8.3476  -8.3432  -8.3432  -8.3425  -8.3424  -8.2492  -8.2491
    -2.9799  -2.9799  -2.9542  -2.9542  -2.9199  -2.9199  -2.8838  -2.8838
    -2.8567  -2.8566  -2.8181  -2.8180  -0.6947  -0.6947  -0.5793  -0.5793
    -0.4108  -0.4108  -0.2222  -0.2222  -0.1157  -0.1157  -0.0970  -0.0970
     0.2272   0.2272   0.2617   0.2617   0.3375   0.3376   0.4890   0.4891
     0.6518   0.6518   0.7643   0.7643   1.8590   1.8590   2.0748   2.0748
     2.3218   2.3218   2.5238   2.5238   2.6384   2.6384   2.6721   2.6722
     6.3923   6.3923   6.4700   6.4700   6.6083   6.6083   6.7817   6.7817
     6.9398   6.9398   7.0327   7.0327   7.8944   7.8945   7.9680   7.9682
     8.0539   8.0539   8.1141   8.1141   8.1860   8.1860   8.3038   8.3038
     9.0270   9.0271   9.4926   9.4927   9.8412   9.8412  10.0313  10.0314
    10.1186  10.1186  10.1545  10.1545  10.2450  10.2450  10.3301  10.3301
    10.5702  10.5703  10.9575  10.9575  11.2598  11.2599  11.3841  11.3841
    11.5171  11.5171  11.7494  11.7494  12.1202  12.1202  12.3154  12.3155
    12.6506  12.6506  12.8059  12.8060  12.9217  12.9217  12.9983  12.9984
    13.2014  13.2014  13.3422  13.3422  13.5561  13.5561  13.7461  13.7461
    13.8064  13.8064  14.1988  14.1988  14.3115  14.3115  14.4813  14.4813
    14.6116  14.6117  14.7816  14.7816  15.0118  15.0118  15.1408  15.1408
    15.3586  15.3586  15.5099  15.5099  15.7560  15.7560  15.8513  15.8513
    15.9134  15.9134  16.0289  16.0289  16.0650  16.0650  16.1681  16.1681
    16.3365  16.3366  16.4543  16.4544  16.4692  16.4693  16.5041  16.5042
    16.5549  16.5549  16.5909  16.5909  16.8336  16.8336  17.0290  17.0291
    17.2488  17.2488  17.4197  17.4197  17.5986  17.5986  17.6880  17.6880
    17.8324  17.8324  17.8934  17.8934  18.2390  18.2391  18.4087  18.4088
    18.5416  18.5416  18.6349  18.6349  18.7799  18.7799  18.7968  18.7968
    19.0020  19.0020  19.2586  19.2587  19.5313  19.5314  19.7078  19.7079
    19.8434  19.8434  20.0656  20.0656  20.1602  20.1602  20.3116  20.3117
    20.6157  20.6158  20.7914  20.7914  20.8370  20.8370  20.9182  20.9182
    20.9832  20.9832  21.1069  21.1070  21.3396  21.3396  21.4782  21.4782
    21.5623  21.5624  21.6207  21.6207

          k = 0.5000 0.3928 0.0000 ( 35414 PWs)   bands (ev):

   -17.3408 -17.3408 -17.3381 -17.3380 -17.3354 -17.3354 -17.3330 -17.3327
   -17.3170 -17.3167 -17.3094 -17.3093 -17.3032 -17.3032 -17.3004 -17.3004
   -17.2972 -17.2972 -17.2956 -17.2955 -17.2851 -17.2851 -17.2826 -17.2826
   -17.2809 -17.2809 -17.2769 -17.2767 -17.2764 -17.2763 -17.2711 -17.2711
   -17.2706 -17.2706 -17.2671 -17.2670 -17.2630 -17.2629 -17.2601 -17.2601
   -17.2522 -17.2520 -17.2479 -17.2477 -17.2439 -17.2438 -17.2365 -17.2364
   -17.2354 -17.2353 -17.2331 -17.2330 -17.2310 -17.2310 -17.2231 -17.2229
   -17.2095 -17.2093 -17.2093 -17.2092  -8.3481  -8.3481  -8.3445  -8.3443
    -8.3419  -8.3418  -8.3382  -8.3380  -8.3376  -8.3374  -8.2436  -8.2435
    -2.9538  -2.9538  -2.9328  -2.9328  -2.9046  -2.9046  -2.8748  -2.8748
    -2.8522  -2.8521  -2.8096  -2.8095  -0.7160  -0.7160  -0.5969  -0.5969
    -0.4231  -0.4231  -0.2328  -0.2327  -0.1620  -0.1620  -0.1236  -0.1236
     0.1996   0.1996   0.2337   0.2337   0.3068   0.3068   0.4250   0.4250
     0.5828   0.5828   0.6921   0.6921   1.8694   1.8694   2.0841   2.0841
     2.3269   2.3269   2.5197   2.5197   2.6216   2.6216   2.6474   2.6474
     6.5064   6.5065   6.5411   6.5411   6.6360   6.6360   6.7684   6.7684
     6.8929   6.8929   6.9576   6.9576   7.9652   7.9653   8.0205   8.0206
     8.1252   8.1252   8.1659   8.1660   8.2422   8.2423   8.3208   8.3209
     9.0462   9.0463   9.5559   9.5559   9.9289   9.9289  10.1302  10.1302
    10.2137  10.2137  10.2453  10.2454  10.3080  10.3080  10.3815  10.3815
    10.5833  10.5834  10.9599  10.9599  11.2810  11.2810  11.3997  11.3997
    11.5807  11.5808  11.8635  11.8635  12.1514  12.1514  12.3280  12.3281
    12.5515  12.5515  12.7734  12.7734  12.9375  12.9375  13.0383  13.0383
    13.1758  13.1758  13.2685  13.2685  13.5628  13.5628  13.6603  13.6604
    13.7065  13.7065  14.0470  14.0470  14.3093  14.3093  14.3678  14.3678
    14.4784  14.4785  14.6957  14.6957  14.9251  14.9252  15.0477  15.0477
    15.4232  15.4233  15.5379  15.5379  15.7958  15.7959  15.8527  15.8527
    15.9207  15.9207  16.0116  16.0116  16.0514  16.0514  16.1328  16.1329
    16.3737  16.3738  16.4947  16.4949  16.5070  16.5071  16.5266  16.5266
    16.5796  16.5796  16.6061  16.6061  16.8643  16.8643  17.0470  17.0471
    17.4049  17.4049  17.5650  17.5650  17.6700  17.6700  17.8114  17.8115
    17.9171  17.9171  17.9850  17.9850  18.1748  18.1749  18.3825  18.3825
    18.4477  18.4477  18.5170  18.5170  18.6595  18.6595  18.6895  18.6895
    18.9776  18.9776  19.1352  19.1353  19.3994  19.3995  19.5823  19.5823
    19.7795  19.7795  19.9591  19.9591  20.1005  20.1006  20.2225  20.2225
    20.6407  20.6407  20.8298  20.8298  20.8528  20.8528  20.9677  20.9677
    21.0080  21.0080  21.1610  21.1611  21.3506  21.3506  21.4066  21.4066
    21.4884  21.4884  21.5161  21.5162

          k = 0.5000 0.4146 0.0000 ( 35410 PWs)   bands (ev):

   -17.3410 -17.3410 -17.3382 -17.3382 -17.3355 -17.3355 -17.3331 -17.3329
   -17.3171 -17.3169 -17.3095 -17.3095 -17.3033 -17.3033 -17.3005 -17.3004
   -17.2973 -17.2973 -17.2957 -17.2955 -17.2850 -17.2850 -17.2826 -17.2825
   -17.2809 -17.2809 -17.2769 -17.2767 -17.2764 -17.2763 -17.2711 -17.2710
   -17.2706 -17.2705 -17.2670 -17.2670 -17.2629 -17.2628 -17.2600 -17.2600
   -17.2522 -17.2519 -17.2479 -17.2477 -17.2438 -17.2437 -17.2365 -17.2365
   -17.2353 -17.2352 -17.2331 -17.2330 -17.2310 -17.2309 -17.2231 -17.2229
   -17.2095 -17.2093 -17.2093 -17.2092  -8.3434  -8.3434  -8.3405  -8.3404
    -8.3384  -8.3383  -8.3354  -8.3352  -8.3345  -8.3342  -8.2401  -8.2401
    -2.9367  -2.9367  -2.9192  -2.9192  -2.8955  -2.8954  -2.8703  -2.8702
    -2.8500  -2.8498  -2.8044  -2.8043  -0.7277  -0.7277  -0.6060  -0.6060
    -0.4288  -0.4288  -0.2390  -0.2390  -0.1924  -0.1923  -0.1427  -0.1426
     0.1880   0.1880   0.2085   0.2085   0.3039   0.3040   0.3836   0.3836
     0.5363   0.5363   0.6421   0.6421   1.8768   1.8769   2.0906   2.0906
     2.3305   2.3305   2.5171   2.5171   2.6105   2.6105   2.6322   2.6323
     6.5944   6.5944   6.6000   6.6000   6.6599   6.6599   6.7524   6.7524
     6.8525   6.8525   6.8873   6.8873   8.0069   8.0070   8.0504   8.0505
     8.1703   8.1704   8.1980   8.1981   8.2822   8.2822   8.3273   8.3274
     9.0568   9.0569   9.5953   9.5954   9.9835   9.9835  10.1936  10.1936
    10.2751  10.2751  10.3061  10.3062  10.3463  10.3463  10.4164  10.4164
    10.5920  10.5920  10.9576  10.9576  11.2902  11.2903  11.4094  11.4094
    11.6411  11.6412  11.9768  11.9769  12.1259  12.1259  12.3183  12.3184
    12.5202  12.5202  12.7141  12.7141  12.9690  12.9690  13.0722  13.0722
    13.1675  13.1675  13.2247  13.2248  13.5539  13.5539  13.5879  13.5879
    13.6795  13.6795  13.9156  13.9156  14.2397  14.2397  14.3510  14.3510
    14.3954  14.3955  14.6852  14.6852  14.8473  14.8473  14.9745  14.9745
    15.4743  15.4743  15.5751  15.5751  15.8140  15.8141  15.8490  15.8490
    15.9242  15.9243  15.9990  15.9990  16.0400  16.0401  16.0874  16.0875
    16.4071  16.4071  16.5279  16.5280  16.5401  16.5401  16.5482  16.5482
    16.5973  16.5973  16.6163  16.6163  16.8852  16.8852  17.0554  17.0555
    17.5189  17.5189  17.5906  17.5906  17.8263  17.8264  17.9056  17.9056
    17.9758  17.9758  18.0369  18.0369  18.1378  18.1379  18.3165  18.3165
    18.3874  18.3874  18.4345  18.4345  18.5772  18.5773  18.6276  18.6276
    18.9561  18.9562  19.0854  19.0854  19.2997  19.2997  19.4967  19.4968
    19.7195  19.7196  19.8670  19.8671  20.0596  20.0597  20.1503  20.1503
    20.6966  20.6966  20.8524  20.8524  20.8889  20.8889  20.9953  20.9954
    21.0407  21.0408  21.1837  21.1837  21.2428  21.2428  21.3955  21.3956
    21.4313  21.4313  21.5204  21.5204

          k = 0.5000 0.4365 0.0000 ( 35400 PWs)   bands (ev):

   -17.3411 -17.3411 -17.3383 -17.3382 -17.3356 -17.3356 -17.3332 -17.3329
   -17.3171 -17.3169 -17.3096 -17.3095 -17.3033 -17.3033 -17.3005 -17.3004
   -17.2973 -17.2973 -17.2957 -17.2955 -17.2850 -17.2850 -17.2825 -17.2825
   -17.2809 -17.2809 -17.2769 -17.2767 -17.2764 -17.2763 -17.2711 -17.2710
   -17.2706 -17.2705 -17.2670 -17.2669 -17.2628 -17.2628 -17.2600 -17.2600
   -17.2521 -17.2519 -17.2478 -17.2476 -17.2438 -17.2437 -17.2365 -17.2365
   -17.2353 -17.2352 -17.2331 -17.2329 -17.2309 -17.2309 -17.2231 -17.2229
   -17.2095 -17.2093 -17.2093 -17.2092  -8.3418  -8.3417  -8.3393  -8.3392
    -8.3372  -8.3371  -8.3345  -8.3343  -8.3334  -8.3331  -8.2390  -8.2389
    -2.9306  -2.9306  -2.9144  -2.9144  -2.8924  -2.8923  -2.8690  -2.8690
    -2.8493  -2.8492  -2.8026  -2.8025  -0.7314  -0.7314  -0.6088  -0.6088
    -0.4303  -0.4303  -0.2415  -0.2415  -0.2026  -0.2026  -0.1496  -0.1496
     0.1852   0.1852   0.1991   0.1992   0.3059   0.3059   0.3692   0.3693
     0.5195   0.5195   0.6238   0.6238   1.8795   1.8796   2.0930   2.0930
     2.3318   2.3318   2.5162   2.5163   2.6066   2.6066   2.6271   2.6272
     6.6172   6.6173   6.6320   6.6321   6.6925   6.6925   6.7332   6.7333
     6.8293   6.8294   6.8564   6.8566   8.0206   8.0207   8.0600   8.0602
     8.1858   8.1859   8.2090   8.2091   8.2984   8.2984   8.3269   8.3270
     9.0602   9.0603   9.6088   9.6088  10.0019  10.0019  10.2155  10.2156
    10.2964  10.2965  10.3286  10.3286  10.3583  10.3583  10.4287  10.4287
    10.5951  10.5951  10.9560  10.9560  11.2924  11.2925  11.4126  11.4126
    11.6686  11.6686  12.0250  12.0250  12.1348  12.1348  12.2553  12.2553
    12.5720  12.5721  12.6551  12.6551  12.9851  12.9851  13.0817  13.0817
    13.1801  13.1801  13.2008  13.2008  13.5408  13.5408  13.5562  13.5562
    13.7017  13.7017  13.8496  13.8496  14.2094  14.2094  14.3378  14.3378
    14.3741  14.3742  14.7148  14.7148  14.7932  14.7932  14.9491  14.9491
    15.4931  15.4931  15.5939  15.5940  15.8173  15.8173  15.8469  15.8470
    15.9236  15.9236  15.9974  15.9974  16.0352  16.0353  16.0665  16.0665
    16.4200  16.4200  16.5372  16.5372  16.5562  16.5563  16.5595  16.5596
    16.6029  16.6030  16.6188  16.6188  16.8924  16.8924  17.0585  17.0585
    17.5562  17.5563  17.5975  17.5976  17.9069  17.9069  17.9614  17.9614
    17.9919  17.9920  18.0267  18.0267  18.1289  18.1289  18.2860  18.2860
    18.3627  18.3627  18.4017  18.4017  18.5476  18.5476  18.6116  18.6116
    18.9336  18.9337  19.0871  19.0871  19.2616  19.2616  19.4670  19.4671
    19.6956  19.6956  19.8287  19.8288  20.0448  20.0449  20.1223  20.1223
    20.7384  20.7384  20.8479  20.8479  20.9068  20.9068  20.9985  20.9985
    21.0783  21.0783  21.1509  21.1509  21.2105  21.2105  21.3737  21.3737
    21.4252  21.4253  21.5279  21.5279

          k = 0.4750 0.4146 0.0000 ( 35400 PWs)   bands (ev):

   -17.3409 -17.3408 -17.3383 -17.3378 -17.3354 -17.3354 -17.3330 -17.3328
   -17.3170 -17.3167 -17.3094 -17.3093 -17.3035 -17.3032 -17.3009 -17.3001
   -17.2975 -17.2973 -17.2958 -17.2955 -17.2852 -17.2849 -17.2829 -17.2823
   -17.2809 -17.2808 -17.2770 -17.2768 -17.2765 -17.2764 -17.2713 -17.2710
   -17.2708 -17.2703 -17.2671 -17.2669 -17.2634 -17.2623 -17.2601 -17.2598
   -17.2522 -17.2520 -17.2478 -17.2476 -17.2438 -17.2437 -17.2366 -17.2365
   -17.2353 -17.2352 -17.2335 -17.2326 -17.2311 -17.2309 -17.2232 -17.2229
   -17.2096 -17.2094 -17.2093 -17.2092  -8.3613  -8.3568  -8.3528  -8.3489
    -8.3473  -8.3354  -8.3327  -8.3312  -8.3275  -8.3273  -8.2436  -8.2435
    -2.9695  -2.9539  -2.9427  -2.9308  -2.9293  -2.8556  -2.8507  -2.8441
    -2.8331  -2.8287  -2.7988  -2.7985  -0.7631  -0.7099  -0.6447  -0.5908
    -0.4819  -0.3993  -0.2761  -0.2190  -0.1797  -0.1759  -0.1557  -0.1281
     0.1828   0.1974   0.2003   0.2368   0.2943   0.3203   0.3829   0.4475
     0.5343   0.6078   0.6383   0.7223   1.8559   1.8914   2.0692   2.1042
     2.3082   2.3477   2.5077   2.5283   2.6120   2.6187   2.6375   2.6395
     6.4922   6.5230   6.5943   6.6225   6.6723   6.7020   6.7353   6.7768
     6.8281   6.8566   6.9331   6.9840   7.9921   7.9947   8.0461   8.0537
     8.1504   8.1653   8.1985   8.2083   8.2678   8.2925   8.3119   8.3500
     9.0524   9.0618   9.5690   9.6091   9.9495   9.9948  10.1513  10.2019
    10.2369  10.2693  10.2812  10.3026  10.3126  10.3525  10.3879  10.4162
    10.5746  10.5895  10.9422  10.9598  11.2460  11.3178  11.3783  11.4236
    11.5724  11.6245  11.9032  12.0012  12.0607  12.1586  12.3143  12.3743
    12.4417  12.6168  12.7210  12.8149  12.9578  12.9780  12.9955  13.0554
    13.1446  13.1783  13.3049  13.3179  13.5322  13.5556  13.5717  13.6175
    13.6509  13.7432  13.8133  14.0699  14.2229  14.2500  14.2876  14.3584
    14.4008  14.4538  14.6414  14.7246  14.7842  14.8916  14.9258  15.0748
    15.4391  15.4786  15.4856  15.6052  15.7308  15.7335  15.8011  15.8508
    15.8578  15.8783  15.9035  15.9227  16.0052  16.0430  16.0751  16.1188
    16.3457  16.4029  16.4353  16.4512  16.4731  16.4939  16.5428  16.6598
    16.6999  16.7144  16.7408  16.7691  16.8930  16.9302  17.0490  17.1347
    17.4450  17.5457  17.6120  17.6727  17.7101  17.7930  17.9138  17.9362
    17.9801  18.0097  18.0583  18.0830  18.1169  18.2109  18.3428  18.3737
    18.3890  18.4317  18.4600  18.5153  18.6016  18.6310  18.6558  18.6820
    18.9396  18.9716  19.0768  19.1924  19.2588  19.3031  19.4256  19.5069
    19.7145  19.7572  19.8334  19.9544  19.9914  20.0180  20.0933  20.1230
    20.4766  20.5472  20.5991  20.6607  20.6963  20.7743  20.8251  20.9042
    20.9641  21.1014  21.1212  21.1429  21.2181  21.2306  21.3372  21.4082
    21.4813  21.5820  21.6226  21.6876

          k = 0.4500 0.3928 0.0000 ( 35423 PWs)   bands (ev):

   -17.3405 -17.3402 -17.3380 -17.3370 -17.3349 -17.3348 -17.3325 -17.3322
   -17.3164 -17.3162 -17.3089 -17.3088 -17.3039 -17.3032 -17.3015 -17.2999
   -17.2978 -17.2975 -17.2961 -17.2957 -17.2855 -17.2849 -17.2832 -17.2821
   -17.2811 -17.2807 -17.2772 -17.2770 -17.2767 -17.2765 -17.2717 -17.2713
   -17.2708 -17.2702 -17.2674 -17.2670 -17.2640 -17.2619 -17.2602 -17.2597
   -17.2524 -17.2522 -17.2478 -17.2476 -17.2440 -17.2439 -17.2370 -17.2366
   -17.2353 -17.2352 -17.2341 -17.2324 -17.2312 -17.2309 -17.2233 -17.2231
   -17.2099 -17.2098 -17.2094 -17.2093  -8.4028  -8.3942  -8.3845  -8.3737
    -8.3612  -8.3497  -8.3386  -8.3290  -8.3217  -8.3193  -8.2535  -8.2534
    -3.0427  -3.0168  -2.9858  -2.9606  -2.9516  -2.8252  -2.8243  -2.8127
    -2.8115  -2.8027  -2.7775  -2.7764  -0.8247  -0.7166  -0.6444  -0.5707
    -0.5284  -0.3779  -0.3234  -0.2270  -0.1736  -0.1453  -0.1147  -0.0598
     0.2014   0.2302   0.2815   0.3014   0.3208   0.4164   0.4674   0.5595
     0.6413   0.6648   0.8064   0.9198   1.7969   1.9270   2.0103   2.1353
     2.2609   2.3779   2.4869   2.5590   2.6225   2.6520   2.6693   2.6716
     6.2561   6.3662   6.5139   6.6072   6.6771   6.7344   6.7668   6.7996
     6.8619   6.9243   7.0492   7.1447   7.9050   7.9147   7.9799   8.0197
     8.0557   8.1167   8.1841   8.1958   8.2086   8.2704   8.2922   8.3907
     9.0265   9.0560   9.4628   9.6002   9.8026   9.9568   9.9790  10.0720
    10.1071  10.1545  10.1952  10.2304  10.2489  10.2863  10.3264  10.3755
    10.5334  10.5649  10.9147  10.9445  11.1483  11.2617  11.3356  11.3796
    11.4668  11.5449  11.7633  11.9353  12.0612  12.1239  12.2590  12.4026
    12.5708  12.6392  12.7960  12.8654  12.9520  12.9882  13.0211  13.0697
    13.1655  13.2065  13.3732  13.5104  13.5527  13.5667  13.5783  13.6510
    13.8356  13.8487  13.8997  14.1327  14.3169  14.3359  14.3557  14.3982
    14.5046  14.5529  14.6537  14.7383  14.8131  14.8837  15.0303  15.2157
    15.3114  15.3645  15.4389  15.5373  15.5741  15.5846  15.6169  15.6801
    15.6914  15.7623  15.7697  15.8503  15.8646  15.9573  16.0140  16.0793
    16.1907  16.4065  16.4216  16.4642  16.5138  16.5979  16.6245  16.7614
    16.8227  16.8462  16.9000  16.9058  16.9135  17.0071  17.1233  17.1421
    17.3562  17.4181  17.5567  17.6259  17.7157  17.7652  17.8193  17.8403
    17.9556  18.0211  18.0892  18.1306  18.1588  18.2508  18.3775  18.5221
    18.5608  18.6200  18.6554  18.6878  18.7382  18.7548  18.8416  18.8651
    18.9847  19.0749  19.2381  19.2960  19.3267  19.3719  19.4524  19.5078
    19.6781  19.7805  19.8192  19.8341  19.9222  19.9525  20.0216  20.0666
    20.2191  20.2415  20.3275  20.4634  20.5830  20.6791  20.6971  20.7267
    20.8018  20.9170  20.9501  21.0341  21.0718  21.1519  21.2800  21.4072
    21.4707  21.5496  21.7365  21.7943

          k = 0.4250 0.3710 0.0000 ( 35429 PWs)   bands (ev):

   -17.3397 -17.3391 -17.3374 -17.3359 -17.3341 -17.3338 -17.3317 -17.3314
   -17.3155 -17.3153 -17.3081 -17.3080 -17.3045 -17.3032 -17.3022 -17.2999
   -17.2984 -17.2980 -17.2965 -17.2961 -17.2858 -17.2851 -17.2837 -17.2819
   -17.2813 -17.2804 -17.2777 -17.2775 -17.2769 -17.2767 -17.2723 -17.2718
   -17.2709 -17.2701 -17.2678 -17.2672 -17.2647 -17.2615 -17.2603 -17.2596
   -17.2527 -17.2525 -17.2477 -17.2475 -17.2442 -17.2441 -17.2375 -17.2369
   -17.2354 -17.2353 -17.2347 -17.2324 -17.2315 -17.2310 -17.2236 -17.2233
   -17.2104 -17.2103 -17.2096 -17.2094  -8.4627  -8.4501  -8.4343  -8.4159
    -8.3920  -8.3841  -8.3472  -8.3293  -8.3159  -8.3092  -8.2604  -8.2603
    -3.1301  -3.0913  -3.0411  -2.9925  -2.9612  -2.8193  -2.8192  -2.7841
    -2.7785  -2.7641  -2.7384  -2.7368  -0.8757  -0.7758  -0.6345  -0.5452
    -0.4948  -0.3978  -0.3177  -0.2566  -0.2239  -0.0594  -0.0196   0.0487
     0.2296   0.2862   0.3376   0.4486   0.4592   0.5327   0.6223   0.6715
     0.7179   0.8614   1.0318   1.1431   1.7286   1.9290   1.9962   2.1686
     2.2161   2.4169   2.4648   2.6036   2.6344   2.7035   2.7121   2.7247
     6.0066   6.1853   6.4186   6.5971   6.6946   6.7729   6.7988   6.8347
     6.9103   6.9907   7.1537   7.2568   7.7448   7.7647   7.8450   7.9322
     7.9546   8.0640   8.1070   8.1765   8.1851   8.2467   8.2962   8.4403
     8.9700   9.0247   9.2971   9.5412   9.6077   9.7205   9.7896   9.8618
     9.9441  10.0329  10.1059  10.1542  10.1732  10.1835  10.2690  10.3010
    10.4781  10.5289  10.8024  10.9168  11.0161  11.1081  11.3083  11.3260
    11.4769  11.4923  11.6421  11.9027  12.0634  12.0891  12.2469  12.4539
    12.5385  12.7216  12.7428  12.8127  12.9414  12.9932  13.1171  13.1766
    13.2477  13.2910  13.4422  13.5518  13.5868  13.6460  13.7354  13.7513
    13.9188  14.0014  14.0434  14.1971  14.3788  14.3959  14.4421  14.4719
    14.5640  14.6189  14.6932  14.8321  14.8564  14.9224  15.0137  15.1067
    15.2683  15.2879  15.3102  15.3814  15.3945  15.4402  15.4818  15.5072
    15.5231  15.5741  15.6746  15.7116  15.7608  15.8764  15.9351  16.0461
    16.1465  16.4108  16.5218  16.5581  16.6031  16.6586  16.6972  16.7922
    16.8180  16.8897  16.9398  17.0017  17.0501  17.1169  17.2487  17.2901
    17.3147  17.3933  17.5808  17.6703  17.7033  17.7507  17.7984  17.8909
    17.9641  18.0387  18.1133  18.1631  18.1891  18.2086  18.5236  18.6113
    18.7096  18.7486  18.8439  18.8736  18.9020  18.9189  19.0417  19.0844
    19.1054  19.1263  19.1956  19.2273  19.4156  19.4883  19.5144  19.6017
    19.6244  19.6422  19.7198  19.7560  19.8023  19.8934  19.9201  19.9949
    20.0329  20.1109  20.2738  20.3686  20.4743  20.5442  20.6114  20.6338
    20.8070  20.9042  20.9208  21.0172  21.0419  21.0958  21.2604  21.3489
    21.3879  21.5142  21.5965  21.6502

          k = 0.4000 0.3492 0.0000 ( 35444 PWs)   bands (ev):

   -17.3388 -17.3376 -17.3364 -17.3345 -17.3330 -17.3325 -17.3305 -17.3303
   -17.3143 -17.3141 -17.3070 -17.3070 -17.3053 -17.3033 -17.3030 -17.3002
   -17.2992 -17.2988 -17.2969 -17.2967 -17.2862 -17.2853 -17.2842 -17.2818
   -17.2814 -17.2801 -17.2784 -17.2782 -17.2772 -17.2770 -17.2729 -17.2724
   -17.2711 -17.2700 -17.2682 -17.2675 -17.2655 -17.2612 -17.2603 -17.2594
   -17.2531 -17.2529 -17.2476 -17.2474 -17.2445 -17.2444 -17.2382 -17.2372
   -17.2358 -17.2353 -17.2351 -17.2325 -17.2318 -17.2312 -17.2238 -17.2236
   -17.2111 -17.2110 -17.2099 -17.2097  -8.5387  -8.5223  -8.5008  -8.4757
    -8.4457  -8.4384  -8.3534  -8.3301  -8.3104  -8.2984  -8.2608  -8.2606
    -3.2245  -3.1725  -3.1016  -3.0260  -2.9642  -2.8191  -2.8173  -2.7636
    -2.7397  -2.7145  -2.6879  -2.6844  -0.8998  -0.8080  -0.6778  -0.5335
    -0.4272  -0.3774  -0.3184  -0.2895  -0.1398   0.0434   0.0908   0.1878
     0.2630   0.3581   0.3923   0.5563   0.6739   0.6965   0.7451   0.7859
     0.9149   1.0971   1.2629   1.3652   1.6809   1.8620   2.0862   2.1176
     2.2752   2.3999   2.5187   2.6121   2.6958   2.7405   2.7839   2.8032
     5.7615   5.9968   6.3090   6.5856   6.7266   6.8123   6.8225   6.8757
     6.9623   7.0420   7.2238   7.2647   7.5218   7.5583   7.6819   7.7942
     7.8612   8.0039   8.0134   8.1567   8.1782   8.2042   8.3307   8.4898
     8.8792   8.9524   9.0834   9.2756   9.4011   9.4815   9.4938   9.6405
     9.8836   9.9319  10.0154  10.0663  10.0817  10.1089  10.1860  10.2033
    10.3516  10.5285  10.6470  10.7298  10.9915  11.0396  11.2880  11.3253
    11.3769  11.4843  11.6538  11.8928  12.0749  12.0812  12.2593  12.4434
    12.5343  12.6777  12.7847  12.8405  12.9239  13.0044  13.1664  13.2149
    13.2543  13.3613  13.4918  13.5855  13.6369  13.6758  13.8041  13.9540
    14.0324  14.0733  14.1210  14.3256  14.3442  14.3984  14.4323  14.5006
    14.5225  14.6046  14.6140  14.7780  14.7984  14.9060  14.9522  15.0395
    15.1011  15.1922  15.2168  15.2973  15.3165  15.4031  15.4165  15.4490
    15.4987  15.5221  15.6254  15.6719  15.7636  15.8296  15.9500  16.0628
    16.1655  16.2683  16.3857  16.5043  16.5877  16.6550  16.7057  16.9114
    16.9516  17.0240  17.0455  17.0754  17.1849  17.2584  17.3443  17.3827
    17.4732  17.5792  17.6514  17.7267  17.7924  17.8468  17.8658  17.9253
    18.0116  18.0575  18.1304  18.1683  18.1947  18.3078  18.6212  18.6821
    18.7214  18.7659  18.7918  18.8502  18.8632  18.8735  19.0260  19.0828
    19.1331  19.2532  19.3187  19.3608  19.4678  19.5029  19.5356  19.6198
    19.6535  19.7114  19.7790  19.8315  19.8392  19.8604  19.8809  19.9351
    20.0302  20.2389  20.2773  20.3887  20.3976  20.4373  20.5977  20.7311
    20.8386  20.8468  20.8958  20.9527  21.0155  21.0668  21.2355  21.3392
    21.4160  21.4565  21.5262  21.5818

          k = 0.3750 0.3274 0.0000 ( 35482 PWs)   bands (ev):

   -17.3376 -17.3359 -17.3353 -17.3328 -17.3316 -17.3310 -17.3292 -17.3289
   -17.3128 -17.3126 -17.3064 -17.3057 -17.3057 -17.3042 -17.3035 -17.3008
   -17.3001 -17.2999 -17.2976 -17.2974 -17.2865 -17.2856 -17.2848 -17.2817
   -17.2814 -17.2800 -17.2793 -17.2791 -17.2777 -17.2774 -17.2736 -17.2730
   -17.2715 -17.2700 -17.2687 -17.2677 -17.2663 -17.2608 -17.2601 -17.2592
   -17.2536 -17.2534 -17.2474 -17.2473 -17.2448 -17.2447 -17.2389 -17.2376
   -17.2366 -17.2352 -17.2351 -17.2329 -17.2320 -17.2315 -17.2241 -17.2238
   -17.2119 -17.2118 -17.2102 -17.2100  -8.6276  -8.6078  -8.5813  -8.5505
    -8.5170  -8.5088  -8.3585  -8.3310  -8.3054  -8.2874  -8.2562  -8.2560
    -3.3196  -3.2553  -3.1647  -3.0621  -2.9655  -2.8239  -2.8072  -2.7371
    -2.6935  -2.6567  -2.6261  -2.6196  -0.8937  -0.8094  -0.6907  -0.5584
    -0.4387  -0.3639  -0.2561  -0.1643  -0.0244   0.1461   0.1794   0.2977
     0.3433   0.4339   0.5002   0.6643   0.7821   0.8312   0.9215   1.0084
     1.1517   1.3284   1.4819   1.5687   1.6812   1.8247   2.0530   2.2265
     2.3061   2.4360   2.5761   2.6414   2.7631   2.7954   2.8806   2.9005
     5.5378   5.8154   6.1873   6.5519   6.7621   6.8335   6.8454   6.9101
     7.0056   7.0692   7.1179   7.2037   7.2891   7.3794   7.5114   7.6727
     7.7434   7.8794   7.9235   8.1257   8.1557   8.2016   8.3757   8.5153
     8.7544   8.8494   8.8905   8.9834   9.0734   9.1391   9.1657   9.5967
     9.8060   9.9049   9.9231   9.9575   9.9744  10.0183  10.0503  10.1652
    10.2149  10.4407  10.5127  10.6557  10.9038  11.0379  11.2550  11.3259
    11.3931  11.4764  11.7181  11.8878  12.0745  12.1292  12.2900  12.3976
    12.5378  12.7121  12.7996  12.8930  12.9103  13.0241  13.1674  13.2008
    13.2973  13.3380  13.4918  13.5498  13.6016  13.7077  13.7743  13.8789
    14.0151  14.1065  14.1456  14.2180  14.2317  14.2872  14.3615  14.4083
    14.4164  14.5346  14.5423  14.6389  14.7594  14.8717  14.8883  15.0149
    15.0362  15.1607  15.2070  15.3481  15.3632  15.4430  15.4604  15.4907
    15.5689  15.6152  15.6877  15.7302  15.7721  15.8563  15.9579  15.9968
    16.0551  16.1100  16.2944  16.4081  16.5069  16.7378  16.8127  17.0055
    17.0692  17.1752  17.1797  17.2092  17.3143  17.3832  17.4261  17.4902
    17.5791  17.7529  17.7823  17.8104  17.8501  17.9460  18.0058  18.0256
    18.0816  18.0854  18.1036  18.1932  18.2590  18.3772  18.5256  18.5532
    18.5972  18.6793  18.7317  18.7873  18.8573  18.9749  19.0264  19.0861
    19.1846  19.2160  19.2939  19.4104  19.4882  19.5143  19.5616  19.6122
    19.6613  19.8038  19.8380  19.8962  19.9160  19.9703  20.0214  20.1372
    20.2424  20.3423  20.4013  20.4715  20.4957  20.5676  20.6499  20.7088
    20.7723  20.8229  20.8766  20.9337  20.9489  21.0638  21.1249  21.3440
    21.3866  21.4814  21.4862  21.6624

          k = 0.3500 0.3055 0.0000 ( 35495 PWs)   bands (ev):

   -17.3363 -17.3341 -17.3337 -17.3310 -17.3300 -17.3294 -17.3276 -17.3273
   -17.3112 -17.3110 -17.3077 -17.3055 -17.3044 -17.3042 -17.3040 -17.3017
   -17.3010 -17.3010 -17.2985 -17.2982 -17.2869 -17.2858 -17.2852 -17.2819
   -17.2815 -17.2807 -17.2804 -17.2795 -17.2783 -17.2778 -17.2743 -17.2735
   -17.2720 -17.2702 -17.2692 -17.2679 -17.2670 -17.2605 -17.2598 -17.2588
   -17.2541 -17.2539 -17.2474 -17.2472 -17.2450 -17.2449 -17.2398 -17.2381
   -17.2374 -17.2351 -17.2350 -17.2334 -17.2323 -17.2317 -17.2244 -17.2241
   -17.2128 -17.2127 -17.2105 -17.2104  -8.7262  -8.7033  -8.6724  -8.6369
    -8.6008  -8.5910  -8.3637  -8.3322  -8.3011  -8.2770  -8.2489  -8.2481
    -3.4093  -3.3345  -3.2265  -3.1000  -2.9721  -2.8347  -2.7787  -2.6953
    -2.6354  -2.5879  -2.5519  -2.5422  -0.8589  -0.7813  -0.6736  -0.5554
    -0.4487  -0.3825  -0.1040  -0.0252   0.0951   0.2124   0.2409   0.3262
     0.4926   0.5371   0.6257   0.7825   0.8868   0.9248   1.1511   1.2400
     1.3769   1.5415   1.6751   1.7409   1.7444   1.8390   2.0258   2.2764
     2.4001   2.5529   2.5869   2.7570   2.7887   2.9143   2.9911   3.0044
     5.3581   5.6603   6.0638   6.4694   6.7383   6.8168   6.8313   6.8635
     6.9443   6.9738   7.0907   7.1209   7.1538   7.2786   7.3447   7.5240
     7.6064   7.6809   7.7802   8.1088   8.1437   8.2280   8.3956   8.4832
     8.6077   8.6531   8.7378   8.7808   8.7970   8.8237   8.8656   9.5666
     9.7059   9.7801   9.8258   9.8349   9.8555   9.8918  10.0111  10.0401
    10.2687  10.3084  10.3955  10.7403  10.8039  10.9798  11.3021  11.3472
    11.4396  11.4701  11.7859  11.8978  12.1043  12.1941  12.3269  12.4011
    12.5095  12.7617  12.8174  12.8782  12.9536  13.0223  13.1099  13.1725
    13.2548  13.3166  13.4135  13.4478  13.4928  13.5767  13.6117  13.6651
    13.8860  13.9820  14.0128  14.0217  14.0625  14.1788  14.2403  14.2893
    14.3385  14.4052  14.4752  14.6083  14.7275  14.8265  14.8874  15.0472
    15.1549  15.2256  15.3089  15.3494  15.3894  15.4838  15.5254  15.5811
    15.6251  15.6732  15.7210  15.7592  15.8220  15.9075  15.9164  15.9814
    16.1113  16.1403  16.2512  16.4028  16.5822  16.7650  16.9224  17.0316
    17.1027  17.2131  17.2813  17.3551  17.4118  17.4780  17.5076  17.6077
    17.6800  17.7690  17.8197  17.8894  17.9518  17.9721  17.9909  18.0452
    18.0798  18.1939  18.2198  18.2587  18.3149  18.4162  18.4862  18.4994
    18.5917  18.6810  18.7161  18.8640  18.9404  18.9647  18.9947  19.0905
    19.1343  19.2313  19.2637  19.3700  19.3886  19.5526  19.6405  19.6998
    19.7354  19.8769  19.9147  19.9410  20.0435  20.1009  20.1688  20.2423
    20.3608  20.5075  20.5497  20.5932  20.6221  20.6584  20.6978  20.7331
    20.7855  20.8212  20.8700  20.9089  20.9955  21.0286  21.1653  21.3145
    21.4459  21.5596  21.5797  21.6520

          k = 0.3250 0.2837 0.0000 ( 35500 PWs)   bands (ev):

   -17.3349 -17.3326 -17.3317 -17.3291 -17.3283 -17.3278 -17.3258 -17.3255
   -17.3096 -17.3094 -17.3089 -17.3068 -17.3052 -17.3033 -17.3030 -17.3027
   -17.3020 -17.3019 -17.2994 -17.2992 -17.2872 -17.2860 -17.2855 -17.2824
   -17.2822 -17.2818 -17.2811 -17.2798 -17.2792 -17.2782 -17.2752 -17.2738
   -17.2724 -17.2705 -17.2698 -17.2679 -17.2674 -17.2601 -17.2593 -17.2584
   -17.2547 -17.2545 -17.2475 -17.2474 -17.2449 -17.2447 -17.2406 -17.2386
   -17.2382 -17.2349 -17.2349 -17.2340 -17.2327 -17.2320 -17.2246 -17.2243
   -17.2139 -17.2137 -17.2109 -17.2107  -8.8311  -8.8056  -8.7709  -8.7311
    -8.6927  -8.6812  -8.3696  -8.3342  -8.2976  -8.2677  -8.2403  -8.2381
    -3.4883  -3.4050  -3.2828  -3.1365  -2.9850  -2.8488  -2.7268  -2.6349
    -2.5627  -2.5059  -2.4646  -2.4518  -0.7984  -0.7269  -0.6295  -0.5253
    -0.4307  -0.3703   0.0138   0.1042   0.2021   0.2327   0.3207   0.3476
     0.6166   0.6415   0.7381   0.9012   1.0127   1.0574   1.3514   1.4492
     1.5799   1.7273   1.8368   1.8621   1.8774   1.9125   2.0477   2.2683
     2.5386   2.6146   2.7529   2.7933   2.9185   3.0431   3.0944   3.1017
     5.2497   5.5556   5.9593   6.3419   6.5401   6.5492   6.7881   6.8260
     6.9263   6.9646   7.0086   7.0706   7.1632   7.1908   7.2035   7.3433
     7.4301   7.4492   7.5867   8.1019   8.1419   8.2407   8.3331   8.3944
     8.4201   8.4378   8.4660   8.4841   8.6177   8.7662   8.8708   9.5302
     9.5849   9.6178   9.6567   9.6829   9.6849   9.7279   9.9154  10.1528
    10.2128  10.2372  10.5281  10.6740  10.8235  11.0044  11.2991  11.3687
    11.4572  11.5367  11.8420  11.9528  12.1447  12.2287  12.3874  12.4349
    12.4950  12.7199  12.7814  12.8961  12.9384  12.9745  13.0232  13.0856
    13.1156  13.1953  13.2122  13.2548  13.2879  13.3180  13.4396  13.6206
    13.7575  13.8255  13.8504  13.9257  13.9631  14.0413  14.0851  14.1748
    14.2756  14.3819  14.4780  14.5413  14.6664  14.7092  14.8165  14.9688
    15.1790  15.2132  15.3122  15.3506  15.4284  15.4971  15.5607  15.6717
    15.7138  15.7439  15.8250  15.8529  15.8631  15.9381  15.9884  16.1290
    16.1906  16.2455  16.3915  16.5354  16.7016  16.7695  16.9831  17.0062
    17.1192  17.2269  17.3167  17.4259  17.4419  17.4874  17.5369  17.6148
    17.6708  17.7346  17.8688  17.9161  17.9382  17.9759  18.0272  18.1236
    18.1883  18.1991  18.2727  18.3053  18.3466  18.4337  18.5109  18.5469
    18.6401  18.7416  18.8156  18.8556  18.9714  19.0034  19.0698  19.0964
    19.1919  19.2573  19.2964  19.3716  19.4124  19.6296  19.7087  19.8252
    19.8368  19.8718  19.9479  20.0519  20.1288  20.2128  20.3002  20.3176
    20.3783  20.4244  20.5589  20.6024  20.6561  20.7196  20.8065  20.8199
    20.8533  20.8977  20.9377  20.9874  21.0540  21.1129  21.1688  21.2956
    21.5171  21.6119  21.6356  21.6499

          k = 0.3000 0.2619 0.0000 ( 35514 PWs)   bands (ev):

   -17.3335 -17.3313 -17.3296 -17.3274 -17.3267 -17.3263 -17.3239 -17.3236
   -17.3104 -17.3085 -17.3078 -17.3074 -17.3065 -17.3045 -17.3037 -17.3036
   -17.3015 -17.3014 -17.3001 -17.2999 -17.2875 -17.2859 -17.2856 -17.2838
   -17.2836 -17.2822 -17.2813 -17.2806 -17.2802 -17.2785 -17.2763 -17.2740
   -17.2727 -17.2710 -17.2704 -17.2679 -17.2676 -17.2596 -17.2588 -17.2579
   -17.2553 -17.2550 -17.2478 -17.2477 -17.2446 -17.2444 -17.2415 -17.2392
   -17.2389 -17.2351 -17.2347 -17.2343 -17.2330 -17.2323 -17.2247 -17.2245
   -17.2149 -17.2148 -17.2113 -17.2111  -8.9392  -8.9113  -8.8733  -8.8300
    -8.7894  -8.7760  -8.3767  -8.3374  -8.2954  -8.2598  -8.2313  -8.2271
    -3.5524  -3.4627  -3.3293  -3.1675  -2.9994  -2.8618  -2.6521  -2.5553
    -2.4741  -2.4096  -2.3635  -2.3482  -0.7159  -0.6502  -0.5628  -0.4726
    -0.3889  -0.3291   0.0120   0.1782   0.2927   0.3269   0.3747   0.4068
     0.7194   0.7346   0.8283   1.0036   1.1485   1.2174   1.5132   1.6219
     1.7485   1.8735   1.9519   1.9706   2.0236   2.0439   2.1315   2.3073
     2.5587   2.8030   2.8226   2.9293   3.0635   3.1573   3.1701   3.1996
     5.2351   5.5240   5.9000   6.2159   6.2894   6.3286   6.6978   6.7156
     6.8148   6.9102   6.9198   6.9671   7.0602   7.0965   7.1592   7.2255
     7.2288   7.3395   7.4186   8.0549   8.0774   8.1352   8.1451   8.1832
     8.2699   8.2850   8.3716   8.4324   8.6077   8.7627   8.8792   9.3939
     9.4430   9.4637   9.4905   9.5218   9.5459   9.5805   9.8387  10.0551
    10.1547  10.4753  10.5819  10.7471  10.8120  11.1238  11.2758  11.3360
    11.5276  11.6092  11.8887  12.0137  12.1471  12.2256  12.4104  12.4910
    12.5227  12.6035  12.6705  12.7435  12.7957  12.8414  12.8687  12.8825
    12.9086  12.9681  13.0003  13.1022  13.1804  13.2357  13.3849  13.5365
    13.6309  13.7198  13.8056  13.8431  13.8917  13.9197  14.0514  14.1306
    14.1836  14.3438  14.4143  14.4946  14.6265  14.6549  14.7294  14.8465
    14.9528  15.1480  15.2561  15.3172  15.3986  15.4259  15.5903  15.7231
    15.7992  15.8103  15.8777  15.8960  15.9765  16.1089  16.2278  16.2977
    16.3573  16.4056  16.5712  16.7047  16.7152  16.8013  17.0199  17.0338
    17.1200  17.1855  17.3336  17.3667  17.4477  17.4901  17.5138  17.6009
    17.7063  17.7651  17.8093  17.8921  17.9127  17.9457  18.0085  18.0361
    18.1534  18.2012  18.3410  18.3718  18.4593  18.5199  18.5736  18.6382
    18.7553  18.8177  18.8254  18.8442  18.9666  19.0903  19.1111  19.1516
    19.2350  19.2918  19.4150  19.4959  19.6028  19.6939  19.7251  19.8152
    19.8815  19.9297  19.9873  20.1313  20.2132  20.2175  20.3259  20.4130
    20.4363  20.4822  20.5130  20.5830  20.6116  20.7256  20.7693  20.8165
    20.8736  20.9139  20.9551  21.0436  21.2290  21.2479  21.2754  21.3458
    21.4132  21.5534  21.6364  21.6500

          k = 0.2750 0.2401 0.0000 ( 35559 PWs)   bands (ev):

   -17.3324 -17.3301 -17.3277 -17.3260 -17.3256 -17.3245 -17.3219 -17.3217
   -17.3114 -17.3096 -17.3082 -17.3065 -17.3063 -17.3058 -17.3049 -17.3048
   -17.3022 -17.3020 -17.2992 -17.2991 -17.2877 -17.2859 -17.2855 -17.2850
   -17.2849 -17.2827 -17.2819 -17.2817 -17.2811 -17.2789 -17.2774 -17.2742
   -17.2729 -17.2716 -17.2708 -17.2678 -17.2676 -17.2590 -17.2582 -17.2576
   -17.2559 -17.2553 -17.2481 -17.2480 -17.2443 -17.2439 -17.2421 -17.2399
   -17.2393 -17.2358 -17.2346 -17.2341 -17.2332 -17.2326 -17.2248 -17.2245
   -17.2160 -17.2159 -17.2117 -17.2115  -9.0475  -9.0177  -8.9768  -8.9303
    -8.8876  -8.8724  -8.3853  -8.3420  -8.2946  -8.2535  -8.2226  -8.2158
    -3.5987  -3.5043  -3.3627  -3.1894  -3.0095  -2.8693  -2.5571  -2.4573
    -2.3692  -2.2987  -2.2486  -2.2314  -0.6151  -0.5556  -0.4788  -0.4045
    -0.3351  -0.2626  -0.0576   0.1590   0.3512   0.4399   0.4775   0.4886
     0.8152   0.8266   0.9137   1.0807   1.2665   1.3721   1.6347   1.7469
     1.8659   1.9635   2.0116   2.0126   2.2055   2.2163   2.2734   2.4023
     2.6086   2.8633   2.9205   3.0674   3.1744   3.2506   3.2687   3.2943
     5.3100   5.5712   5.9015   6.1013   6.1331   6.1960   6.5095   6.5490
     6.6452   6.7258   6.7890   6.7993   6.9419   6.9750   7.0706   7.1008
     7.1989   7.3499   7.3874   7.9104   7.9187   7.9409   8.0076   8.0985
     8.2523   8.2850   8.3446   8.4442   8.5784   8.7737   8.8605   9.1880
     9.2777   9.2808   9.3128   9.3842   9.3953   9.5518   9.7676   9.9797
    10.1284  10.5237  10.6989  10.8104  11.0464  11.0840  11.2880  11.4494
    11.5384  11.6541  11.9253  11.9947  12.1218  12.2075  12.3094  12.4041
    12.4493  12.4631  12.4964  12.5437  12.5911  12.6235  12.6491  12.6887
    12.7427  12.8463  12.9050  13.0825  13.1556  13.2243  13.3001  13.4587
    13.5302  13.6579  13.7274  13.7461  13.8344  13.8945  14.0633  14.1434
    14.1944  14.3029  14.3310  14.4000  14.5534  14.5872  14.7429  14.7450
    14.8320  15.0024  15.1699  15.1791  15.3828  15.4676  15.5442  15.7184
    15.7981  15.8632  15.8867  15.9140  16.0681  16.2176  16.3912  16.4838
    16.5765  16.6320  16.6645  16.6790  16.7138  16.9212  17.0113  17.0895
    17.1647  17.1880  17.2424  17.2937  17.3586  17.4442  17.5449  17.5683
    17.6692  17.6977  17.8356  17.8831  17.9450  17.9669  18.0030  18.0704
    18.1357  18.2509  18.3522  18.4354  18.4750  18.5471  18.6597  18.7445
    18.7899  18.8718  18.9003  18.9621  18.9973  19.0649  19.1161  19.2453
    19.3122  19.3890  19.4800  19.5319  19.6209  19.6260  19.7370  19.7470
    19.9444  19.9784  20.0435  20.0953  20.2100  20.2672  20.3015  20.3896
    20.4523  20.4811  20.5436  20.6008  20.6325  20.6526  20.7294  20.7580
    20.8770  20.9067  20.9613  21.0101  21.1323  21.2980  21.3774  21.4040
    21.4544  21.5517  21.5617  21.6109

          k = 0.2500 0.2182 0.0000 ( 35563 PWs)   bands (ev):

   -17.3317 -17.3294 -17.3265 -17.3256 -17.3242 -17.3227 -17.3198 -17.3197
   -17.3118 -17.3106 -17.3096 -17.3074 -17.3067 -17.3065 -17.3054 -17.3053
   -17.3030 -17.3027 -17.2979 -17.2978 -17.2880 -17.2865 -17.2862 -17.2855
   -17.2847 -17.2833 -17.2830 -17.2829 -17.2817 -17.2794 -17.2786 -17.2743
   -17.2730 -17.2719 -17.2712 -17.2677 -17.2675 -17.2585 -17.2582 -17.2578
   -17.2560 -17.2549 -17.2484 -17.2483 -17.2442 -17.2435 -17.2424 -17.2404
   -17.2395 -17.2365 -17.2346 -17.2338 -17.2331 -17.2327 -17.2246 -17.2244
   -17.2171 -17.2170 -17.2120 -17.2119  -9.1536  -9.1220  -9.0786  -9.0293
    -8.9847  -8.9679  -8.3954  -8.3481  -8.2953  -8.2487  -8.2147  -8.2050
    -3.6254  -3.5279  -3.3807  -3.1991  -3.0107  -2.8678  -2.4439  -2.3418
    -2.2486  -2.1735  -2.1203  -2.1019  -0.5000  -0.4487  -0.3842  -0.3331
    -0.3083  -0.1756  -0.1012   0.1077   0.3487   0.5129   0.5897   0.6108
     0.9143   0.9258   1.0083   1.1457   1.3520   1.4962   1.7152   1.8204
     1.9238   1.9851   2.0028   2.0156   2.3775   2.3900   2.4336   2.5269
     2.6798   2.9166   2.9420   3.1617   3.2494   3.3427   3.3736   3.3904
     5.4352   5.6690   5.9358   6.0247   6.0895   6.1826   6.3093   6.3446
     6.4953   6.5648   6.5996   6.6159   6.8459   6.8657   6.9861   7.0528
     7.1923   7.3647   7.3775   7.7891   7.8449   7.8736   7.9281   8.0396
     8.2493   8.2877   8.3415   8.4335   8.5581   8.7590   8.8130   8.9952
     9.0741   9.0975   9.1490   9.2362   9.3075   9.5545   9.6880   9.9488
    10.1337  10.4807  10.6603  10.9863  11.1390  11.1897  11.3869  11.4255
    11.6092  11.7425  11.8467  11.9006  12.0056  12.1129  12.1446  12.2053
    12.2102  12.2220  12.3212  12.3586  12.3870  12.4450  12.5177  12.6429
    12.7366  12.8785  12.9065  13.0442  13.1073  13.1758  13.2377  13.4492
    13.4942  13.5557  13.6117  13.6610  13.8537  13.9615  14.0173  14.1140
    14.2152  14.2522  14.3093  14.3721  14.4998  14.5550  14.6196  14.7190
    14.8601  14.9557  14.9926  15.0753  15.4071  15.4715  15.5614  15.6771
    15.7834  15.8597  15.8909  15.9108  16.1185  16.3231  16.3973  16.5311
    16.5794  16.6235  16.6756  16.7200  16.8185  16.8283  16.9177  16.9692
    17.0898  17.1293  17.2226  17.3010  17.4090  17.4717  17.5228  17.6247
    17.7150  17.7426  17.8158  17.9149  17.9687  18.0665  18.0963  18.1512
    18.1629  18.3136  18.3789  18.4971  18.5426  18.5812  18.6498  18.6860
    18.8206  18.9566  18.9906  19.0328  19.0581  19.0812  19.1949  19.2253
    19.2760  19.3977  19.4285  19.5495  19.6128  19.6586  19.6828  19.7308
    19.8447  19.8944  19.9454  20.0480  20.1091  20.1301  20.2559  20.3277
    20.3576  20.4529  20.4943  20.5507  20.5545  20.6716  20.7050  20.7535
    20.7722  20.8095  20.9519  21.0248  21.2209  21.2786  21.3149  21.3317
    21.4157  21.4955  21.5477  21.5994

          k = 0.2250 0.1964 0.0000 ( 35587 PWs)   bands (ev):

   -17.3318 -17.3294 -17.3263 -17.3257 -17.3224 -17.3209 -17.3179 -17.3177
   -17.3119 -17.3113 -17.3106 -17.3087 -17.3076 -17.3074 -17.3064 -17.3062
   -17.3031 -17.3029 -17.2966 -17.2964 -17.2883 -17.2873 -17.2871 -17.2856
   -17.2842 -17.2841 -17.2840 -17.2836 -17.2824 -17.2802 -17.2798 -17.2744
   -17.2730 -17.2721 -17.2715 -17.2676 -17.2674 -17.2590 -17.2589 -17.2575
   -17.2554 -17.2539 -17.2487 -17.2485 -17.2446 -17.2432 -17.2423 -17.2407
   -17.2396 -17.2372 -17.2349 -17.2338 -17.2328 -17.2326 -17.2244 -17.2242
   -17.2182 -17.2180 -17.2124 -17.2122  -9.2551  -9.2220  -9.1764  -9.1248
    -9.0785  -9.0601  -8.4070  -8.3558  -8.2976  -8.2456  -8.2079  -8.1952
    -3.6321  -3.5328  -3.3819  -3.1947  -3.0005  -2.8552  -2.3144  -2.2102
    -2.1132  -2.0348  -1.9796  -1.9608  -0.3813  -0.3764  -0.3158  -0.2999
    -0.2704  -0.0740  -0.0534   0.0806   0.3184   0.5430   0.6785   0.7352
     1.0223   1.0316   1.1118   1.2196   1.4129   1.5824   1.7481   1.8397
     1.9058   1.9229   1.9620   1.9713   2.5057   2.5231   2.5639   2.6341
     2.7323   2.9629   2.9684   3.2548   3.3078   3.3998   3.4528   3.4702
     5.5439   5.7520   5.9530   6.0359   6.0671   6.1194   6.1660   6.3106
     6.4367   6.4435   6.4937   6.5267   6.7773   6.8296   6.9461   7.0438
     7.1622   7.3252   7.3704   7.7310   7.8458   7.9081   7.9125   7.9865
     8.2208   8.2614   8.3560   8.4031   8.5664   8.6998   8.7461   8.8299
     8.8772   8.9260   9.0161   9.1122   9.2758   9.5372   9.6368   9.9565
    10.1546  10.4325  10.6277  10.9095  11.1088  11.2736  11.4803  11.5049
    11.6386  11.7008  11.7191  11.7809  11.8022  11.8778  11.9386  12.0100
    12.0652  12.1123  12.1330  12.2235  12.2680  12.3561  12.5099  12.6341
    12.7789  12.8125  12.9217  12.9999  13.1244  13.1779  13.2597  13.3652
    13.4185  13.4574  13.6234  13.6912  13.8696  13.9377  14.0203  14.0371
    14.1215  14.2291  14.2971  14.3775  14.5089  14.5808  14.6569  14.6841
    14.8227  14.8591  14.9446  15.0470  15.4374  15.5159  15.5712  15.6402
    15.7891  15.8056  15.8674  15.9084  16.0964  16.3149  16.3272  16.4075
    16.4896  16.5490  16.5592  16.6118  16.6428  16.8138  16.8287  16.8805
    17.0666  17.1235  17.1830  17.2421  17.3498  17.4211  17.5547  17.6293
    17.7371  17.8182  17.8824  17.9968  18.0595  18.1618  18.2207  18.2867
    18.3268  18.3382  18.3847  18.4714  18.5227  18.6318  18.6575  18.6983
    18.7812  18.8970  19.0210  19.0797  19.1158  19.1554  19.1710  19.1913
    19.2954  19.3532  19.4064  19.4591  19.4850  19.5578  19.6676  19.7122
    19.7511  19.7988  19.8374  19.9470  20.0467  20.1323  20.1477  20.1974
    20.2352  20.3302  20.3578  20.4346  20.4588  20.5545  20.5675  20.6621
    20.7106  20.8643  20.9563  21.0243  21.0967  21.1822  21.2728  21.3125
    21.3767  21.4699  21.5365  21.5750

          k = 0.2000 0.1746 0.0000 ( 35591 PWs)   bands (ev):

   -17.3327 -17.3301 -17.3268 -17.3262 -17.3207 -17.3194 -17.3162 -17.3160
   -17.3130 -17.3115 -17.3105 -17.3098 -17.3083 -17.3082 -17.3073 -17.3071
   -17.3034 -17.3032 -17.2952 -17.2951 -17.2886 -17.2882 -17.2879 -17.2863
   -17.2845 -17.2845 -17.2843 -17.2833 -17.2830 -17.2809 -17.2807 -17.2746
   -17.2730 -17.2721 -17.2716 -17.2674 -17.2672 -17.2601 -17.2599 -17.2569
   -17.2546 -17.2527 -17.2489 -17.2487 -17.2452 -17.2432 -17.2420 -17.2407
   -17.2395 -17.2378 -17.2353 -17.2339 -17.2323 -17.2323 -17.2241 -17.2239
   -17.2191 -17.2189 -17.2127 -17.2126  -9.3501  -9.3158  -9.2683  -9.2147
    -9.1668  -9.1471  -8.4198  -8.3647  -8.3013  -8.2440  -8.2024  -8.1867
    -3.6192  -3.5192  -3.3664  -3.1757  -2.9775  -2.8302  -2.1709  -2.0642
    -1.9644  -1.8841  -1.8280  -1.8100  -0.4621  -0.3146  -0.2312  -0.2132
    -0.1868   0.0344   0.0409   0.1177   0.2951   0.5383   0.7332   0.8336
     1.1361   1.1427   1.2203   1.3091   1.4646   1.6332   1.7139   1.7805
     1.8034   1.8584   1.8715   1.8923   2.5632   2.5862   2.6344   2.6979
     2.7588   3.0035   3.0126   3.3378   3.3590   3.4433   3.4941   3.5146
     5.5672   5.7593   5.9217   5.9880   6.0138   6.1587   6.1793   6.3474
     6.3704   6.4836   6.5126   6.6661   6.7589   6.8898   6.9783   7.0584
     7.1273   7.2802   7.3524   7.7155   7.8222   7.9216   7.9887   8.0071
     8.1793   8.1891   8.3505   8.4279   8.5568   8.6138   8.6613   8.7263
     8.7456   8.7990   8.9313   9.0316   9.2789   9.4770   9.6477   9.9788
    10.1813  10.3847  10.6076  10.8273  11.0179  11.1494  11.3538  11.4082
    11.4735  11.5432  11.5729  11.5831  11.6581  11.7355  11.7719  11.8764
    11.9730  12.0907  12.1463  12.1718  12.2970  12.3609  12.5928  12.6494
    12.6731  12.7537  12.9324  13.0521  13.1287  13.1893  13.2490  13.3503
    13.4139  13.4364  13.6524  13.6671  13.8420  13.8713  13.9789  14.0365
    14.0921  14.1985  14.3433  14.3985  14.4858  14.5824  14.6194  14.7003
    14.7565  14.9033  14.9817  15.1399  15.3973  15.4546  15.5713  15.6942
    15.7102  15.8176  15.8455  15.8699  15.9727  16.1149  16.1372  16.2867
    16.3227  16.3897  16.4186  16.5076  16.5874  16.8052  16.8466  16.8736
    16.9647  17.0371  17.1035  17.1248  17.2286  17.3782  17.4579  17.6568
    17.7196  17.8277  17.8791  17.8997  18.0064  18.1192  18.1853  18.2815
    18.3538  18.3931  18.4945  18.5175  18.5874  18.6040  18.6631  18.7301
    18.7884  18.9123  18.9625  19.0022  19.0528  19.0855  19.1028  19.1559
    19.1909  19.2301  19.2664  19.4922  19.5129  19.5417  19.5880  19.6749
    19.7297  19.8441  19.8696  19.8861  20.0202  20.0616  20.0785  20.1453
    20.2074  20.2956  20.3403  20.3677  20.4389  20.4765  20.5424  20.5906
    20.6808  20.7296  20.7782  20.9084  20.9911  21.1523  21.2417  21.2574
    21.3027  21.3664  21.4817  21.6220

          k = 0.1750 0.1528 0.0000 ( 35622 PWs)   bands (ev):

   -17.3343 -17.3314 -17.3279 -17.3270 -17.3191 -17.3182 -17.3150 -17.3148
   -17.3139 -17.3122 -17.3105 -17.3098 -17.3095 -17.3091 -17.3072 -17.3070
   -17.3041 -17.3039 -17.2939 -17.2937 -17.2895 -17.2893 -17.2888 -17.2873
   -17.2846 -17.2844 -17.2841 -17.2837 -17.2828 -17.2815 -17.2811 -17.2747
   -17.2730 -17.2720 -17.2717 -17.2673 -17.2670 -17.2612 -17.2610 -17.2563
   -17.2538 -17.2517 -17.2491 -17.2487 -17.2457 -17.2434 -17.2419 -17.2405
   -17.2392 -17.2381 -17.2356 -17.2340 -17.2319 -17.2318 -17.2239 -17.2236
   -17.2197 -17.2195 -17.2130 -17.2129  -9.4371  -9.4017  -9.3527  -9.2973
    -9.2481  -9.2272  -8.4333  -8.3745  -8.3061  -8.2438  -8.1982  -8.1796
    -3.5887  -3.4888  -3.3355  -3.1429  -2.9421  -2.7933  -2.0164  -1.9063
    -1.8043  -1.7236  -1.6679  -1.6521  -0.5492  -0.3618  -0.1632  -0.1008
    -0.0847   0.1412   0.1451   0.2092   0.3137   0.5188   0.7460   0.8931
     1.2467   1.2523   1.3288   1.3995   1.4815   1.6060   1.6178   1.6741
     1.7312   1.7655   1.7792   1.7831   2.5454   2.5758   2.6389   2.7177
     2.7826   3.0260   3.0376   3.3700   3.3854   3.4686   3.5139   3.5343
     5.5136   5.7181   5.9125   5.9911   5.9975   6.2197   6.2527   6.4022
     6.4603   6.5748   6.6620   6.8003   6.8490   6.9852   7.0246   7.1012
     7.1050   7.2570   7.3255   7.7120   7.8227   7.8689   8.0499   8.0864
     8.1127   8.1932   8.3480   8.4258   8.5062   8.5521   8.6387   8.6956
     8.7332   8.7891   8.8906   9.0042   9.2798   9.4366   9.6657   9.9920
    10.2171  10.3553  10.5820  10.7318  10.9083  11.0278  11.1429  11.2185
    11.2702  11.3314  11.3542  11.3695  11.5071  11.5561  11.6008  11.7478
    11.8622  12.1027  12.1308  12.3375  12.4193  12.4979  12.5264  12.6064
    12.6830  12.7545  12.9449  13.0927  13.1136  13.1958  13.3136  13.3529
    13.4586  13.4785  13.5943  13.6856  13.7512  13.8126  13.9642  14.0268
    14.1826  14.2269  14.2916  14.4030  14.4634  14.5213  14.5762  14.7289
    14.7823  14.9700  15.1445  15.2053  15.2694  15.3756  15.5200  15.6054
    15.7023  15.7361  15.7604  15.7800  15.8697  15.9477  16.0195  16.1366
    16.1794  16.2783  16.3043  16.4933  16.5220  16.6503  16.7470  16.7885
    16.8386  16.9455  16.9998  17.0711  17.2511  17.3273  17.3928  17.5282
    17.5807  17.6784  17.7497  17.7991  17.8806  17.9280  18.0051  18.1172
    18.2383  18.3184  18.3865  18.4414  18.5227  18.5832  18.6244  18.6993
    18.7448  18.7895  18.8257  18.8721  18.9190  18.9892  19.0225  19.0788
    19.2194  19.3628  19.4208  19.4688  19.5493  19.5606  19.6965  19.7380
    19.7975  19.8448  19.9204  19.9796  20.0082  20.0913  20.1126  20.1845
    20.2260  20.3004  20.3597  20.4020  20.4818  20.5137  20.5583  20.6278
    20.6410  20.7187  20.7483  20.8666  20.9199  21.0848  21.1208  21.1632
    21.2414  21.2746  21.4204  21.5009

          k = 0.1500 0.1309 0.0000 ( 35622 PWs)   bands (ev):

   -17.3362 -17.3330 -17.3292 -17.3280 -17.3183 -17.3176 -17.3150 -17.3146
   -17.3134 -17.3128 -17.3111 -17.3106 -17.3094 -17.3083 -17.3071 -17.3070
   -17.3045 -17.3043 -17.2930 -17.2928 -17.2904 -17.2902 -17.2894 -17.2885
   -17.2851 -17.2848 -17.2836 -17.2833 -17.2830 -17.2815 -17.2806 -17.2747
   -17.2732 -17.2719 -17.2716 -17.2671 -17.2668 -17.2623 -17.2621 -17.2558
   -17.2533 -17.2510 -17.2494 -17.2484 -17.2460 -17.2436 -17.2417 -17.2405
   -17.2388 -17.2381 -17.2359 -17.2342 -17.2314 -17.2313 -17.2238 -17.2236
   -17.2200 -17.2198 -17.2133 -17.2131  -9.5148  -9.4785  -9.4282  -9.3714
    -9.3209  -9.2990  -8.4469  -8.3847  -8.3118  -8.2448  -8.1953  -8.1739
    -3.5435  -3.4443  -3.2915  -3.0984  -2.8960  -2.7462  -1.8555  -1.7400
    -1.6360  -1.5566  -1.5024  -1.4907  -0.6227  -0.4255  -0.1727  -0.0005
     0.0270   0.2424   0.2465   0.3206   0.3835   0.5139   0.7253   0.9055
     1.3008   1.3187   1.3683   1.4257   1.4555   1.5347   1.5526   1.5763
     1.6102   1.6575   1.7346   1.8105   2.4644   2.5022   2.5808   2.6884
     2.7999   3.0214   3.0408   3.3513   3.3732   3.4679   3.5210   3.5415
     5.4285   5.6612   5.9516   6.0590   6.0863   6.3142   6.3213   6.5334
     6.5799   6.7744   6.7823   6.8693   6.9633   7.0352   7.0394   7.0901
     7.1143   7.2611   7.3038   7.7202   7.8197   7.8454   8.0426   8.0816
     8.1429   8.2909   8.3175   8.4161   8.4942   8.6284   8.6666   8.7703
     8.8736   8.8806   8.9040   9.0079   9.2641   9.4269   9.6650   9.9844
    10.2738  10.3481  10.5327  10.6185  10.7499  10.9038  10.9487  11.0537
    11.0984  11.1688  11.1913  11.2333  11.3381  11.3813  11.4746  11.6510
    11.7953  12.0853  12.0892  12.3573  12.4258  12.4694  12.5580  12.6408
    12.6903  12.7832  12.9386  13.1030  13.1993  13.2267  13.2729  13.4418
    13.4524  13.5184  13.5970  13.6616  13.7620  13.8438  13.8729  14.0885
    14.1662  14.2302  14.2809  14.3827  14.4498  14.4993  14.5479  14.7162
    14.7834  14.9829  15.0977  15.1542  15.2970  15.4031  15.4519  15.5002
    15.5900  15.6081  15.6426  15.6630  15.8160  15.8924  15.9377  16.0465
    16.1027  16.2484  16.2851  16.3074  16.3911  16.3991  16.4958  16.6568
    16.7299  16.9331  16.9914  17.0506  17.2077  17.2507  17.3097  17.3480
    17.3778  17.5041  17.5085  17.5823  17.6595  17.7441  17.8184  17.9461
    18.0182  18.1280  18.2613  18.3307  18.3550  18.4230  18.5212  18.5877
    18.6495  18.6654  18.7248  18.7476  18.8117  18.8660  19.0431  19.0795
    19.2009  19.3004  19.4627  19.5025  19.7024  19.7118  19.7496  19.8604
    19.8953  19.9410  20.0268  20.0371  20.1505  20.1790  20.2422  20.2958
    20.3504  20.3870  20.4069  20.4780  20.4942  20.5884  20.6237  20.6426
    20.6758  20.7818  20.8045  20.8534  20.9345  21.0138  21.0353  21.1687
    21.1936  21.2489  21.3869  21.4328

          k = 0.1250 0.1091 0.0000 ( 35618 PWs)   bands (ev):

   -17.3381 -17.3346 -17.3307 -17.3291 -17.3192 -17.3173 -17.3151 -17.3148
   -17.3136 -17.3130 -17.3110 -17.3103 -17.3087 -17.3080 -17.3077 -17.3070
   -17.3041 -17.3039 -17.2932 -17.2930 -17.2904 -17.2902 -17.2900 -17.2896
   -17.2858 -17.2857 -17.2836 -17.2825 -17.2824 -17.2812 -17.2798 -17.2748
   -17.2735 -17.2717 -17.2715 -17.2668 -17.2666 -17.2634 -17.2632 -17.2554
   -17.2529 -17.2507 -17.2497 -17.2478 -17.2461 -17.2437 -17.2416 -17.2407
   -17.2384 -17.2379 -17.2362 -17.2343 -17.2309 -17.2309 -17.2241 -17.2239
   -17.2198 -17.2195 -17.2135 -17.2134  -9.5821  -9.5451  -9.4937  -9.4357
    -9.3842  -9.3615  -8.4599  -8.3948  -8.3177  -8.2465  -8.1936  -8.1696
    -3.4878  -3.3898  -3.2381  -3.0455  -2.8425  -2.6919  -1.6959  -1.5709
    -1.4640  -1.3877  -1.3360  -1.3303  -0.6743  -0.4852  -0.2158   0.0322
     0.1362   0.3345   0.3388   0.4289   0.4765   0.5486   0.6949   0.8734
     1.1491   1.2394   1.3146   1.3833   1.3977   1.4320   1.5162   1.5552
     1.6138   1.6910   1.7931   1.8711   2.3422   2.3817   2.4687   2.6002
     2.7763   3.0122   3.0260   3.2883   3.3529   3.4609   3.5268   3.5500
     5.3392   5.5929   5.9725   6.2028   6.2176   6.4200   6.4508   6.7413
     6.7624   6.8382   6.8955   6.9172   6.9844   6.9983   7.0293   7.0824
     7.0982   7.2727   7.3009   7.7523   7.8354   7.8503   7.9778   8.1441
     8.2032   8.2481   8.3757   8.4697   8.6434   8.6791   8.8425   8.9266
     8.9780   9.0054   9.0699   9.1348   9.2488   9.4215   9.6330   9.9620
    10.3249  10.3587  10.4487  10.5078  10.5671  10.7948  10.8314  10.9307
    10.9495  11.0514  11.1057  11.1545  11.2158  11.2768  11.4145  11.5940
    11.7710  12.0321  12.1070  12.3255  12.3730  12.4054  12.5196  12.5999
    12.6977  12.7945  12.8933  13.0805  13.1445  13.2549  13.3048  13.3602
    13.4379  13.5434  13.5964  13.7112  13.7459  13.8471  13.9703  14.0538
    14.1223  14.2379  14.2951  14.3578  14.4069  14.5362  14.5826  14.6160
    14.7302  14.8547  15.0243  15.1392  15.2309  15.2954  15.3841  15.4102
    15.4380  15.5315  15.6052  15.6586  15.7282  15.8513  15.9418  15.9740
    16.0078  16.0297  16.0811  16.2297  16.3417  16.3707  16.4058  16.5156
    16.6547  16.7425  16.8957  16.9349  16.9894  17.0180  17.1170  17.1466
    17.2719  17.3054  17.3864  17.4989  17.5325  17.6217  17.6838  17.7842
    17.9128  17.9761  18.0776  18.1981  18.2174  18.2656  18.3381  18.4101
    18.5418  18.5576  18.6258  18.6289  18.7601  18.9043  19.0380  19.1130
    19.1461  19.1824  19.4995  19.5617  19.7106  19.7334  19.8157  19.8755
    19.9957  20.0148  20.0864  20.1420  20.2021  20.2426  20.3066  20.3312
    20.4023  20.4491  20.5045  20.5448  20.5754  20.6156  20.6323  20.7388
    20.7615  20.8355  20.8811  20.9646  21.0342  21.0878  21.1492  21.2042
    21.2958  21.3439  21.3812  21.5178

          k = 0.1000 0.0873 0.0000 ( 35611 PWs)   bands (ev):

   -17.3398 -17.3362 -17.3321 -17.3302 -17.3204 -17.3180 -17.3156 -17.3154
   -17.3137 -17.3125 -17.3103 -17.3097 -17.3091 -17.3088 -17.3074 -17.3061
   -17.3034 -17.3032 -17.2941 -17.2940 -17.2911 -17.2907 -17.2895 -17.2893
   -17.2866 -17.2864 -17.2837 -17.2817 -17.2816 -17.2808 -17.2790 -17.2748
   -17.2739 -17.2716 -17.2714 -17.2666 -17.2664 -17.2643 -17.2641 -17.2552
   -17.2528 -17.2507 -17.2500 -17.2472 -17.2462 -17.2436 -17.2414 -17.2408
   -17.2380 -17.2376 -17.2364 -17.2344 -17.2305 -17.2305 -17.2245 -17.2243
   -17.2193 -17.2191 -17.2138 -17.2136  -9.6382  -9.6006  -9.5484  -9.4894
    -9.4371  -9.4137  -8.4717  -8.4040  -8.3235  -8.2486  -8.1926  -8.1665
    -3.4272  -3.3306  -3.1806  -2.9890  -2.7860  -2.6351  -1.5501  -1.4079
    -1.2949  -1.2235  -1.1748  -1.1729  -0.6972  -0.5323  -0.2704   0.0097
     0.2021   0.4113   0.4146   0.5184   0.5636   0.6125   0.6914   0.8172
     1.0025   1.1110   1.1831   1.2285   1.2461   1.2788   1.6041   1.6365
     1.6974   1.7787   1.8692   1.9304   2.2082   2.2407   2.3239   2.4640
     2.6813   2.9675   3.0323   3.2340   3.3473   3.4634   3.5377   3.5637
     5.2594   5.5256   5.9538   6.3143   6.3836   6.5431   6.5744   6.8056
     6.8257   6.8798   6.9262   6.9554   6.9786   6.9939   7.0297   7.1456
     7.1516   7.3069   7.3442   7.8033   7.8348   7.8700   7.9771   8.1186
     8.2276   8.3137   8.4408   8.6086   8.7096   8.8975   8.9791   9.0248
     9.0869   9.1576   9.2495   9.3371   9.3968   9.4514   9.5678   9.9306
    10.2260  10.2971  10.4053  10.4917  10.5059  10.7168  10.7845  10.8481
    10.8798  10.9867  11.0790  11.1112  11.1615  11.2747  11.4183  11.5763
    11.7821  11.9907  12.1399  12.2758  12.3093  12.3523  12.4852  12.5326
    12.6473  12.7890  12.8557  12.9651  13.0677  13.1517  13.2269  13.3088
    13.4018  13.4061  13.5020  13.6480  13.7479  13.8044  13.9154  14.0106
    14.1619  14.2358  14.2680  14.4104  14.4935  14.5261  14.5422  14.7268
    14.7615  14.8566  14.8867  14.9644  15.0436  15.1213  15.1243  15.2531
    15.4213  15.4950  15.5443  15.5753  15.6051  15.6826  15.7987  15.8694
    15.9707  15.9993  16.0865  16.1921  16.2240  16.3274  16.3856  16.4232
    16.5739  16.7018  16.7691  16.7981  16.8574  16.8923  16.9593  16.9995
    17.0298  17.1078  17.2705  17.3832  17.5113  17.5789  17.6128  17.7093
    17.7290  17.9046  17.9661  18.0728  18.1174  18.1882  18.2792  18.3185
    18.3948  18.4676  18.5421  18.5975  18.7779  18.8747  18.9722  19.0177
    19.1713  19.2422  19.3928  19.5518  19.6288  19.7183  19.7857  19.8414
    19.8857  19.9701  20.0165  20.0690  20.1920  20.2330  20.2705  20.3897
    20.4395  20.4915  20.6151  20.6421  20.6941  20.7236  20.7961  20.8421
    20.8865  20.9179  21.0196  21.0351  21.1062  21.1573  21.2384  21.3593
    21.4610  21.5304  21.5724  21.6680

          k = 0.0750 0.0655 0.0000 ( 35623 PWs)   bands (ev):

   -17.3412 -17.3375 -17.3333 -17.3312 -17.3214 -17.3188 -17.3165 -17.3162
   -17.3131 -17.3118 -17.3103 -17.3102 -17.3094 -17.3084 -17.3067 -17.3053
   -17.3026 -17.3024 -17.2950 -17.2949 -17.2919 -17.2915 -17.2888 -17.2886
   -17.2871 -17.2870 -17.2836 -17.2809 -17.2808 -17.2804 -17.2783 -17.2750
   -17.2743 -17.2715 -17.2713 -17.2664 -17.2661 -17.2651 -17.2649 -17.2550
   -17.2527 -17.2508 -17.2503 -17.2468 -17.2462 -17.2434 -17.2412 -17.2409
   -17.2377 -17.2374 -17.2366 -17.2344 -17.2302 -17.2301 -17.2250 -17.2248
   -17.2187 -17.2185 -17.2140 -17.2138  -9.6824  -9.6444  -9.5915  -9.5318
    -9.4789  -9.4550  -8.4816  -8.4119  -8.3286  -8.2507  -8.1922  -8.1643
    -3.3683  -3.2731  -3.1249  -2.9349  -2.7323  -2.5814  -1.4353  -1.2654
    -1.1383  -1.0706  -1.0247  -1.0194  -0.6905  -0.5627  -0.3253  -0.0432
     0.2004   0.4593   0.4623   0.5763   0.6238   0.6762   0.7308   0.7804
     0.9061   0.9987   1.0482   1.0907   1.1018   1.1394   1.6811   1.7177
     1.7792   1.8564   1.9251   1.9570   2.1059   2.1154   2.1776   2.3102
     2.5492   2.8651   3.0667   3.2246   3.3545   3.4733   3.5521   3.5788
     5.1956   5.4689   5.9230   6.3474   6.5431   6.6124   6.6457   6.7219
     6.7530   6.8040   6.8511   6.9194   6.9440   7.0913   7.1661   7.3062
     7.3327   7.4356   7.4941   7.8173   7.8347   7.8798   8.0479   8.0768
     8.2662   8.3236   8.5678   8.6760   8.9203   8.9322   9.0249   9.1079
     9.2442   9.2546   9.3885   9.4611   9.4744   9.6255   9.7226   9.8918
    10.1108  10.1680  10.3069  10.4839  10.6112  10.7169  10.7715  10.8551
    10.9212  10.9828  11.1181  11.1418  11.1733  11.3377  11.4748  11.5941
    11.8172  11.9774  12.1578  12.2271  12.2398  12.3381  12.3783  12.4541
    12.6473  12.7611  12.8123  12.8611  12.9508  13.0198  13.0686  13.1362
    13.2184  13.3291  13.4065  13.5344  13.6070  13.6303  13.8746  13.8920
    14.0678  14.1840  14.3818  14.4535  14.5400  14.5801  14.6120  14.6980
    14.7142  14.7614  14.8351  14.8762  14.9346  14.9788  15.0446  15.1470
    15.2437  15.2579  15.3336  15.3689  15.5030  15.6040  15.6751  15.7844
    15.8819  15.9588  16.1011  16.1703  16.2437  16.2828  16.3533  16.4577
    16.4691  16.5844  16.7244  16.7354  16.7995  16.8450  16.9318  17.0176
    17.0508  17.1431  17.2099  17.2989  17.3585  17.4030  17.4711  17.6405
    17.7879  17.8482  17.9152  17.9658  18.0391  18.1290  18.2162  18.2253
    18.3217  18.4369  18.5454  18.7171  18.8003  18.8152  18.8933  18.9074
    19.1639  19.1965  19.2593  19.2802  19.5616  19.5870  19.7102  19.7874
    19.8037  19.8940  19.9437  20.0382  20.1552  20.2117  20.2779  20.3866
    20.4365  20.5442  20.6545  20.6985  20.7896  20.8229  20.8828  20.9434
    20.9787  21.0798  21.0984  21.1673  21.2050  21.2228  21.2931  21.4490
    21.5432  21.6159  21.6673  21.7203

          k = 0.0500 0.0436 0.0000 ( 35619 PWs)   bands (ev):

   -17.3423 -17.3385 -17.3342 -17.3320 -17.3222 -17.3196 -17.3173 -17.3169
   -17.3126 -17.3112 -17.3111 -17.3109 -17.3088 -17.3078 -17.3061 -17.3047
   -17.3021 -17.3018 -17.2957 -17.2956 -17.2925 -17.2921 -17.2887 -17.2885
   -17.2873 -17.2871 -17.2834 -17.2804 -17.2803 -17.2800 -17.2775 -17.2752
   -17.2746 -17.2714 -17.2712 -17.2663 -17.2660 -17.2656 -17.2655 -17.2549
   -17.2527 -17.2509 -17.2506 -17.2465 -17.2462 -17.2431 -17.2412 -17.2408
   -17.2374 -17.2372 -17.2367 -17.2344 -17.2299 -17.2298 -17.2253 -17.2252
   -17.2182 -17.2180 -17.2141 -17.2140  -9.7144  -9.6760  -9.6227  -9.5625
    -9.5092  -9.4849  -8.4891  -8.4179  -8.3325  -8.2524  -8.1922  -8.1629
    -3.3184  -3.2245  -3.0781  -2.8895  -2.6876  -2.5369  -1.3631  -1.1603
    -1.0072  -0.9325  -0.8872  -0.8796  -0.6692  -0.5792  -0.3743  -0.1025
     0.1554   0.4410   0.4762   0.6121   0.6667   0.7310   0.7753   0.7803
     0.8498   0.9220   0.9636   0.9752   0.9950   1.0271   1.7382   1.7814
     1.8380   1.8861   1.9173   1.9308   2.0518   2.0653   2.0992   2.1708
     2.4264   2.7641   3.0992   3.2353   3.3658   3.4844   3.5657   3.5915
     5.1500   5.4275   5.8961   6.3483   6.5718   6.6156   6.6416   6.6532
     6.7014   6.7499   6.7854   6.9245   6.9466   7.1240   7.2353   7.4348
     7.5370   7.6241   7.6882   7.7767   7.8494   7.9657   8.0129   8.1699
     8.2576   8.4351   8.5247   8.8631   8.8781   8.9984   9.0452   9.1715
     9.2688   9.3735   9.3926   9.4707   9.6818   9.8162   9.8746   9.9434
    10.0362  10.0790  10.2427  10.4526  10.6271  10.7168  10.9019  10.9398
    11.0326  11.0532  11.2168  11.2530  11.2573  11.4287  11.5694  11.6392
    11.8687  11.9871  12.1351  12.1550  12.1967  12.2818  12.3017  12.4347
    12.6340  12.7040  12.7217  12.7852  12.8438  12.8653  12.9018  12.9681
    13.0730  13.2654  13.3089  13.3338  13.3582  13.3962  13.8369  13.9042
    13.9396  14.1813  14.3187  14.3973  14.4601  14.5155  14.5629  14.6090
    14.6306  14.6873  14.8221  14.8557  14.9146  14.9339  14.9781  15.0304
    15.0873  15.1373  15.1994  15.2080  15.3608  15.5095  15.6100  15.7288
    15.8997  15.9623  16.0665  16.1426  16.1756  16.2257  16.3203  16.4053
    16.5956  16.6265  16.6572  16.7443  16.7997  16.8873  16.9192  17.0352
    17.0946  17.1386  17.2754  17.3489  17.3748  17.4234  17.4918  17.5458
    17.6039  17.7791  17.8121  17.9291  18.0471  18.0948  18.2228  18.2598
    18.3438  18.3796  18.5194  18.6617  18.6697  18.7295  18.8424  18.8770
    18.9437  19.1057  19.2746  19.3560  19.3589  19.4309  19.4757  19.6854
    19.7822  19.8695  19.9702  20.0617  20.1276  20.1734  20.2824  20.3621
    20.4624  20.5363  20.5852  20.6944  20.7150  20.8128  20.8362  20.9037
    21.0627  21.1441  21.2465  21.2888  21.3379  21.3785  21.4480  21.4952
    21.5255  21.6410  21.7405  21.8001

          k = 0.0250 0.0218 0.0000 ( 35613 PWs)   bands (ev):

   -17.3430 -17.3392 -17.3348 -17.3325 -17.3227 -17.3200 -17.3177 -17.3173
   -17.3122 -17.3116 -17.3114 -17.3108 -17.3084 -17.3075 -17.3057 -17.3044
   -17.3017 -17.3015 -17.2962 -17.2960 -17.2929 -17.2925 -17.2888 -17.2887
   -17.2871 -17.2869 -17.2834 -17.2800 -17.2799 -17.2797 -17.2769 -17.2757
   -17.2747 -17.2714 -17.2712 -17.2662 -17.2660 -17.2659 -17.2657 -17.2549
   -17.2527 -17.2510 -17.2507 -17.2464 -17.2462 -17.2429 -17.2413 -17.2407
   -17.2372 -17.2371 -17.2368 -17.2344 -17.2297 -17.2297 -17.2256 -17.2254
   -17.2179 -17.2177 -17.2143 -17.2141  -9.7336  -9.6951  -9.6415  -9.5810
    -9.5274  -9.5029  -8.4937  -8.4217  -8.3350  -8.2536  -8.1922  -8.1622
    -3.2848  -3.1918  -3.0466  -2.8592  -2.6579  -2.5075  -1.3280  -1.1009
    -0.9179  -0.8219  -0.7753  -0.7648  -0.6627  -0.5945  -0.4123  -0.1499
     0.1102   0.3985   0.4570   0.6512   0.7056   0.7502   0.7716   0.7731
     0.8352   0.8673   0.9223   0.9251   0.9500   0.9575   1.7682   1.8180
     1.8297   1.8531   1.8955   1.9295   2.0168   2.0576   2.0839   2.1086
     2.3441   2.6966   3.1212   3.2464   3.3747   3.4924   3.5750   3.5998
     5.1231   5.4026   5.8791   6.3424   6.5256   6.5620   6.6088   6.6188
     6.6885   6.7218   6.7501   6.9569   6.9727   7.1459   7.2852   7.5127
     7.6629   7.7472   7.7541   7.7850   7.9126   7.9662   8.0994   8.1848
     8.3469   8.4579   8.5740   8.8215   8.9289   8.9788   9.0731   9.1841
     9.3265   9.3448   9.3615   9.5988   9.8074   9.8189   9.9823   9.9872
    10.0337  10.0879  10.2103  10.4379  10.6384  10.7089  10.9704  11.0665
    11.1419  11.1600  11.3409  11.3786  11.3999  11.5158  11.6663  11.6942
    11.9114  12.0029  12.0696  12.0787  12.1655  12.2661  12.2958  12.4398
    12.5728  12.6036  12.6451  12.7184  12.7400  12.7522  12.8415  12.8522
    13.0333  13.0861  13.1470  13.1833  13.2116  13.2324  13.7354  13.9235
    13.9569  14.0658  14.2079  14.2765  14.4237  14.4873  14.5110  14.5657
    14.6118  14.6893  14.7295  14.7370  14.7799  14.8187  14.8577  14.9758
    15.0393  15.1280  15.1506  15.2127  15.3204  15.4606  15.5554  15.7538
    15.8351  15.9328  16.0003  16.1076  16.2216  16.3121  16.3989  16.4378
    16.5219  16.6172  16.6785  16.7616  16.8190  16.8677  17.0372  17.0753
    17.1130  17.1656  17.2483  17.2734  17.4602  17.4809  17.5411  17.6129
    17.7170  17.7332  17.7939  17.8924  17.9052  18.0892  18.2176  18.2347
    18.3124  18.4095  18.4721  18.4809  18.5561  18.6476  18.7549  18.8434
    18.9694  19.1074  19.1288  19.2187  19.4024  19.4578  19.5408  19.5723
    19.7056  19.7594  19.8242  19.9293  20.0270  20.2505  20.3398  20.3639
    20.4910  20.5270  20.5545  20.6523  20.7059  20.7326  20.8691  20.9636
    21.0572  21.0922  21.1791  21.2760  21.4503  21.5161  21.5626  21.5949
    21.6180  21.6864  21.7433  21.8730

          k = 0.0000 0.0000 0.0000 ( 35607 PWs)   bands (ev):

   -17.3432 -17.3394 -17.3350 -17.3327 -17.3229 -17.3202 -17.3179 -17.3175
   -17.3121 -17.3117 -17.3115 -17.3107 -17.3083 -17.3074 -17.3055 -17.3043
   -17.3016 -17.3013 -17.2963 -17.2962 -17.2930 -17.2926 -17.2889 -17.2888
   -17.2870 -17.2868 -17.2833 -17.2799 -17.2798 -17.2796 -17.2764 -17.2762
   -17.2748 -17.2714 -17.2712 -17.2662 -17.2661 -17.2660 -17.2657 -17.2548
   -17.2527 -17.2510 -17.2508 -17.2464 -17.2462 -17.2429 -17.2413 -17.2407
   -17.2371 -17.2371 -17.2369 -17.2344 -17.2297 -17.2296 -17.2256 -17.2255
   -17.2178 -17.2175 -17.2143 -17.2142  -9.7401  -9.7015  -9.6478  -9.5872
    -9.5335  -9.5090  -8.4953  -8.4230  -8.3359  -8.2540  -8.1922  -8.1619
    -3.2729  -3.1803  -3.0355  -2.8485  -2.6474  -2.4972  -1.3181  -1.0826
    -0.8860  -0.7754  -0.7166  -0.6946  -0.6941  -0.6103  -0.4283  -0.1684
     0.0919   0.3793   0.4455   0.6812   0.7171   0.7247   0.7532   0.7862
     0.8313   0.8574   0.8929   0.9229   0.9247   0.9586   1.7722   1.8156
     1.8171   1.8479   1.8867   1.9364   2.0185   2.0259   2.0809   2.1136
     2.3164   2.6735   3.1289   3.2507   3.3780   3.4953   3.5784   3.6027
     5.1142   5.3944   5.8733   6.3395   6.5076   6.5406   6.5920   6.6021
     6.6760   6.7091   6.7494   6.9729   6.9818   7.1558   7.3052   7.5378
     7.7023   7.7395   7.7924   7.8009   7.9556   7.9576   8.1608   8.1815
     8.4028   8.4320   8.6290   8.7996   8.9179   8.9640   9.1059   9.1682
     9.3291   9.3296   9.3777   9.6416   9.7993   9.8660   9.9702  10.0121
    10.0329  10.1305  10.2009  10.4365  10.6548  10.6997  10.9913  11.1172
    11.1809  11.2129  11.4046  11.4420  11.4756  11.5558  11.6969  11.7267
    11.9052  11.9965  12.0385  12.0924  12.1480  12.2994  12.3224  12.3797
    12.5424  12.5678  12.6288  12.6673  12.6844  12.6993  12.8340  12.8408
    12.9809  13.0328  13.0608  13.1361  13.1448  13.1751  13.7011  13.9195
    13.9762  14.0123  14.1609  14.2305  14.4192  14.4985  14.5010  14.5494
    14.5794  14.5884  14.6792  14.6982  14.7682  14.8020  14.8521  14.9727
    14.9843  15.0486  15.1612  15.2451  15.3452  15.4791  15.5917  15.6578
    15.7433  15.9601  15.9687  16.0638  16.3408  16.3820  16.4330  16.4536
    16.5487  16.5883  16.6883  16.7957  16.8044  16.9139  16.9273  16.9959
    17.0888  17.2125  17.2175  17.4115  17.4749  17.5073  17.5997  17.6872
    17.6936  17.7308  17.8886  17.9202  17.9920  18.0248  18.0646  18.0719
    18.1805  18.3924  18.4564  18.4686  18.6864  18.7217  18.7401  18.7894
    18.8888  19.0326  19.1595  19.2242  19.4100  19.4449  19.4638  19.5893
    19.6671  19.7451  19.7784  19.8658  20.0411  20.1928  20.2487  20.4472
    20.4834  20.4842  20.5525  20.6460  20.7580  20.7836  20.8300  20.9868
    21.0661  21.0915  21.1762  21.2923  21.4172  21.5497  21.5758  21.5803
    21.6690  21.6961  21.7851  21.9220

     Writing all to output data dir ./tri/sns.save/

     init_run     :      5.29s CPU      3.83s WALL (       1 calls)
     electrons    :   7396.58s CPU   3929.00s WALL (       1 calls)

     Called by init_run:
     wfcinit      :      0.00s CPU      0.00s WALL (       1 calls)
     wfcinit:atom :      1.32s CPU      0.71s WALL (      61 calls)
     wfcinit:wfcr :    129.08s CPU     76.26s WALL (      61 calls)
     potinit      :      0.89s CPU      0.66s WALL (       1 calls)
     hinit0       :      2.54s CPU      1.87s WALL (       1 calls)

     Called by electrons:
     c_bands      :   7396.56s CPU   3928.99s WALL (       1 calls)
     v_of_rho     :      0.25s CPU      0.15s WALL (       1 calls)
     v_h          :      0.02s CPU      0.01s WALL (       1 calls)
     v_xc         :      0.22s CPU      0.14s WALL (       1 calls)
     newd         :      1.32s CPU      0.91s WALL (       1 calls)
     PAW_pot      :      0.37s CPU      0.20s WALL (       1 calls)

     Called by c_bands:
     init_us_2    :      2.04s CPU      1.13s WALL (      61 calls)
     init_us_2:cp :      2.04s CPU      1.13s WALL (      61 calls)
     cegterg      :   7253.37s CPU   3844.53s WALL (     284 calls)

     Called by sum_band:

     Called by *egterg:
     cdiaghg      :    855.87s CPU    439.69s WALL (    5208 calls)
     cegterg:over :    960.84s CPU    503.69s WALL (    5147 calls)
     cegterg:upda :    693.62s CPU    360.65s WALL (    5147 calls)
     cegterg:last :   1506.98s CPU    771.19s WALL (    1771 calls)
     cdiaghg:chol :     49.01s CPU     27.16s WALL (    5208 calls)
     cdiaghg:inve :      8.96s CPU      4.57s WALL (    5208 calls)
     cdiaghg:para :    188.29s CPU     99.70s WALL (   10416 calls)
     h_psi        :   2663.23s CPU   1477.87s WALL (    5492 calls)
     s_psi        :    391.97s CPU    202.15s WALL (    5492 calls)
     g_psi        :     37.34s CPU     19.17s WALL (    5147 calls)

     Called by h_psi:
     h_psi:calbec :    495.31s CPU    256.51s WALL (    5492 calls)
     vloc_psi     :   1712.06s CPU    984.68s WALL (    5492 calls)
     add_vuspsi   :    402.63s CPU    207.65s WALL (    5492 calls)

     General routines
     calbec       :    495.27s CPU    256.49s WALL (    5492 calls)
     fft          :      0.49s CPU      0.43s WALL (      13 calls)
     ffts         :      0.23s CPU      0.22s WALL (       1 calls)
     fftw         :   1501.15s CPU    867.15s WALL ( 1075826 calls)
     interpolate  :      0.25s CPU      0.23s WALL (       1 calls)
     davcio       :      1.16s CPU     11.07s WALL (     122 calls)

     Parallel routines

     PAW routines
     PAW_pot      :      0.37s CPU      0.20s WALL (       1 calls)

     PWSCF        :      2h 3m CPU      1h 5m WALL


   This run was terminated on:   6:12:40   3Jul2025            

=------------------------------------------------------------------------------=
   JOB DONE.
=------------------------------------------------------------------------------=
