
     Program PWSCF v.7.0 starts on  8Jul2025 at  2:37:12 

     This program is part of the open-source Quantum ESPRESSO suite
     for quantum simulation of materials; please cite
         "P. Giannozzi et al., J. Phys.:Condens. Matter 21 395502 (2009);
         "P. Giannozzi et al., J. Phys.:Condens. Matter 29 465901 (2017);
         "P. Giannozzi et al., J. Chem. Phys. 152 154105 (2020);
          URL http://www.quantum-espresso.org", 
     in publications or presentations arising from this work. More details at
     http://www.quantum-espresso.org/quote

     Parallel version (MPI & OpenMP), running on      16 processor cores
     Number of MPI processes:                 8
     Threads/MPI process:                     2

     MPI processes distributed on     1 nodes
     R & G space division:  proc/nbgrp/npool/nimage =       8
     64396 MiB available memory on the printing compute node when the environment starts

     Waiting for input...
     Reading input from standard input

     Current dimensions of program PWSCF are:
     Max number of different atomic species (ntypx) = 10
     Max number of k-points (npk) =  40000
     Max angular momentum in pseudopotentials (lmaxx) =  4
     file Cu.pbe-dn-kjpaw_psl.1.0.0.UPF: wavefunction(s)  4S 3D renormalized
     file O.pbe-n-kjpaw_psl.1.0.0.UPF: wavefunction(s)  2S 2P renormalized

     IMPORTANT: XC functional enforced from input :
     Exchange-correlation= PBE
                           (   1   4   3   4   0   0   0)
     Any further DFT definition will be discarded
     Please, verify this is what you really want

     Found identity + ( -0.5000  0.5000  0.0000) symmetry
     This is a supercell, fractional translations are disabled
     Message from routine setup:
     using ibrav=0 with symmetry is DISCOURAGED, use correct ibrav instead

     Subspace diagonalization in iterative solution of the eigenvalue problem:
     one sub-group per band group will be used
     scalapack distributed-memory algorithm (size of sub-group:  2*  2 procs)


     Parallelization info
     --------------------
     sticks:   dense  smooth     PW     G-vecs:    dense   smooth      PW
     Min         292     146     43                13319     4710     752
     Max         294     147     44                13322     4713     755
     Sum        2343    1175    345               106569    37697    6025

     Using Slab Decomposition



     bravais-lattice index     =            0
     lattice parameter (alat)  =       8.0303  a.u.
     unit-cell volume          =     600.4068 (a.u.)^3
     number of atoms/cell      =            8
     number of atomic types    =            2
     number of electrons       =        68.00
     number of Kohn-Sham states=           50
     kinetic-energy cutoff     =      60.0000  Ry
     charge density cutoff     =     480.0000  Ry
     scf convergence threshold =      1.0E-06
     mixing beta               =       0.3000
     number of iterations used =            8  plain     mixing
     Exchange-correlation= PBE
                           (   1   4   3   4   0   0   0)

     celldm(1)=   8.030334  celldm(2)=   0.000000  celldm(3)=   0.000000
     celldm(4)=   0.000000  celldm(5)=   0.000000  celldm(6)=   0.000000

     crystal axes: (cart. coord. in units of alat)
               a(1) = (   1.000000   0.000000   0.000000 )  
               a(2) = (   0.000000   0.955616   0.000000 )  
               a(3) = (  -0.053027   0.000000   1.213280 )  

     reciprocal axes: (cart. coord. in units 2 pi/alat)
               b(1) = (  1.000000 -0.000000  0.043706 )  
               b(2) = (  0.000000  1.046445 -0.000000 )  
               b(3) = (  0.000000  0.000000  0.824212 )  


     PseudoPot. # 1 for Cu read from file:
     ./Cu.pbe-dn-kjpaw_psl.1.0.0.UPF
     MD5 check sum: 095cf95a0eb6b1c74e4537f2c9417266
     Pseudo is Projector augmented-wave + core cor, Zval = 11.0
     Generated using &quot;atomic&quot; code by A. Dal Corso  v.6.3
     Shape of augmentation charge: PSQ
     Using radial grid of 1199 points,  6 beta functions with: 
                l(1) =   0
                l(2) =   0
                l(3) =   1
                l(4) =   1
                l(5) =   2
                l(6) =   2
     Q(r) pseudized with 0 coefficients 


     PseudoPot. # 2 for O  read from file:
     ./O.pbe-n-kjpaw_psl.1.0.0.UPF
     MD5 check sum: bad118ecf0cbddbdac989655ac72557d
     Pseudo is Projector augmented-wave + core cor, Zval =  6.0
     Generated using &quot;atomic&quot; code by A. Dal Corso  v.6.3
     Shape of augmentation charge: PSQ
     Using radial grid of 1095 points,  4 beta functions with: 
                l(1) =   0
                l(2) =   0
                l(3) =   1
                l(4) =   1
     Q(r) pseudized with 0 coefficients 


     atomic species   valence    mass     pseudopotential
        Cu            11.00    63.54600     Cu( 1.00)
        O              6.00    15.99900     O ( 1.00)

      2 Sym. Ops., with inversion, found


                                    s                        frac. trans.

      isym =  1     identity                                     

 cryst.   s( 1) = (     1          0          0      )
                  (     0          1          0      )
                  (     0          0          1      )

 cart.    s( 1) = (  1.0000000  0.0000000  0.0000000 )
                  (  0.0000000  1.0000000  0.0000000 )
                  (  0.0000000  0.0000000  1.0000000 )


      isym =  2     inversion                                    

 cryst.   s( 2) = (    -1          0          0      )
                  (     0         -1          0      )
                  (     0          0         -1      )

 cart.    s( 2) = ( -1.0000000  0.0000000  0.0000000 )
                  (  0.0000000 -1.0000000  0.0000000 )
                  (  0.0000000  0.0000000 -1.0000000 )


   Cartesian axes

     site n.     atom                  positions (alat units)
         1           Cu  tau(   1) = (   0.2234863   0.7167121   0.6066402  )
         2           Cu  tau(   2) = (   0.7500000   0.7167121   0.0000000  )
         3           Cu  tau(   3) = (   0.7234863   0.2389040   0.6066402  )
         4           Cu  tau(   4) = (   0.2500000   0.2389040   0.0000000  )
         5           O   tau(   5) = (  -0.0397705   0.4910644   0.9099604  )
         6           O   tau(   6) = (  -0.0132568   0.4645517   0.3033201  )
         7           O   tau(   7) = (   0.4602295   0.0132563   0.9099604  )
         8           O   tau(   8) = (   0.4867432   0.9423598   0.3033201  )

   Crystallographic axes

     site n.     atom                  positions (cryst. coord.)
         1           Cu  tau(   1) = (  0.2500000  0.7500000  0.5000000  )
         2           Cu  tau(   2) = (  0.7500000  0.7500000  0.0000000  )
         3           Cu  tau(   3) = (  0.7500000  0.2500000  0.5000000  )
         4           Cu  tau(   4) = (  0.2500000  0.2500000  0.0000000  )
         5           O   tau(   5) = (  0.0000000  0.5138720  0.7500000  )
         6           O   tau(   6) = (  0.0000000  0.4861280  0.2500000  )
         7           O   tau(   7) = (  0.5000000  0.0138720  0.7500000  )
         8           O   tau(   8) = (  0.5000000  0.9861280  0.2500000  )

     number of k points=   112
                       cart. coord. in units 2pi/alat
        k(    1) = (   0.0000000   0.0000000   0.0000000), wk =   0.0092593
        k(    2) = (   0.0000000   0.0000000   0.1373686), wk =   0.0185185
        k(    3) = (   0.0000000   0.0000000   0.2747372), wk =   0.0185185
        k(    4) = (   0.0000000   0.0000000  -0.4121059), wk =   0.0092593
        k(    5) = (   0.0000000   0.1744076   0.0000000), wk =   0.0185185
        k(    6) = (   0.0000000   0.1744076   0.1373686), wk =   0.0185185
        k(    7) = (   0.0000000   0.1744076   0.2747372), wk =   0.0185185
        k(    8) = (   0.0000000   0.1744076  -0.4121059), wk =   0.0185185
        k(    9) = (   0.0000000   0.3488151   0.0000000), wk =   0.0185185
        k(   10) = (   0.0000000   0.3488151   0.1373686), wk =   0.0185185
        k(   11) = (   0.0000000   0.3488151   0.2747372), wk =   0.0185185
        k(   12) = (   0.0000000   0.3488151  -0.4121059), wk =   0.0185185
        k(   13) = (   0.0000000  -0.5232227   0.0000000), wk =   0.0092593
        k(   14) = (   0.0000000  -0.5232227   0.1373686), wk =   0.0185185
        k(   15) = (   0.0000000  -0.5232227   0.2747372), wk =   0.0185185
        k(   16) = (   0.0000000  -0.5232227  -0.4121059), wk =   0.0092593
        k(   17) = (   0.1666667   0.0000000   0.0072843), wk =   0.0185185
        k(   18) = (   0.1666667   0.0000000   0.1446529), wk =   0.0185185
        k(   19) = (   0.1666667   0.0000000   0.2820215), wk =   0.0185185
        k(   20) = (   0.1666667   0.0000000  -0.4048216), wk =   0.0185185
        k(   21) = (   0.1666667   0.0000000  -0.2674530), wk =   0.0185185
        k(   22) = (   0.1666667   0.0000000  -0.1300843), wk =   0.0185185
        k(   23) = (   0.1666667   0.1744076   0.0072843), wk =   0.0185185
        k(   24) = (   0.1666667   0.1744076   0.1446529), wk =   0.0185185
        k(   25) = (   0.1666667   0.1744076   0.2820215), wk =   0.0185185
        k(   26) = (   0.1666667   0.1744076  -0.4048216), wk =   0.0185185
        k(   27) = (   0.1666667   0.1744076  -0.2674530), wk =   0.0185185
        k(   28) = (   0.1666667   0.1744076  -0.1300843), wk =   0.0185185
        k(   29) = (   0.1666667   0.3488151   0.0072843), wk =   0.0185185
        k(   30) = (   0.1666667   0.3488151   0.1446529), wk =   0.0185185
        k(   31) = (   0.1666667   0.3488151   0.2820215), wk =   0.0185185
        k(   32) = (   0.1666667   0.3488151  -0.4048216), wk =   0.0185185
        k(   33) = (   0.1666667   0.3488151  -0.2674530), wk =   0.0185185
        k(   34) = (   0.1666667   0.3488151  -0.1300843), wk =   0.0185185
        k(   35) = (   0.1666667  -0.5232227   0.0072843), wk =   0.0185185
        k(   36) = (   0.1666667  -0.5232227   0.1446529), wk =   0.0185185
        k(   37) = (   0.1666667  -0.5232227   0.2820215), wk =   0.0185185
        k(   38) = (   0.1666667  -0.5232227  -0.4048216), wk =   0.0185185
        k(   39) = (   0.1666667  -0.5232227  -0.2674530), wk =   0.0185185
        k(   40) = (   0.1666667  -0.5232227  -0.1300843), wk =   0.0185185
        k(   41) = (   0.3333333   0.0000000   0.0145686), wk =   0.0185185
        k(   42) = (   0.3333333   0.0000000   0.1519372), wk =   0.0185185
        k(   43) = (   0.3333333   0.0000000   0.2893058), wk =   0.0185185
        k(   44) = (   0.3333333   0.0000000  -0.3975373), wk =   0.0185185
        k(   45) = (   0.3333333   0.0000000  -0.2601687), wk =   0.0185185
        k(   46) = (   0.3333333   0.0000000  -0.1228000), wk =   0.0185185
        k(   47) = (   0.3333333   0.1744076   0.0145686), wk =   0.0185185
        k(   48) = (   0.3333333   0.1744076   0.1519372), wk =   0.0185185
        k(   49) = (   0.3333333   0.1744076   0.2893058), wk =   0.0185185
        k(   50) = (   0.3333333   0.1744076  -0.3975373), wk =   0.0185185
        k(   51) = (   0.3333333   0.1744076  -0.2601687), wk =   0.0185185
        k(   52) = (   0.3333333   0.1744076  -0.1228000), wk =   0.0185185
        k(   53) = (   0.3333333   0.3488151   0.0145686), wk =   0.0185185
        k(   54) = (   0.3333333   0.3488151   0.1519372), wk =   0.0185185
        k(   55) = (   0.3333333   0.3488151   0.2893058), wk =   0.0185185
        k(   56) = (   0.3333333   0.3488151  -0.3975373), wk =   0.0185185
        k(   57) = (   0.3333333   0.3488151  -0.2601687), wk =   0.0185185
        k(   58) = (   0.3333333   0.3488151  -0.1228000), wk =   0.0185185
        k(   59) = (   0.3333333  -0.5232227   0.0145686), wk =   0.0185185
        k(   60) = (   0.3333333  -0.5232227   0.1519372), wk =   0.0185185
        k(   61) = (   0.3333333  -0.5232227   0.2893058), wk =   0.0185185
        k(   62) = (   0.3333333  -0.5232227  -0.3975373), wk =   0.0185185
        k(   63) = (   0.3333333  -0.5232227  -0.2601687), wk =   0.0185185
        k(   64) = (   0.3333333  -0.5232227  -0.1228000), wk =   0.0185185
        k(   65) = (  -0.5000000   0.0000000  -0.0218529), wk =   0.0092593
        k(   66) = (  -0.5000000   0.0000000   0.1155158), wk =   0.0185185
        k(   67) = (  -0.5000000   0.0000000   0.2528844), wk =   0.0185185
        k(   68) = (  -0.5000000   0.0000000  -0.4339587), wk =   0.0092593
        k(   69) = (  -0.5000000   0.1744076  -0.0218529), wk =   0.0185185
        k(   70) = (  -0.5000000   0.1744076   0.1155158), wk =   0.0185185
        k(   71) = (  -0.5000000   0.1744076   0.2528844), wk =   0.0185185
        k(   72) = (  -0.5000000   0.1744076  -0.4339587), wk =   0.0185185
        k(   73) = (  -0.5000000   0.3488151  -0.0218529), wk =   0.0185185
        k(   74) = (  -0.5000000   0.3488151   0.1155158), wk =   0.0185185
        k(   75) = (  -0.5000000   0.3488151   0.2528844), wk =   0.0185185
        k(   76) = (  -0.5000000   0.3488151  -0.4339587), wk =   0.0185185
        k(   77) = (  -0.5000000  -0.5232227  -0.0218529), wk =   0.0092593
        k(   78) = (  -0.5000000  -0.5232227   0.1155158), wk =   0.0185185
        k(   79) = (  -0.5000000  -0.5232227   0.2528844), wk =   0.0185185
        k(   80) = (  -0.5000000  -0.5232227  -0.4339587), wk =   0.0092593
        k(   81) = (   0.0000000   0.1744076  -0.1373686), wk =   0.0185185
        k(   82) = (   0.0000000   0.1744076  -0.2747372), wk =   0.0185185
        k(   83) = (   0.0000000   0.3488151  -0.1373686), wk =   0.0185185
        k(   84) = (   0.0000000   0.3488151  -0.2747372), wk =   0.0185185
        k(   85) = (  -0.1666667   0.1744076  -0.0072843), wk =   0.0185185
        k(   86) = (  -0.1666667   0.1744076  -0.1446529), wk =   0.0185185
        k(   87) = (  -0.1666667   0.1744076  -0.2820215), wk =   0.0185185
        k(   88) = (  -0.1666667   0.1744076   0.4048216), wk =   0.0185185
        k(   89) = (  -0.1666667   0.1744076   0.2674530), wk =   0.0185185
        k(   90) = (  -0.1666667   0.1744076   0.1300843), wk =   0.0185185
        k(   91) = (  -0.1666667   0.3488151  -0.0072843), wk =   0.0185185
        k(   92) = (  -0.1666667   0.3488151  -0.1446529), wk =   0.0185185
        k(   93) = (  -0.1666667   0.3488151  -0.2820215), wk =   0.0185185
        k(   94) = (  -0.1666667   0.3488151   0.4048216), wk =   0.0185185
        k(   95) = (  -0.1666667   0.3488151   0.2674530), wk =   0.0185185
        k(   96) = (  -0.1666667   0.3488151   0.1300843), wk =   0.0185185
        k(   97) = (  -0.3333333   0.1744076  -0.0145686), wk =   0.0185185
        k(   98) = (  -0.3333333   0.1744076  -0.1519372), wk =   0.0185185
        k(   99) = (  -0.3333333   0.1744076  -0.2893058), wk =   0.0185185
        k(  100) = (  -0.3333333   0.1744076   0.3975373), wk =   0.0185185
        k(  101) = (  -0.3333333   0.1744076   0.2601687), wk =   0.0185185
        k(  102) = (  -0.3333333   0.1744076   0.1228000), wk =   0.0185185
        k(  103) = (  -0.3333333   0.3488151  -0.0145686), wk =   0.0185185
        k(  104) = (  -0.3333333   0.3488151  -0.1519372), wk =   0.0185185
        k(  105) = (  -0.3333333   0.3488151  -0.2893058), wk =   0.0185185
        k(  106) = (  -0.3333333   0.3488151   0.3975373), wk =   0.0185185
        k(  107) = (  -0.3333333   0.3488151   0.2601687), wk =   0.0185185
        k(  108) = (  -0.3333333   0.3488151   0.1228000), wk =   0.0185185
        k(  109) = (   0.5000000   0.1744076  -0.1155158), wk =   0.0185185
        k(  110) = (   0.5000000   0.1744076  -0.2528844), wk =   0.0185185
        k(  111) = (   0.5000000   0.3488151  -0.1155158), wk =   0.0185185
        k(  112) = (   0.5000000   0.3488151  -0.2528844), wk =   0.0185185

                       cryst. coord.
        k(    1) = (   0.0000000   0.0000000   0.0000000), wk =   0.0092593
        k(    2) = (   0.0000000   0.0000000   0.1666667), wk =   0.0185185
        k(    3) = (   0.0000000   0.0000000   0.3333333), wk =   0.0185185
        k(    4) = (   0.0000000   0.0000000  -0.5000000), wk =   0.0092593
        k(    5) = (   0.0000000   0.1666667   0.0000000), wk =   0.0185185
        k(    6) = (   0.0000000   0.1666667   0.1666667), wk =   0.0185185
        k(    7) = (   0.0000000   0.1666667   0.3333333), wk =   0.0185185
        k(    8) = (   0.0000000   0.1666667  -0.5000000), wk =   0.0185185
        k(    9) = (   0.0000000   0.3333333   0.0000000), wk =   0.0185185
        k(   10) = (   0.0000000   0.3333333   0.1666667), wk =   0.0185185
        k(   11) = (   0.0000000   0.3333333   0.3333333), wk =   0.0185185
        k(   12) = (   0.0000000   0.3333333  -0.5000000), wk =   0.0185185
        k(   13) = (   0.0000000  -0.5000000   0.0000000), wk =   0.0092593
        k(   14) = (   0.0000000  -0.5000000   0.1666667), wk =   0.0185185
        k(   15) = (   0.0000000  -0.5000000   0.3333333), wk =   0.0185185
        k(   16) = (   0.0000000  -0.5000000  -0.5000000), wk =   0.0092593
        k(   17) = (   0.1666667   0.0000000   0.0000000), wk =   0.0185185
        k(   18) = (   0.1666667   0.0000000   0.1666667), wk =   0.0185185
        k(   19) = (   0.1666667   0.0000000   0.3333333), wk =   0.0185185
        k(   20) = (   0.1666667   0.0000000  -0.5000000), wk =   0.0185185
        k(   21) = (   0.1666667   0.0000000  -0.3333333), wk =   0.0185185
        k(   22) = (   0.1666667   0.0000000  -0.1666667), wk =   0.0185185
        k(   23) = (   0.1666667   0.1666667   0.0000000), wk =   0.0185185
        k(   24) = (   0.1666667   0.1666667   0.1666667), wk =   0.0185185
        k(   25) = (   0.1666667   0.1666667   0.3333333), wk =   0.0185185
        k(   26) = (   0.1666667   0.1666667  -0.5000000), wk =   0.0185185
        k(   27) = (   0.1666667   0.1666667  -0.3333333), wk =   0.0185185
        k(   28) = (   0.1666667   0.1666667  -0.1666667), wk =   0.0185185
        k(   29) = (   0.1666667   0.3333333   0.0000000), wk =   0.0185185
        k(   30) = (   0.1666667   0.3333333   0.1666667), wk =   0.0185185
        k(   31) = (   0.1666667   0.3333333   0.3333333), wk =   0.0185185
        k(   32) = (   0.1666667   0.3333333  -0.5000000), wk =   0.0185185
        k(   33) = (   0.1666667   0.3333333  -0.3333333), wk =   0.0185185
        k(   34) = (   0.1666667   0.3333333  -0.1666667), wk =   0.0185185
        k(   35) = (   0.1666667  -0.5000000   0.0000000), wk =   0.0185185
        k(   36) = (   0.1666667  -0.5000000   0.1666667), wk =   0.0185185
        k(   37) = (   0.1666667  -0.5000000   0.3333333), wk =   0.0185185
        k(   38) = (   0.1666667  -0.5000000  -0.5000000), wk =   0.0185185
        k(   39) = (   0.1666667  -0.5000000  -0.3333333), wk =   0.0185185
        k(   40) = (   0.1666667  -0.5000000  -0.1666667), wk =   0.0185185
        k(   41) = (   0.3333333   0.0000000   0.0000000), wk =   0.0185185
        k(   42) = (   0.3333333   0.0000000   0.1666667), wk =   0.0185185
        k(   43) = (   0.3333333   0.0000000   0.3333333), wk =   0.0185185
        k(   44) = (   0.3333333   0.0000000  -0.5000000), wk =   0.0185185
        k(   45) = (   0.3333333   0.0000000  -0.3333333), wk =   0.0185185
        k(   46) = (   0.3333333   0.0000000  -0.1666667), wk =   0.0185185
        k(   47) = (   0.3333333   0.1666667   0.0000000), wk =   0.0185185
        k(   48) = (   0.3333333   0.1666667   0.1666667), wk =   0.0185185
        k(   49) = (   0.3333333   0.1666667   0.3333333), wk =   0.0185185
        k(   50) = (   0.3333333   0.1666667  -0.5000000), wk =   0.0185185
        k(   51) = (   0.3333333   0.1666667  -0.3333333), wk =   0.0185185
        k(   52) = (   0.3333333   0.1666667  -0.1666667), wk =   0.0185185
        k(   53) = (   0.3333333   0.3333333   0.0000000), wk =   0.0185185
        k(   54) = (   0.3333333   0.3333333   0.1666667), wk =   0.0185185
        k(   55) = (   0.3333333   0.3333333   0.3333333), wk =   0.0185185
        k(   56) = (   0.3333333   0.3333333  -0.5000000), wk =   0.0185185
        k(   57) = (   0.3333333   0.3333333  -0.3333333), wk =   0.0185185
        k(   58) = (   0.3333333   0.3333333  -0.1666667), wk =   0.0185185
        k(   59) = (   0.3333333  -0.5000000   0.0000000), wk =   0.0185185
        k(   60) = (   0.3333333  -0.5000000   0.1666667), wk =   0.0185185
        k(   61) = (   0.3333333  -0.5000000   0.3333333), wk =   0.0185185
        k(   62) = (   0.3333333  -0.5000000  -0.5000000), wk =   0.0185185
        k(   63) = (   0.3333333  -0.5000000  -0.3333333), wk =   0.0185185
        k(   64) = (   0.3333333  -0.5000000  -0.1666667), wk =   0.0185185
        k(   65) = (  -0.5000000   0.0000000   0.0000000), wk =   0.0092593
        k(   66) = (  -0.5000000   0.0000000   0.1666667), wk =   0.0185185
        k(   67) = (  -0.5000000   0.0000000   0.3333333), wk =   0.0185185
        k(   68) = (  -0.5000000   0.0000000  -0.5000000), wk =   0.0092593
        k(   69) = (  -0.5000000   0.1666667   0.0000000), wk =   0.0185185
        k(   70) = (  -0.5000000   0.1666667   0.1666667), wk =   0.0185185
        k(   71) = (  -0.5000000   0.1666667   0.3333333), wk =   0.0185185
        k(   72) = (  -0.5000000   0.1666667  -0.5000000), wk =   0.0185185
        k(   73) = (  -0.5000000   0.3333333   0.0000000), wk =   0.0185185
        k(   74) = (  -0.5000000   0.3333333   0.1666667), wk =   0.0185185
        k(   75) = (  -0.5000000   0.3333333   0.3333333), wk =   0.0185185
        k(   76) = (  -0.5000000   0.3333333  -0.5000000), wk =   0.0185185
        k(   77) = (  -0.5000000  -0.5000000   0.0000000), wk =   0.0092593
        k(   78) = (  -0.5000000  -0.5000000   0.1666667), wk =   0.0185185
        k(   79) = (  -0.5000000  -0.5000000   0.3333333), wk =   0.0185185
        k(   80) = (  -0.5000000  -0.5000000  -0.5000000), wk =   0.0092593
        k(   81) = (   0.0000000   0.1666667  -0.1666667), wk =   0.0185185
        k(   82) = (   0.0000000   0.1666667  -0.3333333), wk =   0.0185185
        k(   83) = (   0.0000000   0.3333333  -0.1666667), wk =   0.0185185
        k(   84) = (   0.0000000   0.3333333  -0.3333333), wk =   0.0185185
        k(   85) = (  -0.1666667   0.1666667  -0.0000000), wk =   0.0185185
        k(   86) = (  -0.1666667   0.1666667  -0.1666667), wk =   0.0185185
        k(   87) = (  -0.1666667   0.1666667  -0.3333333), wk =   0.0185185
        k(   88) = (  -0.1666667   0.1666667   0.5000000), wk =   0.0185185
        k(   89) = (  -0.1666667   0.1666667   0.3333333), wk =   0.0185185
        k(   90) = (  -0.1666667   0.1666667   0.1666667), wk =   0.0185185
        k(   91) = (  -0.1666667   0.3333333  -0.0000000), wk =   0.0185185
        k(   92) = (  -0.1666667   0.3333333  -0.1666667), wk =   0.0185185
        k(   93) = (  -0.1666667   0.3333333  -0.3333333), wk =   0.0185185
        k(   94) = (  -0.1666667   0.3333333   0.5000000), wk =   0.0185185
        k(   95) = (  -0.1666667   0.3333333   0.3333333), wk =   0.0185185
        k(   96) = (  -0.1666667   0.3333333   0.1666667), wk =   0.0185185
        k(   97) = (  -0.3333333   0.1666667  -0.0000000), wk =   0.0185185
        k(   98) = (  -0.3333333   0.1666667  -0.1666667), wk =   0.0185185
        k(   99) = (  -0.3333333   0.1666667  -0.3333333), wk =   0.0185185
        k(  100) = (  -0.3333333   0.1666667   0.5000000), wk =   0.0185185
        k(  101) = (  -0.3333333   0.1666667   0.3333333), wk =   0.0185185
        k(  102) = (  -0.3333333   0.1666667   0.1666667), wk =   0.0185185
        k(  103) = (  -0.3333333   0.3333333  -0.0000000), wk =   0.0185185
        k(  104) = (  -0.3333333   0.3333333  -0.1666667), wk =   0.0185185
        k(  105) = (  -0.3333333   0.3333333  -0.3333333), wk =   0.0185185
        k(  106) = (  -0.3333333   0.3333333   0.5000000), wk =   0.0185185
        k(  107) = (  -0.3333333   0.3333333   0.3333333), wk =   0.0185185
        k(  108) = (  -0.3333333   0.3333333   0.1666667), wk =   0.0185185
        k(  109) = (   0.5000000   0.1666667  -0.1666667), wk =   0.0185185
        k(  110) = (   0.5000000   0.1666667  -0.3333333), wk =   0.0185185
        k(  111) = (   0.5000000   0.3333333  -0.1666667), wk =   0.0185185
        k(  112) = (   0.5000000   0.3333333  -0.3333333), wk =   0.0185185

     Dense  grid:   106569 G-vectors     FFT dimensions: (  60,  54,  72)

     Smooth grid:    37697 G-vectors     FFT dimensions: (  40,  40,  50)

     Dynamical RAM for                 wfc:       0.45 MB

     Dynamical RAM for     wfc (w. buffer):      50.78 MB

     Dynamical RAM for           str. fact:       0.41 MB

     Dynamical RAM for           local pot:       0.00 MB

     Dynamical RAM for          nlocal pot:       0.93 MB

     Dynamical RAM for                qrad:       3.52 MB

     Dynamical RAM for          rho,v,vnew:       1.28 MB

     Dynamical RAM for               rhoin:       0.43 MB

     Dynamical RAM for            rho*nmix:       3.25 MB

     Dynamical RAM for           G-vectors:       0.80 MB

     Dynamical RAM for          h,s,v(r/c):       0.11 MB

     Dynamical RAM for          <psi|beta>:       0.08 MB

     Dynamical RAM for                 psi:       0.90 MB

     Dynamical RAM for                hpsi:       0.90 MB

     Dynamical RAM for                spsi:       0.90 MB

     Dynamical RAM for      wfcinit/wfcrot:       1.00 MB

     Dynamical RAM for           addusdens:      38.62 MB

     Estimated static dynamical RAM per process >      59.86 MB

     Estimated max dynamical RAM per process >     101.73 MB

     Estimated total dynamical RAM >     813.87 MB

     Initial potential from superposition of free atoms

     starting charge      67.9991, renormalised to      68.0000
     Starting wfcs are   52 randomized atomic wfcs
     Checking if some PAW data can be deallocated... 
       PAW data deallocated on    4 nodes for type:  1
       PAW data deallocated on    4 nodes for type:  2

     total cpu time spent up to now is       25.8 secs

     per-process dynamical memory:    81.3 Mb

     Self-consistent Calculation

     iteration #  1     ecut=    60.00 Ry     beta= 0.30
     Davidson diagonalization with overlap

---- Real-time Memory Report at c_bands before calling an iterative solver
           144 MiB given to the printing process from OS
            79 MiB allocation reported by mallinfo(arena+hblkhd)
         63943 MiB available memory on the node where the printing process lives
------------------
     ethr =  1.00E-02,  avg # of iterations =  6.2

     total cpu time spent up to now is      153.1 secs

     total energy              =   -1018.16465186 Ry
     estimated scf accuracy    <       2.23767487 Ry

     iteration #  2     ecut=    60.00 Ry     beta= 0.30
     Davidson diagonalization with overlap

---- Real-time Memory Report at c_bands before calling an iterative solver
           190 MiB given to the printing process from OS
            89 MiB allocation reported by mallinfo(arena+hblkhd)
         63466 MiB available memory on the node where the printing process lives
------------------
     ethr =  3.29E-03,  avg # of iterations =  2.1

     total cpu time spent up to now is      213.1 secs

     total energy              =   -1018.66777575 Ry
     estimated scf accuracy    <       0.52068054 Ry

     iteration #  3     ecut=    60.00 Ry     beta= 0.30
     Davidson diagonalization with overlap

---- Real-time Memory Report at c_bands before calling an iterative solver
           191 MiB given to the printing process from OS
            90 MiB allocation reported by mallinfo(arena+hblkhd)
         64258 MiB available memory on the node where the printing process lives
------------------
     ethr =  7.66E-04,  avg # of iterations =  2.6

     total cpu time spent up to now is      288.3 secs

     total energy              =   -1018.75320567 Ry
     estimated scf accuracy    <       0.16191368 Ry

     iteration #  4     ecut=    60.00 Ry     beta= 0.30
     Davidson diagonalization with overlap

---- Real-time Memory Report at c_bands before calling an iterative solver
           191 MiB given to the printing process from OS
            91 MiB allocation reported by mallinfo(arena+hblkhd)
         64253 MiB available memory on the node where the printing process lives
------------------
     ethr =  2.38E-04,  avg # of iterations =  4.0

     total cpu time spent up to now is      379.9 secs

     total energy              =   -1018.78046576 Ry
     estimated scf accuracy    <       0.31110857 Ry

     iteration #  5     ecut=    60.00 Ry     beta= 0.30
     Davidson diagonalization with overlap

---- Real-time Memory Report at c_bands before calling an iterative solver
           191 MiB given to the printing process from OS
            91 MiB allocation reported by mallinfo(arena+hblkhd)
         64435 MiB available memory on the node where the printing process lives
------------------
     ethr =  2.38E-04,  avg # of iterations =  1.5

     total cpu time spent up to now is      430.6 secs

     total energy              =   -1018.79571968 Ry
     estimated scf accuracy    <       0.01191955 Ry

     iteration #  6     ecut=    60.00 Ry     beta= 0.30
     Davidson diagonalization with overlap

---- Real-time Memory Report at c_bands before calling an iterative solver
           191 MiB given to the printing process from OS
            91 MiB allocation reported by mallinfo(arena+hblkhd)
         64514 MiB available memory on the node where the printing process lives
------------------
     c_bands:  1 eigenvalues not converged
     c_bands:  1 eigenvalues not converged
     c_bands:  1 eigenvalues not converged
     c_bands:  1 eigenvalues not converged
     c_bands:  1 eigenvalues not converged
     c_bands:  1 eigenvalues not converged
     c_bands:  1 eigenvalues not converged
     c_bands:  1 eigenvalues not converged
     c_bands:  1 eigenvalues not converged
     c_bands:  1 eigenvalues not converged
     c_bands:  1 eigenvalues not converged
     ethr =  1.75E-05,  avg # of iterations =  8.9

     total cpu time spent up to now is      584.7 secs

     total energy              =   -1018.79843249 Ry
     estimated scf accuracy    <       0.01295263 Ry

     iteration #  7     ecut=    60.00 Ry     beta= 0.30
     Davidson diagonalization with overlap

---- Real-time Memory Report at c_bands before calling an iterative solver
           191 MiB given to the printing process from OS
            91 MiB allocation reported by mallinfo(arena+hblkhd)
         64469 MiB available memory on the node where the printing process lives
------------------
     ethr =  1.75E-05,  avg # of iterations =  1.5

     total cpu time spent up to now is      640.1 secs

     total energy              =   -1018.80043664 Ry
     estimated scf accuracy    <       0.00041911 Ry

     iteration #  8     ecut=    60.00 Ry     beta= 0.30
     Davidson diagonalization with overlap

---- Real-time Memory Report at c_bands before calling an iterative solver
           194 MiB given to the printing process from OS
            91 MiB allocation reported by mallinfo(arena+hblkhd)
         64569 MiB available memory on the node where the printing process lives
------------------
     c_bands:  1 eigenvalues not converged
     c_bands:  1 eigenvalues not converged
     c_bands:  1 eigenvalues not converged
     c_bands:  1 eigenvalues not converged
     c_bands:  1 eigenvalues not converged
     c_bands:  1 eigenvalues not converged
     c_bands:  1 eigenvalues not converged
     c_bands:  1 eigenvalues not converged
     c_bands:  1 eigenvalues not converged
     c_bands:  2 eigenvalues not converged
     ethr =  6.16E-07,  avg # of iterations =  7.5

     total cpu time spent up to now is      789.5 secs

     total energy              =   -1018.80069190 Ry
     estimated scf accuracy    <       0.00021589 Ry

     iteration #  9     ecut=    60.00 Ry     beta= 0.30
     Davidson diagonalization with overlap

---- Real-time Memory Report at c_bands before calling an iterative solver
           194 MiB given to the printing process from OS
            91 MiB allocation reported by mallinfo(arena+hblkhd)
         64575 MiB available memory on the node where the printing process lives
------------------
     c_bands:  1 eigenvalues not converged
     ethr =  3.17E-07,  avg # of iterations =  1.9

     total cpu time spent up to now is      852.1 secs

     total energy              =   -1018.80070975 Ry
     estimated scf accuracy    <       0.00006230 Ry

     iteration # 10     ecut=    60.00 Ry     beta= 0.30
     Davidson diagonalization with overlap

---- Real-time Memory Report at c_bands before calling an iterative solver
           194 MiB given to the printing process from OS
            92 MiB allocation reported by mallinfo(arena+hblkhd)
         64291 MiB available memory on the node where the printing process lives
------------------
     ethr =  9.16E-08,  avg # of iterations =  1.7

     total cpu time spent up to now is      919.1 secs

     total energy              =   -1018.80071412 Ry
     estimated scf accuracy    <       0.00003119 Ry

     iteration # 11     ecut=    60.00 Ry     beta= 0.30
     Davidson diagonalization with overlap

---- Real-time Memory Report at c_bands before calling an iterative solver
           194 MiB given to the printing process from OS
            92 MiB allocation reported by mallinfo(arena+hblkhd)
         64075 MiB available memory on the node where the printing process lives
------------------
     ethr =  4.59E-08,  avg # of iterations =  1.2

     total cpu time spent up to now is      976.7 secs

     total energy              =   -1018.80071575 Ry
     estimated scf accuracy    <       0.00002309 Ry

     iteration # 12     ecut=    60.00 Ry     beta= 0.30
     Davidson diagonalization with overlap

---- Real-time Memory Report at c_bands before calling an iterative solver
           206 MiB given to the printing process from OS
            92 MiB allocation reported by mallinfo(arena+hblkhd)
         64000 MiB available memory on the node where the printing process lives
------------------
     c_bands:  2 eigenvalues not converged
     ethr =  3.40E-08,  avg # of iterations =  1.2

     total cpu time spent up to now is     1037.2 secs

     total energy              =   -1018.80071609 Ry
     estimated scf accuracy    <       0.00001051 Ry

     iteration # 13     ecut=    60.00 Ry     beta= 0.30
     Davidson diagonalization with overlap

---- Real-time Memory Report at c_bands before calling an iterative solver
           206 MiB given to the printing process from OS
            92 MiB allocation reported by mallinfo(arena+hblkhd)
         63523 MiB available memory on the node where the printing process lives
------------------
     ethr =  1.55E-08,  avg # of iterations =  1.2

     total cpu time spent up to now is     1096.9 secs

     total energy              =   -1018.80071637 Ry
     estimated scf accuracy    <       0.00000986 Ry

     iteration # 14     ecut=    60.00 Ry     beta= 0.30
     Davidson diagonalization with overlap

---- Real-time Memory Report at c_bands before calling an iterative solver
           206 MiB given to the printing process from OS
            92 MiB allocation reported by mallinfo(arena+hblkhd)
         63095 MiB available memory on the node where the printing process lives
------------------
     ethr =  1.45E-08,  avg # of iterations =  1.0

     total cpu time spent up to now is     1158.4 secs

     End of self-consistent calculation

          k = 0.0000 0.0000 0.0000 (  4721 PWs)   bands (ev):

   -11.1582 -10.0475  -9.8664  -9.5791   0.5306   1.9098   2.1136   2.8932
     3.1602   3.2545   3.4162   4.1606   4.3606   4.8870   5.1971   5.1981
     5.3322   5.3725   5.6181   5.9165   6.0023   6.1363   6.1885   6.2125
     6.2225   6.2399   6.2445   6.2596   6.3115   6.6949   6.9860   7.3934
     7.4258   9.2152   9.3167   9.7164   9.9752  10.7544  14.6511  15.7698
    15.8590  17.8266  18.7248  19.5506  20.1172  20.8958  21.1233  21.8811
    22.6540  23.1334

     occupation numbers 
     1.0000   1.0000   1.0000   1.0000   1.0000   1.0000   1.0000   1.0000
     1.0000   1.0000   1.0000   1.0000   1.0000   1.0000   1.0000   1.0000
     1.0000   1.0000   1.0000   1.0000   1.0000   1.0000   1.0000   1.0000
     1.0000   1.0000   1.0000   1.0000   1.0000   1.0000   1.0000   1.0000
     1.0000   1.0000   0.0000   0.0000   0.0000   0.0000   0.0000   0.0000
     0.0000   0.0000   0.0000   0.0000   0.0000   0.0000   0.0000   0.0000
     0.0000   0.0000

          k = 0.0000 0.0000 0.1374 (  4705 PWs)   bands (ev):

   -11.0856 -10.0184  -9.9716  -9.6129   0.7996   2.0115   2.2113   2.9448
     3.1769   3.2603   3.3930   3.8978   4.0806   4.8229   5.0412   5.0430
     5.1808   5.3492   5.4152   6.1172   6.1601   6.1887   6.1992   6.2308
     6.2446   6.2618   6.2976   6.4073   6.4553   6.6381   7.1081   7.3590
     7.3924   9.1060   9.1982   9.4551  10.3528  10.9879  13.9204  15.0451
    16.8216  18.0486  18.8123  20.0722  20.3051  20.9299  21.5361  21.9456
    22.6585  23.2762

     occupation numbers 
     1.0000   1.0000   1.0000   1.0000   1.0000   1.0000   1.0000   1.0000
     1.0000   1.0000   1.0000   1.0000   1.0000   1.0000   1.0000   1.0000
     1.0000   1.0000   1.0000   1.0000   1.0000   1.0000   1.0000   1.0000
     1.0000   1.0000   1.0000   1.0000   1.0000   1.0000   1.0000   1.0000
     1.0000   1.0000   0.0000   0.0000   0.0000   0.0000   0.0000   0.0000
     0.0000   0.0000   0.0000   0.0000   0.0000   0.0000   0.0000   0.0000
     0.0000   0.0000

          k = 0.0000 0.0000 0.2747 (  4727 PWs)   bands (ev):

   -10.8794 -10.2414  -9.9372  -9.7034   1.5480   2.3063   2.4942   3.0642
     3.2175   3.2675   3.3117   3.3630   3.5411   3.8606   4.8113   4.8272
     5.1544   5.3396   5.5375   5.9470   6.2439   6.2472   6.2473   6.2542
     6.2845   6.4590   6.5025   6.5259   6.8349   6.8601   7.2643   7.2713
     7.5024   8.8207   8.8534   8.9171  11.1598  11.6362  12.9609  13.7889
    18.4122  18.4440  18.9517  20.0270  20.4757  21.8133  22.1540  22.4124
    22.5847  22.8495

     occupation numbers 
     1.0000   1.0000   1.0000   1.0000   1.0000   1.0000   1.0000   1.0000
     1.0000   1.0000   1.0000   1.0000   1.0000   1.0000   1.0000   1.0000
     1.0000   1.0000   1.0000   1.0000   1.0000   1.0000   1.0000   1.0000
     1.0000   1.0000   1.0000   1.0000   1.0000   1.0000   1.0000   1.0000
     1.0000   1.0000   0.0000   0.0000   0.0000   0.0000   0.0000   0.0000
     0.0000   0.0000   0.0000   0.0000   0.0000   0.0000   0.0000   0.0000
     0.0000   0.0000

          k = 0.0000 0.0000-0.4121 (  4712 PWs)   bands (ev):

   -10.5760 -10.5759  -9.8227  -9.8227   2.6319   2.6319   2.7443   2.7443
     2.9634   2.9634   3.2418   3.2418   3.2560   3.2560   4.7352   4.7352
     5.2711   5.2711   5.7254   5.7254   6.2511   6.2511   6.2634   6.2634
     6.3211   6.3212   6.6975   6.6975   7.0603   7.0604   7.1892   7.1892
     8.0963   8.0963   8.7195   8.7195  12.0521  12.0522  12.6012  12.6014
    18.8250  18.8251  20.1659  20.1659  20.1943  20.1944  22.5027  22.5027
    23.8788  23.9355

     occupation numbers 
     1.0000   1.0000   1.0000   1.0000   1.0000   1.0000   1.0000   1.0000
     1.0000   1.0000   1.0000   1.0000   1.0000   1.0000   1.0000   1.0000
     1.0000   1.0000   1.0000   1.0000   1.0000   1.0000   1.0000   1.0000
     1.0000   1.0000   1.0000   1.0000   1.0000   1.0000   1.0000   1.0000
     1.0000   1.0000   0.0000   0.0000   0.0000   0.0000   0.0000   0.0000
     0.0000   0.0000   0.0000   0.0000   0.0000   0.0000   0.0000   0.0000
     0.0000   0.0000

          k = 0.0000 0.1744 0.0000 (  4699 PWs)   bands (ev):

   -11.0843 -10.1215  -9.8436  -9.5943   0.6612   2.0547   2.1868   2.6781
     3.1288   3.2471   3.2934   4.0575   4.3418   4.3817   4.6550   5.4226
     5.6114   5.6462   5.6792   5.9090   5.9654   6.0135   6.1860   6.2114
     6.2536   6.2714   6.3489   6.3744   6.4215   6.7610   7.0618   7.1392
     7.3060   9.0174   9.2578   9.6376  10.4539  11.4232  14.9915  15.1752
    15.5069  17.9295  19.2731  19.4774  19.7679  20.6995  21.0028  22.2796
    22.7496  22.9816

     occupation numbers 
     1.0000   1.0000   1.0000   1.0000   1.0000   1.0000   1.0000   1.0000
     1.0000   1.0000   1.0000   1.0000   1.0000   1.0000   1.0000   1.0000
     1.0000   1.0000   1.0000   1.0000   1.0000   1.0000   1.0000   1.0000
     1.0000   1.0000   1.0000   1.0000   1.0000   1.0000   1.0000   1.0000
     1.0000   1.0000   0.0000   0.0000   0.0000   0.0000   0.0000   0.0000
     0.0000   0.0000   0.0000   0.0000   0.0000   0.0000   0.0000   0.0000
     0.0000   0.0000

          k = 0.0000 0.1744 0.1374 (  4710 PWs)   bands (ev):

   -11.0142 -10.0889  -9.9438  -9.6327   0.9150   2.1523   2.2671   2.7255
     3.1147   3.2519   3.2652   3.9011   4.1516   4.3601   4.6369   5.0149
     5.4344   5.5686   5.5873   6.1026   6.1296   6.1528   6.1662   6.2548
     6.2831   6.3462   6.3475   6.3960   6.4713   6.7526   7.0773   7.2026
     7.3428   8.9036   9.0908   9.3856  10.8199  11.5964  14.1872  14.5930
    16.7622  18.1029  19.2456  19.5296  20.0767  21.0616  21.0818  22.0866
    22.9078  22.9638

     occupation numbers 
     1.0000   1.0000   1.0000   1.0000   1.0000   1.0000   1.0000   1.0000
     1.0000   1.0000   1.0000   1.0000   1.0000   1.0000   1.0000   1.0000
     1.0000   1.0000   1.0000   1.0000   1.0000   1.0000   1.0000   1.0000
     1.0000   1.0000   1.0000   1.0000   1.0000   1.0000   1.0000   1.0000
     1.0000   1.0000   0.0000   0.0000   0.0000   0.0000   0.0000   0.0000
     0.0000   0.0000   0.0000   0.0000   0.0000   0.0000   0.0000   0.0000
     0.0000   0.0000

          k = 0.0000 0.1744 0.2747 (  4704 PWs)   bands (ev):

   -10.8150 -10.2016  -9.9980  -9.7350   1.6120   2.4291   2.4857   2.8124
     3.0388   3.1557   3.2718   3.5558   3.7273   4.0443   4.4242   4.5791
     5.3433   5.4514   5.6313   5.9688   6.1982   6.2110   6.2555   6.2608
     6.3368   6.4422   6.4688   6.5139   6.8008   6.9240   7.0753   7.1613
     7.6394   8.6492   8.7648   8.7883  11.5733  12.0894  13.2482  13.7374
    18.4261  18.4880  19.1392  19.8564  20.1822  21.2301  21.6318  22.3167
    22.3174  23.4359

     occupation numbers 
     1.0000   1.0000   1.0000   1.0000   1.0000   1.0000   1.0000   1.0000
     1.0000   1.0000   1.0000   1.0000   1.0000   1.0000   1.0000   1.0000
     1.0000   1.0000   1.0000   1.0000   1.0000   1.0000   1.0000   1.0000
     1.0000   1.0000   1.0000   1.0000   1.0000   1.0000   1.0000   1.0000
     1.0000   1.0000   0.0000   0.0000   0.0000   0.0000   0.0000   0.0000
     0.0000   0.0000   0.0000   0.0000   0.0000   0.0000   0.0000   0.0000
     0.0000   0.0000

          k = 0.0000 0.1744-0.4121 (  4728 PWs)   bands (ev):

   -10.5227 -10.5227  -9.8694  -9.8694   2.5384   2.5384   2.7318   2.7319
     2.8422   2.8422   3.3823   3.3823   3.4473   3.4473   4.4950   4.4950
     5.3671   5.3671   5.7724   5.7724   6.2314   6.2314   6.2337   6.2337
     6.3798   6.3798   6.6234   6.6234   7.0481   7.0481   7.0768   7.0768
     8.1414   8.1414   8.5356   8.5357  12.4000  12.4000  12.8373  12.8374
    18.8848  18.8848  20.1035  20.1036  20.2314  20.2315  21.5846  21.5847
    23.5816  23.5856

     occupation numbers 
     1.0000   1.0000   1.0000   1.0000   1.0000   1.0000   1.0000   1.0000
     1.0000   1.0000   1.0000   1.0000   1.0000   1.0000   1.0000   1.0000
     1.0000   1.0000   1.0000   1.0000   1.0000   1.0000   1.0000   1.0000
     1.0000   1.0000   1.0000   1.0000   1.0000   1.0000   1.0000   1.0000
     1.0000   1.0000   0.0000   0.0000   0.0000   0.0000   0.0000   0.0000
     0.0000   0.0000   0.0000   0.0000   0.0000   0.0000   0.0000   0.0000
     0.0000   0.0000

          k = 0.0000 0.3488 0.0000 (  4699 PWs)   bands (ev):

   -10.8817 -10.3247  -9.7836  -9.6392   1.0280   2.1423   2.4287   2.5063
     3.0683   3.1249   3.2549   3.5556   3.6285   3.9018   4.8112   5.5858
     5.6088   5.8183   5.8663   5.9468   5.9953   6.0368   6.0956   6.0988
     6.2807   6.4007   6.4241   6.5623   6.5740   6.6233   6.8958   7.0803
     7.5316   8.5758   9.1779   9.4411  11.5517  12.5196  14.2174  14.7645
    16.4501  17.9479  18.7783  19.3989  19.6513  20.1626  20.7447  20.9098
    22.6840  23.3231

     occupation numbers 
     1.0000   1.0000   1.0000   1.0000   1.0000   1.0000   1.0000   1.0000
     1.0000   1.0000   1.0000   1.0000   1.0000   1.0000   1.0000   1.0000
     1.0000   1.0000   1.0000   1.0000   1.0000   1.0000   1.0000   1.0000
     1.0000   1.0000   1.0000   1.0000   1.0000   1.0000   1.0000   1.0000
     1.0000   1.0000   0.0000   0.0000   0.0000   0.0000   0.0000   0.0000
     0.0000   0.0000   0.0000   0.0000   0.0000   0.0000   0.0000   0.0000
     0.0000   0.0000

          k = 0.0000 0.3488 0.1374 (  4701 PWs)   bands (ev):

   -10.8184 -10.2831  -9.8703  -9.6901   1.2385   2.2353   2.4506   2.5693
     2.9721   3.1354   3.2499   3.6041   3.6630   3.9432   4.5745   5.0683
     5.6890   5.8214   5.8415   5.9642   6.0067   6.0921   6.1374   6.1742
     6.3947   6.3984   6.4655   6.5269   6.5911   6.6470   6.9172   6.9970
     7.6358   8.4705   8.9639   9.1962  11.8397  12.6317  14.0709  14.3340
    17.2064  18.1816  18.9839  19.5342  19.8176  20.1915  20.7235  21.0822
    22.2345  23.3744

     occupation numbers 
     1.0000   1.0000   1.0000   1.0000   1.0000   1.0000   1.0000   1.0000
     1.0000   1.0000   1.0000   1.0000   1.0000   1.0000   1.0000   1.0000
     1.0000   1.0000   1.0000   1.0000   1.0000   1.0000   1.0000   1.0000
     1.0000   1.0000   1.0000   1.0000   1.0000   1.0000   1.0000   1.0000
     1.0000   1.0000   0.0000   0.0000   0.0000   0.0000   0.0000   0.0000
     0.0000   0.0000   0.0000   0.0000   0.0000   0.0000   0.0000   0.0000
     0.0000   0.0000

          k = 0.0000 0.3488 0.2747 (  4698 PWs)   bands (ev):

   -10.6395 -10.1665 -10.0952  -9.8250   1.7902   2.4041   2.4917   2.7725
     2.7936   3.1579   3.2963   3.5575   3.8389   4.0067   4.0877   4.3125
     5.6431   5.6957   5.8305   5.9656   6.0655   6.1050   6.1666   6.1861
     6.4378   6.4670   6.5411   6.5826   6.7313   6.7454   6.8891   6.9962
     7.8374   8.2643   8.5559   8.6571  12.4354  12.9167  13.6909  13.7182
    18.6909  18.7323  19.3762  19.5613  20.2840  20.5613  20.6132  21.5990
    21.6548  22.5665

     occupation numbers 
     1.0000   1.0000   1.0000   1.0000   1.0000   1.0000   1.0000   1.0000
     1.0000   1.0000   1.0000   1.0000   1.0000   1.0000   1.0000   1.0000
     1.0000   1.0000   1.0000   1.0000   1.0000   1.0000   1.0000   1.0000
     1.0000   1.0000   1.0000   1.0000   1.0000   1.0000   1.0000   1.0000
     1.0000   1.0000   0.0000   0.0000   0.0000   0.0000   0.0000   0.0000
     0.0000   0.0000   0.0000   0.0000   0.0000   0.0000   0.0000   0.0000
     0.0000   0.0000

          k = 0.0000 0.3488-0.4121 (  4704 PWs)   bands (ev):

   -10.3787 -10.3786 -10.0003 -10.0003   2.4100   2.4100   2.4913   2.4913
     3.0875   3.0875   3.5753   3.5753   3.6577   3.6578   4.0095   4.0095
     5.6307   5.6307   5.8773   5.8773   6.1332   6.1333   6.1380   6.1381
     6.4387   6.4388   6.6238   6.6238   6.8120   6.8120   6.9751   6.9752
     8.1536   8.1536   8.2504   8.2504  13.0685  13.0685  13.3009  13.3010
    19.1377  19.1378  20.2362  20.2363  20.2794  20.2794  20.7959  20.7959
    22.3488  22.3490

     occupation numbers 
     1.0000   1.0000   1.0000   1.0000   1.0000   1.0000   1.0000   1.0000
     1.0000   1.0000   1.0000   1.0000   1.0000   1.0000   1.0000   1.0000
     1.0000   1.0000   1.0000   1.0000   1.0000   1.0000   1.0000   1.0000
     1.0000   1.0000   1.0000   1.0000   1.0000   1.0000   1.0000   1.0000
     1.0000   1.0000   0.0000   0.0000   0.0000   0.0000   0.0000   0.0000
     0.0000   0.0000   0.0000   0.0000   0.0000   0.0000   0.0000   0.0000
     0.0000   0.0000

          k = 0.0000-0.5232 0.0000 (  4698 PWs)   bands (ev):

   -10.6035 -10.6033  -9.7076  -9.7075   1.5606   1.5607   2.8826   2.8826
     3.0426   3.0426   3.1452   3.1452   3.3582   3.3582   5.2393   5.2393
     5.8091   5.8091   5.9826   5.9826   6.0034   6.0034   6.0638   6.0638
     6.3212   6.3212   6.5451   6.5451   6.5952   6.5952   6.9549   6.9549
     8.0570   8.0571   9.2410   9.2410  12.5697  12.5697  14.1882  14.1882
    17.8043  17.8044  19.0333  19.0334  19.5950  19.5950  19.7629  19.7630
    23.4998  23.4998

     occupation numbers 
     1.0000   1.0000   1.0000   1.0000   1.0000   1.0000   1.0000   1.0000
     1.0000   1.0000   1.0000   1.0000   1.0000   1.0000   1.0000   1.0000
     1.0000   1.0000   1.0000   1.0000   1.0000   1.0000   1.0000   1.0000
     1.0000   1.0000   1.0000   1.0000   1.0000   1.0000   1.0000   1.0000
     1.0000   1.0000   0.0000   0.0000   0.0000   0.0000   0.0000   0.0000
     0.0000   0.0000   0.0000   0.0000   0.0000   0.0000   0.0000   0.0000
     0.0000   0.0000

          k = 0.0000-0.5232 0.1374 (  4702 PWs)   bands (ev):

   -10.5505 -10.5503  -9.7762  -9.7761   1.7082   1.7083   2.7486   2.7487
     3.1211   3.1212   3.2301   3.2301   3.4106   3.4106   4.9418   4.9418
     5.8672   5.8672   5.9495   5.9495   5.9801   5.9801   6.1194   6.1194
     6.4284   6.4284   6.5330   6.5330   6.5827   6.5827   6.9295   6.9296
     8.0218   8.0219   9.0052   9.0052  12.7404  12.7404  14.0674  14.0674
    18.2335  18.2335  19.2978  19.2978  19.6807  19.6807  19.7801  19.7801
    23.2177  23.2178

     occupation numbers 
     1.0000   1.0000   1.0000   1.0000   1.0000   1.0000   1.0000   1.0000
     1.0000   1.0000   1.0000   1.0000   1.0000   1.0000   1.0000   1.0000
     1.0000   1.0000   1.0000   1.0000   1.0000   1.0000   1.0000   1.0000
     1.0000   1.0000   1.0000   1.0000   1.0000   1.0000   1.0000   1.0000
     1.0000   1.0000   0.0000   0.0000   0.0000   0.0000   0.0000   0.0000
     0.0000   0.0000   0.0000   0.0000   0.0000   0.0000   0.0000   0.0000
     0.0000   0.0000

          k = 0.0000-0.5232 0.2747 (  4702 PWs)   bands (ev):

   -10.4014 -10.4012  -9.9561  -9.9559   2.0587   2.0587   2.5785   2.5785
     3.2384   3.2385   3.4238   3.4238   3.4974   3.4975   4.3397   4.3397
     5.9122   5.9122   5.9274   5.9274   5.9691   5.9691   6.1262   6.1262
     6.5033   6.5033   6.5319   6.5320   6.6629   6.6630   6.8841   6.8841
     7.9945   7.9945   8.5278   8.5279  13.0958  13.0958  13.7943  13.7943
    19.2038  19.2038  19.6985  19.6986  19.9337  19.9337  20.2306  20.2306
    22.1135  22.1137

     occupation numbers 
     1.0000   1.0000   1.0000   1.0000   1.0000   1.0000   1.0000   1.0000
     1.0000   1.0000   1.0000   1.0000   1.0000   1.0000   1.0000   1.0000
     1.0000   1.0000   1.0000   1.0000   1.0000   1.0000   1.0000   1.0000
     1.0000   1.0000   1.0000   1.0000   1.0000   1.0000   1.0000   1.0000
     1.0000   1.0000   0.0000   0.0000   0.0000   0.0000   0.0000   0.0000
     0.0000   0.0000   0.0000   0.0000   0.0000   0.0000   0.0000   0.0000
     0.0000   0.0000

          k = 0.0000-0.5232-0.4121 (  4708 PWs)   bands (ev):

   -10.1863 -10.1863 -10.1862 -10.1862   2.3783   2.3783   2.3783   2.3783
     3.4588   3.4588   3.4589   3.4589   3.7372   3.7372   3.7372   3.7372
     5.9155   5.9155   5.9155   5.9155   6.0439   6.0439   6.0440   6.0440
     6.5084   6.5084   6.5084   6.5084   6.8140   6.8140   6.8140   6.8140
     8.1404   8.1404   8.1404   8.1404  13.4623  13.4624  13.4624  13.4624
    19.6507  19.6507  19.6508  19.6508  20.8822  20.8823  20.8823  20.8824
    21.6564  21.6564

     occupation numbers 
     1.0000   1.0000   1.0000   1.0000   1.0000   1.0000   1.0000   1.0000
     1.0000   1.0000   1.0000   1.0000   1.0000   1.0000   1.0000   1.0000
     1.0000   1.0000   1.0000   1.0000   1.0000   1.0000   1.0000   1.0000
     1.0000   1.0000   1.0000   1.0000   1.0000   1.0000   1.0000   1.0000
     1.0000   1.0000   0.0000   0.0000   0.0000   0.0000   0.0000   0.0000
     0.0000   0.0000   0.0000   0.0000   0.0000   0.0000   0.0000   0.0000
     0.0000   0.0000

          k = 0.1667 0.0000 0.0073 (  4710 PWs)   bands (ev):

   -11.0874 -10.1256  -9.8454  -9.5963   0.6567   2.0209   2.2446   2.6765
     3.1650   3.2258   3.3294   3.9308   4.4196   4.5357   4.6777   5.3340
     5.5639   5.6242   5.6859   5.9037   5.9382   6.0280   6.1605   6.1877
     6.2499   6.2772   6.3868   6.4032   6.4502   6.7365   7.0701   7.1175
     7.3468   9.1119   9.1636   9.6333  10.4227  11.3422  14.9698  15.1327
    15.5405  18.5099  18.8243  19.3854  19.8921  20.8981  21.4393  22.1237
    22.3482  22.6205

     occupation numbers 
     1.0000   1.0000   1.0000   1.0000   1.0000   1.0000   1.0000   1.0000
     1.0000   1.0000   1.0000   1.0000   1.0000   1.0000   1.0000   1.0000
     1.0000   1.0000   1.0000   1.0000   1.0000   1.0000   1.0000   1.0000
     1.0000   1.0000   1.0000   1.0000   1.0000   1.0000   1.0000   1.0000
     1.0000   1.0000   0.0000   0.0000   0.0000   0.0000   0.0000   0.0000
     0.0000   0.0000   0.0000   0.0000   0.0000   0.0000   0.0000   0.0000
     0.0000   0.0000

          k = 0.1667 0.0000 0.1447 (  4733 PWs)   bands (ev):

   -11.0137 -10.0963  -9.9502  -9.6312   0.9149   2.1048   2.3573   2.7468
     3.1870   3.2117   3.3328   3.7393   4.2069   4.3900   4.6088   5.0333
     5.3912   5.5767   5.5877   6.0904   6.1542   6.1626   6.1703   6.2028
     6.2822   6.3363   6.3590   6.4451   6.4590   6.7454   7.0684   7.2268
     7.3185   8.9826   9.0127   9.4034  10.8133  11.5712  14.1608  14.6220
    16.7570  18.3818  18.6800  19.4511  20.7930  20.8490  21.4365  22.2420
    22.5801  22.6962

     occupation numbers 
     1.0000   1.0000   1.0000   1.0000   1.0000   1.0000   1.0000   1.0000
     1.0000   1.0000   1.0000   1.0000   1.0000   1.0000   1.0000   1.0000
     1.0000   1.0000   1.0000   1.0000   1.0000   1.0000   1.0000   1.0000
     1.0000   1.0000   1.0000   1.0000   1.0000   1.0000   1.0000   1.0000
     1.0000   1.0000   0.0000   0.0000   0.0000   0.0000   0.0000   0.0000
     0.0000   0.0000   0.0000   0.0000   0.0000   0.0000   0.0000   0.0000
     0.0000   0.0000

          k = 0.1667 0.0000 0.2820 (  4721 PWs)   bands (ev):

   -10.8115 -10.2111 -10.0076  -9.7313   1.6158   2.3284   2.6139   2.8609
     3.0849   3.2372   3.2819   3.4238   3.6814   4.0710   4.4427   4.5485
     5.3578   5.4673   5.6474   5.9362   6.1948   6.1989   6.2358   6.2944
     6.3467   6.4270   6.4482   6.5142   6.8243   6.9175   7.0615   7.1681
     7.6006   8.6766   8.7483   8.8150  11.5770  12.1086  13.2045  13.7199
    18.4411  18.5410  18.9176  19.7612  20.5885  21.5469  21.7038  22.0988
    22.5261  22.9190

     occupation numbers 
     1.0000   1.0000   1.0000   1.0000   1.0000   1.0000   1.0000   1.0000
     1.0000   1.0000   1.0000   1.0000   1.0000   1.0000   1.0000   1.0000
     1.0000   1.0000   1.0000   1.0000   1.0000   1.0000   1.0000   1.0000
     1.0000   1.0000   1.0000   1.0000   1.0000   1.0000   1.0000   1.0000
     1.0000   1.0000   0.0000   0.0000   0.0000   0.0000   0.0000   0.0000
     0.0000   0.0000   0.0000   0.0000   0.0000   0.0000   0.0000   0.0000
     0.0000   0.0000

          k = 0.1667 0.0000-0.4048 (  4725 PWs)   bands (ev):

   -10.5330 -10.5174  -9.8794  -9.8654   2.5220   2.5510   2.5968   2.6651
     2.9614   2.9957   3.3711   3.4102   3.4352   3.4467   4.5242   4.5355
     5.3480   5.3644   5.7350   5.8013   6.2162   6.2243   6.2275   6.2493
     6.3495   6.3974   6.6158   6.6213   7.0408   7.0498   7.0718   7.0757
     8.0874   8.1734   8.4979   8.5815  12.3475  12.4086  12.7590  12.8683
    18.7322  19.0563  20.1250  20.1662  20.3101  20.3259  21.7378  22.2916
    22.9287  23.3534

     occupation numbers 
     1.0000   1.0000   1.0000   1.0000   1.0000   1.0000   1.0000   1.0000
     1.0000   1.0000   1.0000   1.0000   1.0000   1.0000   1.0000   1.0000
     1.0000   1.0000   1.0000   1.0000   1.0000   1.0000   1.0000   1.0000
     1.0000   1.0000   1.0000   1.0000   1.0000   1.0000   1.0000   1.0000
     1.0000   1.0000   0.0000   0.0000   0.0000   0.0000   0.0000   0.0000
     0.0000   0.0000   0.0000   0.0000   0.0000   0.0000   0.0000   0.0000
     0.0000   0.0000

          k = 0.1667 0.0000-0.2675 (  4713 PWs)   bands (ev):

   -10.8241 -10.1966  -9.9956  -9.7437   1.5985   2.3426   2.5845   2.7243
     3.0796   3.1661   3.2365   3.5848   3.8589   4.0333   4.5438   4.6297
     5.2828   5.3987   5.5887   6.0010   6.1790   6.2177   6.2558   6.2644
     6.3290   6.4467   6.4600   6.5145   6.8090   6.8791   7.0881   7.1418
     7.6910   8.6738   8.7316   8.7439  11.5188  11.9767  13.2541  13.7427
    18.4210  18.6976  19.1139  19.9931  20.3886  21.8513  21.8532  22.2658
    22.2846  23.0521

     occupation numbers 
     1.0000   1.0000   1.0000   1.0000   1.0000   1.0000   1.0000   1.0000
     1.0000   1.0000   1.0000   1.0000   1.0000   1.0000   1.0000   1.0000
     1.0000   1.0000   1.0000   1.0000   1.0000   1.0000   1.0000   1.0000
     1.0000   1.0000   1.0000   1.0000   1.0000   1.0000   1.0000   1.0000
     1.0000   1.0000   0.0000   0.0000   0.0000   0.0000   0.0000   0.0000
     0.0000   0.0000   0.0000   0.0000   0.0000   0.0000   0.0000   0.0000
     0.0000   0.0000

          k = 0.1667 0.0000-0.1301 (  4721 PWs)   bands (ev):

   -11.0207 -10.0894  -9.9412  -9.6384   0.9061   2.1038   2.3203   2.6941
     3.1763   3.1861   3.2793   3.8451   4.3351   4.4881   4.6951   4.9771
     5.3833   5.4946   5.5388   6.1037   6.1040   6.1535   6.1871   6.2244
     6.2566   6.3477   6.3515   6.4596   6.4994   6.6982   7.0926   7.1460
     7.4305   8.9680   9.0320   9.3483  10.7673  11.4827  14.1809  14.5517
    16.7801  18.5451  19.2850  19.6344  20.0273  21.0190  21.5715  22.0241
    22.5551  22.6996

     occupation numbers 
     1.0000   1.0000   1.0000   1.0000   1.0000   1.0000   1.0000   1.0000
     1.0000   1.0000   1.0000   1.0000   1.0000   1.0000   1.0000   1.0000
     1.0000   1.0000   1.0000   1.0000   1.0000   1.0000   1.0000   1.0000
     1.0000   1.0000   1.0000   1.0000   1.0000   1.0000   1.0000   1.0000
     1.0000   1.0000   0.0000   0.0000   0.0000   0.0000   0.0000   0.0000
     0.0000   0.0000   0.0000   0.0000   0.0000   0.0000   0.0000   0.0000
     0.0000   0.0000

          k = 0.1667 0.1744 0.0073 (  4707 PWs)   bands (ev):

   -11.0207 -10.1863  -9.8249  -9.6088   0.7750   1.8935   2.4815   2.5932
     3.0850   3.2772   3.2859   3.7087   3.8169   4.5091   4.9782   5.1979
     5.6412   5.7249   5.7477   5.8560   5.9436   6.0450   6.1814   6.1850
     6.2154   6.3257   6.4626   6.5380   6.5396   6.7411   6.7708   7.2818
     7.3773   8.9097   9.2237   9.5657  10.8075  11.8426  14.4478  15.1426
    15.5801  18.0384  18.8133  19.5528  20.1347  20.3519  21.4161  22.0070
    23.1250  23.6727

     occupation numbers 
     1.0000   1.0000   1.0000   1.0000   1.0000   1.0000   1.0000   1.0000
     1.0000   1.0000   1.0000   1.0000   1.0000   1.0000   1.0000   1.0000
     1.0000   1.0000   1.0000   1.0000   1.0000   1.0000   1.0000   1.0000
     1.0000   1.0000   1.0000   1.0000   1.0000   1.0000   1.0000   1.0000
     1.0000   1.0000   0.0000   0.0000   0.0000   0.0000   0.0000   0.0000
     0.0000   0.0000   0.0000   0.0000   0.0000   0.0000   0.0000   0.0000
     0.0000   0.0000

          k = 0.1667 0.1744 0.1447 (  4711 PWs)   bands (ev):

   -10.9499 -10.1545  -9.9242  -9.6470   1.0146   1.9810   2.5770   2.6237
     3.0766   3.2772   3.2999   3.6522   3.7082   4.3228   4.9650   4.9905
     5.2890   5.6864   5.7278   6.0707   6.1357   6.1407   6.1838   6.1856
     6.2733   6.2835   6.3997   6.4695   6.6386   6.7313   6.8050   7.2880
     7.4695   8.6803   9.1455   9.3534  11.1757  12.0202  14.2403  14.2578
    16.7163  18.1410  18.6631  19.4978  20.1489  20.7395  21.6362  21.9754
    23.0717  23.2311

     occupation numbers 
     1.0000   1.0000   1.0000   1.0000   1.0000   1.0000   1.0000   1.0000
     1.0000   1.0000   1.0000   1.0000   1.0000   1.0000   1.0000   1.0000
     1.0000   1.0000   1.0000   1.0000   1.0000   1.0000   1.0000   1.0000
     1.0000   1.0000   1.0000   1.0000   1.0000   1.0000   1.0000   1.0000
     1.0000   1.0000   0.0000   0.0000   0.0000   0.0000   0.0000   0.0000
     0.0000   0.0000   0.0000   0.0000   0.0000   0.0000   0.0000   0.0000
     0.0000   0.0000

          k = 0.1667 0.1744 0.2820 (  4724 PWs)   bands (ev):

   -10.7558 -10.1727 -10.0609  -9.7537   1.6547   2.2335   2.6515   2.7788
     3.0108   3.2052   3.2535   3.4186   3.7777   4.0157   4.1286   4.9153
     5.3024   5.6318   5.6995   5.9428   6.1602   6.2213   6.2220   6.2866
     6.3499   6.3949   6.4363   6.4526   6.8304   6.8502   6.8725   7.2022
     7.7688   8.2624   8.8211   8.9675  11.8941  12.4193  13.3862  13.6786
    18.3346  18.3917  18.8501  19.6227  20.2993  20.7619  21.3945  22.3686
    22.4411  23.7192

     occupation numbers 
     1.0000   1.0000   1.0000   1.0000   1.0000   1.0000   1.0000   1.0000
     1.0000   1.0000   1.0000   1.0000   1.0000   1.0000   1.0000   1.0000
     1.0000   1.0000   1.0000   1.0000   1.0000   1.0000   1.0000   1.0000
     1.0000   1.0000   1.0000   1.0000   1.0000   1.0000   1.0000   1.0000
     1.0000   1.0000   0.0000   0.0000   0.0000   0.0000   0.0000   0.0000
     0.0000   0.0000   0.0000   0.0000   0.0000   0.0000   0.0000   0.0000
     0.0000   0.0000

          k = 0.1667 0.1744-0.4048 (  4725 PWs)   bands (ev):

   -10.5123 -10.4421  -9.9526  -9.8689   2.2454   2.4907   2.6886   2.8396
     2.8989   2.9012   3.2423   3.4251   3.4848   3.8521   3.9158   4.8865
     5.3342   5.5776   5.7651   5.8202   6.1854   6.2074   6.2211   6.2569
     6.3721   6.4549   6.4607   6.5347   6.8704   6.9309   7.0750   7.1360
     8.0056   8.1846   8.2647   8.8669  12.6007  12.6685  12.7433  13.2426
    18.5565  19.0370  19.8098  19.8712  20.2034  20.6154  20.7427  21.5455
    23.3913  23.6821

     occupation numbers 
     1.0000   1.0000   1.0000   1.0000   1.0000   1.0000   1.0000   1.0000
     1.0000   1.0000   1.0000   1.0000   1.0000   1.0000   1.0000   1.0000
     1.0000   1.0000   1.0000   1.0000   1.0000   1.0000   1.0000   1.0000
     1.0000   1.0000   1.0000   1.0000   1.0000   1.0000   1.0000   1.0000
     1.0000   1.0000   0.0000   0.0000   0.0000   0.0000   0.0000   0.0000
     0.0000   0.0000   0.0000   0.0000   0.0000   0.0000   0.0000   0.0000
     0.0000   0.0000

          k = 0.1667 0.1744-0.2675 (  4717 PWs)   bands (ev):

   -10.7667 -10.1604 -10.0507  -9.7644   1.6485   2.2461   2.6545   2.7135
     3.0278   3.2306   3.2509   3.3197   3.8244   4.0719   4.1893   4.8994
     5.3248   5.6045   5.6518   5.9904   6.1585   6.2235   6.2421   6.2756
     6.3239   6.3755   6.4326   6.5182   6.8064   6.8312   6.8708   7.1917
     7.8346   8.2877   8.7440   8.9634  11.8299  12.2971  13.4444  13.7265
    18.3654  18.4676  19.0640  19.9064  20.4416  20.5095  21.1195  22.3381
    22.5748  23.7996

     occupation numbers 
     1.0000   1.0000   1.0000   1.0000   1.0000   1.0000   1.0000   1.0000
     1.0000   1.0000   1.0000   1.0000   1.0000   1.0000   1.0000   1.0000
     1.0000   1.0000   1.0000   1.0000   1.0000   1.0000   1.0000   1.0000
     1.0000   1.0000   1.0000   1.0000   1.0000   1.0000   1.0000   1.0000
     1.0000   1.0000   0.0000   0.0000   0.0000   0.0000   0.0000   0.0000
     0.0000   0.0000   0.0000   0.0000   0.0000   0.0000   0.0000   0.0000
     0.0000   0.0000

          k = 0.1667 0.1744-0.1301 (  4711 PWs)   bands (ev):

   -10.9560 -10.1485  -9.9167  -9.6534   1.0125   1.9886   2.5380   2.6132
     3.0582   3.2714   3.2806   3.6389   3.7774   4.4523   4.9011   4.9820
     5.3101   5.6484   5.6938   6.0914   6.1161   6.1408   6.1959   6.2498
     6.2663   6.2853   6.3943   6.4714   6.6062   6.7213   6.8200   7.2514
     7.5278   8.7154   9.1386   9.3040  11.1256  11.9385  14.2286  14.2884
    16.7538  18.2013  19.0291  19.8253  20.1951  20.2724  21.5924  21.6660
    23.2878  23.8362

     occupation numbers 
     1.0000   1.0000   1.0000   1.0000   1.0000   1.0000   1.0000   1.0000
     1.0000   1.0000   1.0000   1.0000   1.0000   1.0000   1.0000   1.0000
     1.0000   1.0000   1.0000   1.0000   1.0000   1.0000   1.0000   1.0000
     1.0000   1.0000   1.0000   1.0000   1.0000   1.0000   1.0000   1.0000
     1.0000   1.0000   0.0000   0.0000   0.0000   0.0000   0.0000   0.0000
     0.0000   0.0000   0.0000   0.0000   0.0000   0.0000   0.0000   0.0000
     0.0000   0.0000

          k = 0.1667 0.3488 0.0073 (  4691 PWs)   bands (ev):

   -10.8393 -10.3558  -9.7716  -9.6464   1.1041   1.9182   2.1001   2.8880
     3.0234   3.1209   3.1796   3.3273   3.5301   4.4429   4.6826   5.2973
     5.4819   5.8347   5.9310   5.9651   6.0106   6.0703   6.0939   6.1460
     6.2202   6.4383   6.4686   6.6094   6.6462   6.6920   6.8734   7.2010
     7.7181   8.6326   9.1735   9.3955  11.7607  12.6789  13.8871  14.3384
    16.7331  17.2380  18.7845  18.9163  19.6398  20.6282  21.0062  22.3169
    22.8575  23.1201

     occupation numbers 
     1.0000   1.0000   1.0000   1.0000   1.0000   1.0000   1.0000   1.0000
     1.0000   1.0000   1.0000   1.0000   1.0000   1.0000   1.0000   1.0000
     1.0000   1.0000   1.0000   1.0000   1.0000   1.0000   1.0000   1.0000
     1.0000   1.0000   1.0000   1.0000   1.0000   1.0000   1.0000   1.0000
     1.0000   1.0000   0.0000   0.0000   0.0000   0.0000   0.0000   0.0000
     0.0000   0.0000   0.0000   0.0000   0.0000   0.0000   0.0000   0.0000
     0.0000   0.0000

          k = 0.1667 0.3488 0.1447 (  4697 PWs)   bands (ev):

   -10.7767 -10.3164  -9.8563  -9.6950   1.2921   1.9782   2.1843   2.8270
     2.9347   3.0875   3.2961   3.3606   3.5513   4.5526   4.5592   4.9731
     5.4941   5.8457   5.8682   5.9707   6.0548   6.1005   6.1223   6.1848
     6.3039   6.3646   6.5071   6.5431   6.6437   6.6602   6.9050   7.1276
     7.8162   8.4051   9.0634   9.1938  12.0607  12.7988  13.8323  14.0978
    17.2043  17.4129  18.7446  18.8180  19.9660  20.7859  21.0139  22.4678
    22.7574  23.2975

     occupation numbers 
     1.0000   1.0000   1.0000   1.0000   1.0000   1.0000   1.0000   1.0000
     1.0000   1.0000   1.0000   1.0000   1.0000   1.0000   1.0000   1.0000
     1.0000   1.0000   1.0000   1.0000   1.0000   1.0000   1.0000   1.0000
     1.0000   1.0000   1.0000   1.0000   1.0000   1.0000   1.0000   1.0000
     1.0000   1.0000   0.0000   0.0000   0.0000   0.0000   0.0000   0.0000
     0.0000   0.0000   0.0000   0.0000   0.0000   0.0000   0.0000   0.0000
     0.0000   0.0000

          k = 0.1667 0.3488 0.2820 (  4703 PWs)   bands (ev):

   -10.6050 -10.2049 -10.0710  -9.8255   1.7776   2.1890   2.3588   2.7716
     2.7723   3.1534   3.2554   3.3020   3.7716   4.2435   4.2893   4.7438
     5.4520   5.7968   5.8620   5.9349   6.0647   6.1023   6.1772   6.2011
     6.3354   6.4022   6.4817   6.5650   6.6873   6.6949   6.9507   7.0384
     7.9823   7.9992   8.7602   8.8966  12.6285  12.9664  13.6562  13.7436
    17.8856  18.3212  18.8232  19.0007  20.1426  20.7917  21.0249  22.4839
    22.4998  23.0435

     occupation numbers 
     1.0000   1.0000   1.0000   1.0000   1.0000   1.0000   1.0000   1.0000
     1.0000   1.0000   1.0000   1.0000   1.0000   1.0000   1.0000   1.0000
     1.0000   1.0000   1.0000   1.0000   1.0000   1.0000   1.0000   1.0000
     1.0000   1.0000   1.0000   1.0000   1.0000   1.0000   1.0000   1.0000
     1.0000   1.0000   0.0000   0.0000   0.0000   0.0000   0.0000   0.0000
     0.0000   0.0000   0.0000   0.0000   0.0000   0.0000   0.0000   0.0000
     0.0000   0.0000

          k = 0.1667 0.3488-0.4048 (  4716 PWs)   bands (ev):

   -10.4109 -10.2861 -10.0894  -9.9507   2.1248   2.3651   2.4939   2.6842
     2.8010   3.0906   3.1781   3.4814   3.5730   3.8644   4.1725   4.7877
     5.4504   5.7908   5.8527   5.9055   6.1098   6.1120   6.1347   6.1795
     6.3345   6.3731   6.5073   6.6032   6.7097   6.8098   6.9725   6.9952
     7.7658   8.2163   8.4163   8.8212  13.0034  13.0541  13.2969  13.7261
    18.3432  18.7247  19.1303  19.2009  20.2672  20.7508  21.0709  21.5371
    22.8157  22.9939

     occupation numbers 
     1.0000   1.0000   1.0000   1.0000   1.0000   1.0000   1.0000   1.0000
     1.0000   1.0000   1.0000   1.0000   1.0000   1.0000   1.0000   1.0000
     1.0000   1.0000   1.0000   1.0000   1.0000   1.0000   1.0000   1.0000
     1.0000   1.0000   1.0000   1.0000   1.0000   1.0000   1.0000   1.0000
     1.0000   1.0000   0.0000   0.0000   0.0000   0.0000   0.0000   0.0000
     0.0000   0.0000   0.0000   0.0000   0.0000   0.0000   0.0000   0.0000
     0.0000   0.0000

          k = 0.1667 0.3488-0.2675 (  4720 PWs)   bands (ev):

   -10.6112 -10.1991 -10.0644  -9.8320   1.7980   2.2101   2.4203   2.7924
     2.8366   3.1416   3.1605   3.2689   3.6695   4.1529   4.3904   4.6730
     5.5007   5.7888   5.8652   5.9337   6.0669   6.1055   6.1890   6.1939
     6.3495   6.4228   6.5009   6.5809   6.6617   6.6743   6.9107   7.0338
     8.0775   8.0916   8.6905   8.8795  12.5520  12.8598  13.7356  13.8237
    18.0667  18.4563  18.8753  19.1949  20.2931  20.4166  20.5077  22.3298
    22.4449  23.0765

     occupation numbers 
     1.0000   1.0000   1.0000   1.0000   1.0000   1.0000   1.0000   1.0000
     1.0000   1.0000   1.0000   1.0000   1.0000   1.0000   1.0000   1.0000
     1.0000   1.0000   1.0000   1.0000   1.0000   1.0000   1.0000   1.0000
     1.0000   1.0000   1.0000   1.0000   1.0000   1.0000   1.0000   1.0000
     1.0000   1.0000   0.0000   0.0000   0.0000   0.0000   0.0000   0.0000
     0.0000   0.0000   0.0000   0.0000   0.0000   0.0000   0.0000   0.0000
     0.0000   0.0000

          k = 0.1667 0.3488-0.1301 (  4699 PWs)   bands (ev):

   -10.7803 -10.3129  -9.8522  -9.6992   1.3086   2.0190   2.1913   2.8621
     2.9532   3.0828   3.2790   3.2962   3.5113   4.4823   4.5994   4.9024
     5.5156   5.8242   5.8727   5.9697   6.0640   6.0841   6.1393   6.1916
     6.3421   6.3915   6.5156   6.5424   6.6157   6.6589   6.8929   7.1219
     7.8625   8.4991   9.0414   9.1658  12.0051  12.7084  13.8921  14.1487
    17.2926  17.5113  18.9316  19.1398  19.6702  20.5289  20.6331  22.3149
    22.5656  23.3124

     occupation numbers 
     1.0000   1.0000   1.0000   1.0000   1.0000   1.0000   1.0000   1.0000
     1.0000   1.0000   1.0000   1.0000   1.0000   1.0000   1.0000   1.0000
     1.0000   1.0000   1.0000   1.0000   1.0000   1.0000   1.0000   1.0000
     1.0000   1.0000   1.0000   1.0000   1.0000   1.0000   1.0000   1.0000
     1.0000   1.0000   0.0000   0.0000   0.0000   0.0000   0.0000   0.0000
     0.0000   0.0000   0.0000   0.0000   0.0000   0.0000   0.0000   0.0000
     0.0000   0.0000

          k = 0.1667-0.5232 0.0073 (  4700 PWs)   bands (ev):

   -10.5947 -10.5946  -9.7051  -9.7050   1.5712   1.5713   2.2696   2.2697
     3.0603   3.0603   3.3694   3.3695   3.7825   3.7826   4.9665   4.9665
     5.7047   5.7048   5.9678   5.9679   6.0644   6.0644   6.1023   6.1023
     6.3168   6.3168   6.6081   6.6081   6.7521   6.7521   6.9747   6.9747
     8.2283   8.2284   9.2202   9.2202  12.6871  12.6872  13.8087  13.8087
    17.4923  17.4924  18.2551  18.2551  20.0183  20.0184  21.1469  21.1470
    22.9032  22.9032

     occupation numbers 
     1.0000   1.0000   1.0000   1.0000   1.0000   1.0000   1.0000   1.0000
     1.0000   1.0000   1.0000   1.0000   1.0000   1.0000   1.0000   1.0000
     1.0000   1.0000   1.0000   1.0000   1.0000   1.0000   1.0000   1.0000
     1.0000   1.0000   1.0000   1.0000   1.0000   1.0000   1.0000   1.0000
     1.0000   1.0000   0.0000   0.0000   0.0000   0.0000   0.0000   0.0000
     0.0000   0.0000   0.0000   0.0000   0.0000   0.0000   0.0000   0.0000
     0.0000   0.0000

          k = 0.1667-0.5232 0.1447 (  4688 PWs)   bands (ev):

   -10.5437 -10.5436  -9.7708  -9.7707   1.6920   1.6921   2.2984   2.2984
     3.0077   3.0078   3.3145   3.3146   3.9775   3.9775   4.8062   4.8062
     5.7073   5.7073   5.9404   5.9404   6.0502   6.0502   6.1383   6.1383
     6.3901   6.3901   6.5109   6.5109   6.7912   6.7912   6.9154   6.9154
     8.1513   8.1513   9.0364   9.0364  12.8754  12.8755  13.7793  13.7793
    17.6259  17.6260  18.3305  18.3305  20.2734  20.2734  21.3076  21.3077
    23.0604  23.0605

     occupation numbers 
     1.0000   1.0000   1.0000   1.0000   1.0000   1.0000   1.0000   1.0000
     1.0000   1.0000   1.0000   1.0000   1.0000   1.0000   1.0000   1.0000
     1.0000   1.0000   1.0000   1.0000   1.0000   1.0000   1.0000   1.0000
     1.0000   1.0000   1.0000   1.0000   1.0000   1.0000   1.0000   1.0000
     1.0000   1.0000   0.0000   0.0000   0.0000   0.0000   0.0000   0.0000
     0.0000   0.0000   0.0000   0.0000   0.0000   0.0000   0.0000   0.0000
     0.0000   0.0000

          k = 0.1667-0.5232 0.2820 (  4694 PWs)   bands (ev):

   -10.4030 -10.4028  -9.9412  -9.9411   2.0027   2.0028   2.3967   2.3967
     2.8973   2.8973   3.3014   3.3015   4.2264   4.2264   4.3828   4.3828
     5.6939   5.6940   5.9472   5.9472   6.0231   6.0231   6.1440   6.1440
     6.3868   6.3868   6.5515   6.5515   6.7512   6.7512   6.8600   6.8600
     8.0199   8.0199   8.7457   8.7457  13.1487  13.1488  13.7605  13.7605
    18.0289  18.0290  18.6826  18.6826  20.5579  20.5579  21.6138  21.6139
    22.7317  22.7319

     occupation numbers 
     1.0000   1.0000   1.0000   1.0000   1.0000   1.0000   1.0000   1.0000
     1.0000   1.0000   1.0000   1.0000   1.0000   1.0000   1.0000   1.0000
     1.0000   1.0000   1.0000   1.0000   1.0000   1.0000   1.0000   1.0000
     1.0000   1.0000   1.0000   1.0000   1.0000   1.0000   1.0000   1.0000
     1.0000   1.0000   0.0000   0.0000   0.0000   0.0000   0.0000   0.0000
     0.0000   0.0000   0.0000   0.0000   0.0000   0.0000   0.0000   0.0000
     0.0000   0.0000

          k = 0.1667-0.5232-0.4048 (  4718 PWs)   bands (ev):

   -10.2555 -10.2555 -10.1035 -10.1035   2.1933   2.1934   2.5100   2.5100
     2.8443   2.8443   3.3206   3.3207   3.9807   3.9807   4.3891   4.3891
     5.6816   5.6816   6.0040   6.0040   6.0276   6.0277   6.0749   6.0749
     6.3435   6.3435   6.6109   6.6109   6.7809   6.7810   6.7963   6.7964
     7.9826   7.9827   8.6148   8.6148  13.2268  13.2269  13.7892  13.7892
    18.4919  18.4919  18.6803  18.6803  21.0085  21.0085  21.6035  21.6036
    22.4730  22.4730

     occupation numbers 
     1.0000   1.0000   1.0000   1.0000   1.0000   1.0000   1.0000   1.0000
     1.0000   1.0000   1.0000   1.0000   1.0000   1.0000   1.0000   1.0000
     1.0000   1.0000   1.0000   1.0000   1.0000   1.0000   1.0000   1.0000
     1.0000   1.0000   1.0000   1.0000   1.0000   1.0000   1.0000   1.0000
     1.0000   1.0000   0.0000   0.0000   0.0000   0.0000   0.0000   0.0000
     0.0000   0.0000   0.0000   0.0000   0.0000   0.0000   0.0000   0.0000
     0.0000   0.0000

          k = 0.1667-0.5232-0.2675 (  4718 PWs)   bands (ev):

   -10.4030 -10.4029  -9.9417  -9.9415   2.0478   2.0478   2.4517   2.4517
     2.9054   2.9054   3.2274   3.2275   4.0893   4.0894   4.4134   4.4134
     5.6918   5.6919   5.9668   5.9668   6.0154   6.0154   6.1514   6.1515
     6.3999   6.3999   6.5567   6.5568   6.7471   6.7471   6.8362   6.8362
     8.1589   8.1589   8.6849   8.6849  13.0520  13.0521  13.8573  13.8573
    18.2057  18.2058  18.8751  18.8751  20.1168  20.1168  21.2870  21.2871
    22.9629  22.9629

     occupation numbers 
     1.0000   1.0000   1.0000   1.0000   1.0000   1.0000   1.0000   1.0000
     1.0000   1.0000   1.0000   1.0000   1.0000   1.0000   1.0000   1.0000
     1.0000   1.0000   1.0000   1.0000   1.0000   1.0000   1.0000   1.0000
     1.0000   1.0000   1.0000   1.0000   1.0000   1.0000   1.0000   1.0000
     1.0000   1.0000   0.0000   0.0000   0.0000   0.0000   0.0000   0.0000
     0.0000   0.0000   0.0000   0.0000   0.0000   0.0000   0.0000   0.0000
     0.0000   0.0000

          k = 0.1667-0.5232-0.1301 (  4702 PWs)   bands (ev):

   -10.5438 -10.5437  -9.7712  -9.7711   1.7317   1.7318   2.3257   2.3257
     3.0115   3.0115   3.2798   3.2798   3.9143   3.9143   4.7652   4.7652
     5.7000   5.7000   5.9603   5.9603   6.0224   6.0224   6.1553   6.1553
     6.3995   6.3996   6.5222   6.5222   6.7948   6.7948   6.9006   6.9006
     8.2489   8.2489   9.0137   9.0137  12.7936  12.7936  13.8565  13.8565
    17.7218  17.7219  18.6360  18.6360  19.7493  19.7493  21.1475  21.1475
    22.9750  22.9750

     occupation numbers 
     1.0000   1.0000   1.0000   1.0000   1.0000   1.0000   1.0000   1.0000
     1.0000   1.0000   1.0000   1.0000   1.0000   1.0000   1.0000   1.0000
     1.0000   1.0000   1.0000   1.0000   1.0000   1.0000   1.0000   1.0000
     1.0000   1.0000   1.0000   1.0000   1.0000   1.0000   1.0000   1.0000
     1.0000   1.0000   0.0000   0.0000   0.0000   0.0000   0.0000   0.0000
     0.0000   0.0000   0.0000   0.0000   0.0000   0.0000   0.0000   0.0000
     0.0000   0.0000

          k = 0.3333 0.0000 0.0146 (  4709 PWs)   bands (ev):

   -10.8915 -10.3363  -9.7891  -9.6449   1.0144   2.1388   2.3556   2.6504
     3.1683   3.1998   3.2039   3.5692   3.6438   3.9560   4.8978   5.4873
     5.6273   5.8118   5.8440   5.8740   5.9753   6.0380   6.0638   6.0744
     6.2550   6.4170   6.5019   6.5573   6.6044   6.6116   6.8728   7.1192
     7.5388   8.6418   9.1032   9.4217  11.4479  12.3301  14.2845  14.8579
    16.3260  17.8284  18.8197  19.5498  20.2293  20.5841  20.9000  21.2807
    22.0566  23.9712

     occupation numbers 
     1.0000   1.0000   1.0000   1.0000   1.0000   1.0000   1.0000   1.0000
     1.0000   1.0000   1.0000   1.0000   1.0000   1.0000   1.0000   1.0000
     1.0000   1.0000   1.0000   1.0000   1.0000   1.0000   1.0000   1.0000
     1.0000   1.0000   1.0000   1.0000   1.0000   1.0000   1.0000   1.0000
     1.0000   1.0000   0.0000   0.0000   0.0000   0.0000   0.0000   0.0000
     0.0000   0.0000   0.0000   0.0000   0.0000   0.0000   0.0000   0.0000
     0.0000   0.0000

          k = 0.3333 0.0000 0.1519 (  4719 PWs)   bands (ev):

   -10.8219 -10.3003  -9.8835  -9.6897   1.2264   2.2487   2.3755   2.7436
     3.0710   3.2236   3.2469   3.5080   3.7138   3.9577   4.5548   5.1339
     5.5950   5.8084   5.8149   5.9850   5.9962   6.0893   6.1169   6.1273
     6.3940   6.4232   6.4687   6.5587   6.5806   6.6343   6.9089   7.0351
     7.6119   8.5660   8.8560   9.2174  11.7740  12.4989  14.1527  14.3180
    17.1824  18.1071  18.8603  19.6399  20.3053  20.5998  20.9065  21.3934
    21.6026  23.4954

     occupation numbers 
     1.0000   1.0000   1.0000   1.0000   1.0000   1.0000   1.0000   1.0000
     1.0000   1.0000   1.0000   1.0000   1.0000   1.0000   1.0000   1.0000
     1.0000   1.0000   1.0000   1.0000   1.0000   1.0000   1.0000   1.0000
     1.0000   1.0000   1.0000   1.0000   1.0000   1.0000   1.0000   1.0000
     1.0000   1.0000   0.0000   0.0000   0.0000   0.0000   0.0000   0.0000
     0.0000   0.0000   0.0000   0.0000   0.0000   0.0000   0.0000   0.0000
     0.0000   0.0000

          k = 0.3333 0.0000 0.2893 (  4731 PWs)   bands (ev):

   -10.6375 -10.1873 -10.1142  -9.8212   1.7790   2.4002   2.4145   2.8130
     3.0093   3.2968   3.3002   3.4659   3.8803   4.0230   4.0303   4.4110
     5.5942   5.6965   5.8224   5.9261   6.0567   6.0727   6.1583   6.1997
     6.4102   6.4758   6.5585   6.5734   6.7209   6.7270   6.8938   6.9864
     7.7955   8.3713   8.4586   8.6990  12.3966  12.8488  13.6154  13.7235
    18.7368  18.7834  19.2074  19.9332  20.7058  20.7364  20.9675  21.2721
    21.3398  22.9427

     occupation numbers 
     1.0000   1.0000   1.0000   1.0000   1.0000   1.0000   1.0000   1.0000
     1.0000   1.0000   1.0000   1.0000   1.0000   1.0000   1.0000   1.0000
     1.0000   1.0000   1.0000   1.0000   1.0000   1.0000   1.0000   1.0000
     1.0000   1.0000   1.0000   1.0000   1.0000   1.0000   1.0000   1.0000
     1.0000   1.0000   0.0000   0.0000   0.0000   0.0000   0.0000   0.0000
     0.0000   0.0000   0.0000   0.0000   0.0000   0.0000   0.0000   0.0000
     0.0000   0.0000

          k = 0.3333 0.0000-0.3975 (  4729 PWs)   bands (ev):

   -10.3997 -10.3733 -10.0216  -9.9966   2.3968   2.4109   2.4179   2.4648
     3.1937   3.2070   3.5901   3.6138   3.6593   3.7104   4.0660   4.1150
     5.5911   5.6175   5.8225   5.8990   6.1081   6.1110   6.1195   6.1548
     6.3779   6.4678   6.5791   6.6390   6.7826   6.8117   6.9615   6.9733
     8.0786   8.1911   8.2117   8.3275  12.9647  13.0543  13.2035  13.2730
    19.0109  19.5208  20.2536  20.3501  20.4856  20.6699  21.0616  21.3520
    21.6985  22.0760

     occupation numbers 
     1.0000   1.0000   1.0000   1.0000   1.0000   1.0000   1.0000   1.0000
     1.0000   1.0000   1.0000   1.0000   1.0000   1.0000   1.0000   1.0000
     1.0000   1.0000   1.0000   1.0000   1.0000   1.0000   1.0000   1.0000
     1.0000   1.0000   1.0000   1.0000   1.0000   1.0000   1.0000   1.0000
     1.0000   1.0000   0.0000   0.0000   0.0000   0.0000   0.0000   0.0000
     0.0000   0.0000   0.0000   0.0000   0.0000   0.0000   0.0000   0.0000
     0.0000   0.0000

          k = 0.3333 0.0000-0.2602 (  4717 PWs)   bands (ev):

   -10.6592 -10.1661 -10.0898  -9.8434   1.7693   2.3349   2.4394   2.8007
     2.8926   3.1886   3.2941   3.6142   3.9900   4.1045   4.2458   4.2613
     5.6070   5.6428   5.7686   6.0141   6.0256   6.0966   6.1570   6.1768
     6.4175   6.4723   6.5065   6.5794   6.7320   6.7536   6.8622   6.9684
     7.9052   8.2568   8.5630   8.5761  12.3167  12.7448  13.7063  13.7070
    18.4871  18.6654  20.1035  20.2515  20.3889  20.9673  21.1218  21.2951
    21.3313  22.5150

     occupation numbers 
     1.0000   1.0000   1.0000   1.0000   1.0000   1.0000   1.0000   1.0000
     1.0000   1.0000   1.0000   1.0000   1.0000   1.0000   1.0000   1.0000
     1.0000   1.0000   1.0000   1.0000   1.0000   1.0000   1.0000   1.0000
     1.0000   1.0000   1.0000   1.0000   1.0000   1.0000   1.0000   1.0000
     1.0000   1.0000   0.0000   0.0000   0.0000   0.0000   0.0000   0.0000
     0.0000   0.0000   0.0000   0.0000   0.0000   0.0000   0.0000   0.0000
     0.0000   0.0000

          k = 0.3333 0.0000-0.1228 (  4713 PWs)   bands (ev):

   -10.8340 -10.2882  -9.8687  -9.7028   1.2218   2.1900   2.3827   2.6968
     3.0275   3.1853   3.2022   3.6064   3.8109   4.0274   4.7373   5.0069
     5.6479   5.7554   5.7785   5.9309   6.0200   6.0852   6.1174   6.1660
     6.3630   6.4209   6.5147   6.5424   6.5784   6.6470   6.8844   6.9901
     7.6922   8.5011   8.9378   9.1247  11.7151  12.4289  14.0829  14.3945
    17.1218  18.0039  19.4960  19.7379  20.5048  20.5286  20.9676  21.2112
    21.6592  23.4324

     occupation numbers 
     1.0000   1.0000   1.0000   1.0000   1.0000   1.0000   1.0000   1.0000
     1.0000   1.0000   1.0000   1.0000   1.0000   1.0000   1.0000   1.0000
     1.0000   1.0000   1.0000   1.0000   1.0000   1.0000   1.0000   1.0000
     1.0000   1.0000   1.0000   1.0000   1.0000   1.0000   1.0000   1.0000
     1.0000   1.0000   0.0000   0.0000   0.0000   0.0000   0.0000   0.0000
     0.0000   0.0000   0.0000   0.0000   0.0000   0.0000   0.0000   0.0000
     0.0000   0.0000

          k = 0.3333 0.1744 0.0146 (  4715 PWs)   bands (ev):

   -10.8460 -10.3634  -9.7753  -9.6502   1.0949   1.9348   2.0909   2.9219
     3.0612   3.1634   3.2459   3.3234   3.4792   4.5260   4.7187   5.2899
     5.3890   5.8487   5.9055   5.9483   5.9876   6.0453   6.1227   6.1647
     6.1777   6.4057   6.4706   6.6603   6.6737   6.6905   6.8446   7.2308
     7.7260   8.6827   9.1204   9.3809  11.6908  12.5725  13.9239  14.4009
    16.6490  17.1436  18.7712  19.0308  19.8049  21.0237  21.2773  22.5524
    22.8524  23.2154

     occupation numbers 
     1.0000   1.0000   1.0000   1.0000   1.0000   1.0000   1.0000   1.0000
     1.0000   1.0000   1.0000   1.0000   1.0000   1.0000   1.0000   1.0000
     1.0000   1.0000   1.0000   1.0000   1.0000   1.0000   1.0000   1.0000
     1.0000   1.0000   1.0000   1.0000   1.0000   1.0000   1.0000   1.0000
     1.0000   1.0000   0.0000   0.0000   0.0000   0.0000   0.0000   0.0000
     0.0000   0.0000   0.0000   0.0000   0.0000   0.0000   0.0000   0.0000
     0.0000   0.0000

          k = 0.3333 0.1744 0.1519 (  4720 PWs)   bands (ev):

   -10.7798 -10.3271  -9.8645  -9.6956   1.2870   2.0244   2.1832   2.8705
     2.9930   3.1286   3.2946   3.3583   3.5262   4.5502   4.5636   4.9856
     5.4298   5.8061   5.8828   5.9521   6.0649   6.0794   6.1534   6.1556
     6.3026   6.3831   6.4656   6.5485   6.6783   6.6864   6.8757   7.1481
     7.8227   8.4645   9.0123   9.2087  12.0050  12.6910  13.8985  14.1112
    17.2124  17.3704  18.8345  19.0897  19.6438  21.0581  21.2202  22.4028
    22.5461  23.1829

     occupation numbers 
     1.0000   1.0000   1.0000   1.0000   1.0000   1.0000   1.0000   1.0000
     1.0000   1.0000   1.0000   1.0000   1.0000   1.0000   1.0000   1.0000
     1.0000   1.0000   1.0000   1.0000   1.0000   1.0000   1.0000   1.0000
     1.0000   1.0000   1.0000   1.0000   1.0000   1.0000   1.0000   1.0000
     1.0000   1.0000   0.0000   0.0000   0.0000   0.0000   0.0000   0.0000
     0.0000   0.0000   0.0000   0.0000   0.0000   0.0000   0.0000   0.0000
     0.0000   0.0000

          k = 0.3333 0.1744 0.2893 (  4719 PWs)   bands (ev):

   -10.6049 -10.2173 -10.0824  -9.8246   1.7737   2.1981   2.3920   2.8023
     2.8615   3.1729   3.2262   3.2732   3.8156   4.2621   4.2771   4.7345
     5.4510   5.7675   5.8588   5.9168   6.0591   6.0749   6.1711   6.2270
     6.3555   6.4056   6.4671   6.5616   6.6770   6.7029   6.9179   7.0397
     8.0045   8.0057   8.7753   8.8913  12.5860  12.8912  13.6305  13.7735
    17.9240  18.4198  19.0939  19.2354  19.6244  20.8569  21.1650  22.3395
    22.3421  22.9663

     occupation numbers 
     1.0000   1.0000   1.0000   1.0000   1.0000   1.0000   1.0000   1.0000
     1.0000   1.0000   1.0000   1.0000   1.0000   1.0000   1.0000   1.0000
     1.0000   1.0000   1.0000   1.0000   1.0000   1.0000   1.0000   1.0000
     1.0000   1.0000   1.0000   1.0000   1.0000   1.0000   1.0000   1.0000
     1.0000   1.0000   0.0000   0.0000   0.0000   0.0000   0.0000   0.0000
     0.0000   0.0000   0.0000   0.0000   0.0000   0.0000   0.0000   0.0000
     0.0000   0.0000

          k = 0.3333 0.1744-0.3975 (  4721 PWs)   bands (ev):

   -10.4170 -10.2906 -10.0958  -9.9560   2.1207   2.3305   2.4676   2.7583
     2.7856   3.1243   3.2394   3.4991   3.5882   3.9118   4.2054   4.8436
     5.4301   5.7568   5.8463   5.8968   6.0933   6.0949   6.1257   6.1937
     6.3337   6.3621   6.4927   6.6058   6.7023   6.7952   6.9711   6.9972
     7.7428   8.1802   8.4353   8.8407  12.9648  13.0080  13.2682  13.6877
    18.4250  18.8032  19.2579  19.3297  20.2770  20.7295  21.0717  21.5355
    22.8711  23.0493

     occupation numbers 
     1.0000   1.0000   1.0000   1.0000   1.0000   1.0000   1.0000   1.0000
     1.0000   1.0000   1.0000   1.0000   1.0000   1.0000   1.0000   1.0000
     1.0000   1.0000   1.0000   1.0000   1.0000   1.0000   1.0000   1.0000
     1.0000   1.0000   1.0000   1.0000   1.0000   1.0000   1.0000   1.0000
     1.0000   1.0000   0.0000   0.0000   0.0000   0.0000   0.0000   0.0000
     0.0000   0.0000   0.0000   0.0000   0.0000   0.0000   0.0000   0.0000
     0.0000   0.0000

          k = 0.3333 0.1744-0.2602 (  4723 PWs)   bands (ev):

   -10.6232 -10.2001 -10.0620  -9.8428   1.7819   2.1884   2.3411   2.8255
     2.8370   3.1965   3.2598   3.2960   3.7046   4.1653   4.4631   4.8041
     5.4079   5.7481   5.8638   5.9405   6.0388   6.0955   6.1893   6.2055
     6.3331   6.4120   6.4672   6.5963   6.6688   6.6802   6.8956   7.0389
     8.0382   8.0832   8.6499   8.9026  12.4887  12.8099  13.7357  13.7708
    17.9211  18.4057  19.1937  19.2463  20.4763  20.5418  20.7338  22.6159
    22.6204  23.0715

     occupation numbers 
     1.0000   1.0000   1.0000   1.0000   1.0000   1.0000   1.0000   1.0000
     1.0000   1.0000   1.0000   1.0000   1.0000   1.0000   1.0000   1.0000
     1.0000   1.0000   1.0000   1.0000   1.0000   1.0000   1.0000   1.0000
     1.0000   1.0000   1.0000   1.0000   1.0000   1.0000   1.0000   1.0000
     1.0000   1.0000   0.0000   0.0000   0.0000   0.0000   0.0000   0.0000
     0.0000   0.0000   0.0000   0.0000   0.0000   0.0000   0.0000   0.0000
     0.0000   0.0000

          k = 0.3333 0.1744-0.1228 (  4721 PWs)   bands (ev):

   -10.7902 -10.3169  -9.8519  -9.7069   1.2943   1.9928   2.1718   2.8825
     2.9916   3.1215   3.2922   3.3545   3.5130   4.6382   4.6752   4.8790
     5.4065   5.8027   5.8810   5.9600   6.0277   6.0668   6.1651   6.2034
     6.3155   6.3605   6.4982   6.5541   6.6563   6.6752   6.8600   7.1322
     7.8757   8.4847   9.0428   9.1163  11.9326  12.6294  13.8725  14.1906
    17.1954  17.3744  18.9307  19.2888  19.9483  20.9442  20.9456  22.6450
    22.6731  23.5000

     occupation numbers 
     1.0000   1.0000   1.0000   1.0000   1.0000   1.0000   1.0000   1.0000
     1.0000   1.0000   1.0000   1.0000   1.0000   1.0000   1.0000   1.0000
     1.0000   1.0000   1.0000   1.0000   1.0000   1.0000   1.0000   1.0000
     1.0000   1.0000   1.0000   1.0000   1.0000   1.0000   1.0000   1.0000
     1.0000   1.0000   0.0000   0.0000   0.0000   0.0000   0.0000   0.0000
     0.0000   0.0000   0.0000   0.0000   0.0000   0.0000   0.0000   0.0000
     0.0000   0.0000

          k = 0.3333 0.3488 0.0146 (  4704 PWs)   bands (ev):

   -10.7266 -10.4460  -9.7404  -9.6680   1.3105   1.6660   1.8869   2.1905
     3.0042   3.2613   3.3424   3.4240   3.8154   4.5187   4.6996   4.8354
     5.3862   5.7252   5.9056   5.9923   6.0644   6.0837   6.0892   6.1962
     6.3074   6.3741   6.5902   6.7238   6.7924   6.8129   6.9370   7.2588
     8.1669   8.7361   9.1160   9.2724  12.3175  12.6342  13.6215  13.9632
    15.9908  17.2222  17.6253  19.3729  20.2948  21.0869  21.5953  21.8218
    22.4146  23.4641

     occupation numbers 
     1.0000   1.0000   1.0000   1.0000   1.0000   1.0000   1.0000   1.0000
     1.0000   1.0000   1.0000   1.0000   1.0000   1.0000   1.0000   1.0000
     1.0000   1.0000   1.0000   1.0000   1.0000   1.0000   1.0000   1.0000
     1.0000   1.0000   1.0000   1.0000   1.0000   1.0000   1.0000   1.0000
     1.0000   1.0000   0.0000   0.0000   0.0000   0.0000   0.0000   0.0000
     0.0000   0.0000   0.0000   0.0000   0.0000   0.0000   0.0000   0.0000
     0.0000   0.0000

          k = 0.3333 0.3488 0.1519 (  4718 PWs)   bands (ev):

   -10.6692 -10.4069  -9.8162  -9.7175   1.4537   1.7314   1.9960   2.2193
     3.0203   3.1339   3.2107   3.3644   4.0668   4.5022   4.6771   4.8434
     5.3914   5.6927   5.8942   5.9574   6.0484   6.0617   6.1641   6.2039
     6.3304   6.3766   6.5671   6.5947   6.6819   6.8409   6.9089   7.1700
     8.2268   8.4306   9.1255   9.1589  12.5826  12.7252  13.6299  14.0035
    16.2313  17.3261  17.7449  19.3146  19.8513  20.8847  21.8313  22.4097
    22.7187  23.5775

     occupation numbers 
     1.0000   1.0000   1.0000   1.0000   1.0000   1.0000   1.0000   1.0000
     1.0000   1.0000   1.0000   1.0000   1.0000   1.0000   1.0000   1.0000
     1.0000   1.0000   1.0000   1.0000   1.0000   1.0000   1.0000   1.0000
     1.0000   1.0000   1.0000   1.0000   1.0000   1.0000   1.0000   1.0000
     1.0000   1.0000   0.0000   0.0000   0.0000   0.0000   0.0000   0.0000
     0.0000   0.0000   0.0000   0.0000   0.0000   0.0000   0.0000   0.0000
     0.0000   0.0000

          k = 0.3333 0.3488 0.2893 (  4712 PWs)   bands (ev):

   -10.5185 -10.2968 -10.0025  -9.8492   1.8137   1.9058   2.2514   2.3143
     2.9241   2.9857   3.0729   3.2633   4.1656   4.3642   4.5285   5.1419
     5.4009   5.6399   5.8814   5.9343   6.0276   6.0309   6.1843   6.2178
     6.2859   6.3847   6.3857   6.5829   6.6155   6.6680   6.9290   7.0312
     7.9656   8.3254   8.9243   9.1374  12.8594  12.9709  13.6908  14.0908
    16.8706  17.6064  18.0779  18.6881  20.1034  20.6099  21.8793  22.7350
    23.3892  23.6325

     occupation numbers 
     1.0000   1.0000   1.0000   1.0000   1.0000   1.0000   1.0000   1.0000
     1.0000   1.0000   1.0000   1.0000   1.0000   1.0000   1.0000   1.0000
     1.0000   1.0000   1.0000   1.0000   1.0000   1.0000   1.0000   1.0000
     1.0000   1.0000   1.0000   1.0000   1.0000   1.0000   1.0000   1.0000
     1.0000   1.0000   0.0000   0.0000   0.0000   0.0000   0.0000   0.0000
     0.0000   0.0000   0.0000   0.0000   0.0000   0.0000   0.0000   0.0000
     0.0000   0.0000

          k = 0.3333 0.3488-0.3975 (  4711 PWs)   bands (ev):

   -10.3801 -10.1966 -10.1581  -9.9606   2.0292   2.0338   2.4230   2.4279
     2.7817   2.8572   3.2086   3.2285   3.6608   4.3561   4.6766   5.2825
     5.4441   5.6191   5.8839   5.9216   6.0357   6.0707   6.0876   6.2081
     6.2181   6.3014   6.3270   6.5706   6.6175   6.7749   6.8248   6.9661
     7.7879   8.3795   8.7975   9.1421  12.8999  13.0950  13.7612  14.1395
    17.6863  17.8195  17.9667  18.0627  20.8269  20.8513  21.5284  21.9695
    23.7072  23.7554

     occupation numbers 
     1.0000   1.0000   1.0000   1.0000   1.0000   1.0000   1.0000   1.0000
     1.0000   1.0000   1.0000   1.0000   1.0000   1.0000   1.0000   1.0000
     1.0000   1.0000   1.0000   1.0000   1.0000   1.0000   1.0000   1.0000
     1.0000   1.0000   1.0000   1.0000   1.0000   1.0000   1.0000   1.0000
     1.0000   1.0000   0.0000   0.0000   0.0000   0.0000   0.0000   0.0000
     0.0000   0.0000   0.0000   0.0000   0.0000   0.0000   0.0000   0.0000
     0.0000   0.0000

          k = 0.3333 0.3488-0.2602 (  4721 PWs)   bands (ev):

   -10.5283 -10.2877  -9.9919  -9.8593   1.8578   1.9092   2.2625   2.3676
     2.9439   2.9664   3.0113   3.2593   4.0723   4.2387   4.6161   5.1120
     5.4339   5.6494   5.9044   5.9107   6.0180   6.0729   6.2016   6.2326
     6.2858   6.3729   6.3822   6.5549   6.6122   6.6575   6.9081   7.0396
     8.0744   8.4110   8.8288   9.1350  12.8198  12.8574  13.8023  14.0955
    16.9783  17.6575  18.2264  18.5793  20.1958  20.5026  21.5672  22.8048
    23.4574  23.6976

     occupation numbers 
     1.0000   1.0000   1.0000   1.0000   1.0000   1.0000   1.0000   1.0000
     1.0000   1.0000   1.0000   1.0000   1.0000   1.0000   1.0000   1.0000
     1.0000   1.0000   1.0000   1.0000   1.0000   1.0000   1.0000   1.0000
     1.0000   1.0000   1.0000   1.0000   1.0000   1.0000   1.0000   1.0000
     1.0000   1.0000   0.0000   0.0000   0.0000   0.0000   0.0000   0.0000
     0.0000   0.0000   0.0000   0.0000   0.0000   0.0000   0.0000   0.0000
     0.0000   0.0000

          k = 0.3333 0.3488-0.1228 (  4715 PWs)   bands (ev):

   -10.6752 -10.4012  -9.8095  -9.7242   1.4903   1.7343   2.0031   2.2435
     2.9819   3.1651   3.1937   3.3610   3.9827   4.5423   4.5941   4.8360
     5.4001   5.7051   5.9164   5.9329   6.0369   6.0854   6.1676   6.2194
     6.3393   6.3671   6.5500   6.6001   6.6762   6.8349   6.8979   7.1758
     8.2894   8.5419   9.0879   9.1209  12.4790  12.6881  13.7221  14.0062
    16.2917  17.3383  17.8948  19.4311  19.9064  20.4480  21.7095  22.3423
    22.9272  23.5339

     occupation numbers 
     1.0000   1.0000   1.0000   1.0000   1.0000   1.0000   1.0000   1.0000
     1.0000   1.0000   1.0000   1.0000   1.0000   1.0000   1.0000   1.0000
     1.0000   1.0000   1.0000   1.0000   1.0000   1.0000   1.0000   1.0000
     1.0000   1.0000   1.0000   1.0000   1.0000   1.0000   1.0000   1.0000
     1.0000   1.0000   0.0000   0.0000   0.0000   0.0000   0.0000   0.0000
     0.0000   0.0000   0.0000   0.0000   0.0000   0.0000   0.0000   0.0000
     0.0000   0.0000

          k = 0.3333-0.5232 0.0146 (  4714 PWs)   bands (ev):

   -10.5772 -10.5770  -9.7000  -9.6999   1.5874   1.5875   1.7577   1.7577
     3.0703   3.0703   3.4340   3.4340   4.3641   4.3641   4.5377   4.5378
     5.5524   5.5525   6.0055   6.0056   6.0266   6.0266   6.1681   6.1681
     6.3539   6.3539   6.6960   6.6960   6.9127   6.9128   7.0790   7.0790
     8.5838   8.5838   9.1492   9.1492  12.5628  12.5629  13.7789  13.7789
    16.0554  16.0554  18.8211  18.8212  20.6647  20.6647  21.5738  21.5738
    22.5896  22.5896

     occupation numbers 
     1.0000   1.0000   1.0000   1.0000   1.0000   1.0000   1.0000   1.0000
     1.0000   1.0000   1.0000   1.0000   1.0000   1.0000   1.0000   1.0000
     1.0000   1.0000   1.0000   1.0000   1.0000   1.0000   1.0000   1.0000
     1.0000   1.0000   1.0000   1.0000   1.0000   1.0000   1.0000   1.0000
     1.0000   1.0000   0.0000   0.0000   0.0000   0.0000   0.0000   0.0000
     0.0000   0.0000   0.0000   0.0000   0.0000   0.0000   0.0000   0.0000
     0.0000   0.0000

          k = 0.3333-0.5232 0.1519 (  4704 PWs)   bands (ev):

   -10.5304 -10.5303  -9.7603  -9.7602   1.6628   1.6628   1.8440   1.8441
     3.0364   3.0365   3.3312   3.3313   4.4725   4.4725   4.5957   4.5957
     5.5405   5.5406   5.9679   5.9679   6.0136   6.0136   6.1917   6.1917
     6.3483   6.3484   6.6315   6.6315   6.8641   6.8641   6.9850   6.9851
     8.4637   8.4638   9.1060   9.1060  12.7199  12.7200  13.8777  13.8777
    16.2094  16.2095  18.6634  18.6634  20.4167  20.4167  22.2590  22.2590
    22.7340  22.7340

     occupation numbers 
     1.0000   1.0000   1.0000   1.0000   1.0000   1.0000   1.0000   1.0000
     1.0000   1.0000   1.0000   1.0000   1.0000   1.0000   1.0000   1.0000
     1.0000   1.0000   1.0000   1.0000   1.0000   1.0000   1.0000   1.0000
     1.0000   1.0000   1.0000   1.0000   1.0000   1.0000   1.0000   1.0000
     1.0000   1.0000   0.0000   0.0000   0.0000   0.0000   0.0000   0.0000
     0.0000   0.0000   0.0000   0.0000   0.0000   0.0000   0.0000   0.0000
     0.0000   0.0000

          k = 0.3333-0.5232 0.2893 (  4678 PWs)   bands (ev):

   -10.4056 -10.4055  -9.9124  -9.9122   1.8735   1.8735   2.0466   2.0467
     2.9561   2.9561   3.1699   3.1700   4.2873   4.2873   4.9842   4.9842
     5.5142   5.5143   5.9264   5.9264   5.9865   5.9865   6.1953   6.1953
     6.3103   6.3103   6.4918   6.4919   6.6700   6.6701   6.8958   6.8958
     8.2807   8.2807   9.0853   9.0854  12.9459  12.9460  14.0897  14.0897
    16.6914  16.6915  18.2474  18.2474  20.4624  20.4624  22.7069  22.7069
    23.3812  23.3813

     occupation numbers 
     1.0000   1.0000   1.0000   1.0000   1.0000   1.0000   1.0000   1.0000
     1.0000   1.0000   1.0000   1.0000   1.0000   1.0000   1.0000   1.0000
     1.0000   1.0000   1.0000   1.0000   1.0000   1.0000   1.0000   1.0000
     1.0000   1.0000   1.0000   1.0000   1.0000   1.0000   1.0000   1.0000
     1.0000   1.0000   0.0000   0.0000   0.0000   0.0000   0.0000   0.0000
     0.0000   0.0000   0.0000   0.0000   0.0000   0.0000   0.0000   0.0000
     0.0000   0.0000

          k = 0.3333-0.5232-0.3975 (  4708 PWs)   bands (ev):

   -10.2982 -10.2982 -10.0334 -10.0334   2.0022   2.0022   2.2002   2.2002
     2.9274   2.9274   3.0601   3.0602   4.1227   4.1227   5.1920   5.1920
     5.4990   5.4990   5.9668   5.9668   6.0185   6.0185   6.0700   6.0700
     6.2617   6.2617   6.3780   6.3780   6.6613   6.6613   6.8333   6.8333
     8.2287   8.2287   9.0846   9.0846  13.0246  13.0247  14.2009  14.2009
    17.3766  17.3766  17.5631  17.5631  20.9458  20.9458  22.3371  22.3372
    23.5571  23.5572

     occupation numbers 
     1.0000   1.0000   1.0000   1.0000   1.0000   1.0000   1.0000   1.0000
     1.0000   1.0000   1.0000   1.0000   1.0000   1.0000   1.0000   1.0000
     1.0000   1.0000   1.0000   1.0000   1.0000   1.0000   1.0000   1.0000
     1.0000   1.0000   1.0000   1.0000   1.0000   1.0000   1.0000   1.0000
     1.0000   1.0000   0.0000   0.0000   0.0000   0.0000   0.0000   0.0000
     0.0000   0.0000   0.0000   0.0000   0.0000   0.0000   0.0000   0.0000
     0.0000   0.0000

          k = 0.3333-0.5232-0.2602 (  4720 PWs)   bands (ev):

   -10.4057 -10.4055  -9.9128  -9.9127   1.9231   1.9231   2.0772   2.0772
     2.9094   2.9094   3.1615   3.1615   4.2220   4.2221   4.9302   4.9302
     5.5276   5.5276   5.9590   5.9590   5.9920   5.9920   6.2088   6.2089
     6.3092   6.3092   6.5006   6.5006   6.6128   6.6129   6.9206   6.9207
     8.3854   8.3854   9.0523   9.0523  12.8991  12.8992  14.1209  14.1209
    16.7905  16.7905  18.2878  18.2878  20.2928  20.2928  22.5430  22.5430
    23.3855  23.3856

     occupation numbers 
     1.0000   1.0000   1.0000   1.0000   1.0000   1.0000   1.0000   1.0000
     1.0000   1.0000   1.0000   1.0000   1.0000   1.0000   1.0000   1.0000
     1.0000   1.0000   1.0000   1.0000   1.0000   1.0000   1.0000   1.0000
     1.0000   1.0000   1.0000   1.0000   1.0000   1.0000   1.0000   1.0000
     1.0000   1.0000   0.0000   0.0000   0.0000   0.0000   0.0000   0.0000
     0.0000   0.0000   0.0000   0.0000   0.0000   0.0000   0.0000   0.0000
     0.0000   0.0000

          k = 0.3333-0.5232-0.1228 (  4712 PWs)   bands (ev):

   -10.5305 -10.5303  -9.7607  -9.7606   1.7532   1.7533   1.8048   1.8048
     3.0100   3.0101   3.3333   3.3333   4.3985   4.3985   4.5757   4.5757
     5.5457   5.5457   5.9837   5.9838   6.0135   6.0135   6.1954   6.1954
     6.3599   6.3600   6.5961   6.5962   6.8561   6.8562   6.9988   6.9988
     8.5900   8.5900   9.0639   9.0640  12.6642  12.6643  13.9145  13.9145
    16.2608  16.2608  18.9487  18.9487  19.9142  19.9143  22.3843  22.3843
    22.6517  22.6517

     occupation numbers 
     1.0000   1.0000   1.0000   1.0000   1.0000   1.0000   1.0000   1.0000
     1.0000   1.0000   1.0000   1.0000   1.0000   1.0000   1.0000   1.0000
     1.0000   1.0000   1.0000   1.0000   1.0000   1.0000   1.0000   1.0000
     1.0000   1.0000   1.0000   1.0000   1.0000   1.0000   1.0000   1.0000
     1.0000   1.0000   0.0000   0.0000   0.0000   0.0000   0.0000   0.0000
     0.0000   0.0000   0.0000   0.0000   0.0000   0.0000   0.0000   0.0000
     0.0000   0.0000

          k =-0.5000 0.0000-0.0219 (  4728 PWs)   bands (ev):

   -10.6176 -10.6175  -9.7152  -9.7150   1.5429   1.5430   2.9047   2.9047
     3.1542   3.1542   3.2392   3.2393   3.3183   3.3183   5.2683   5.2683
     5.7684   5.7684   5.9607   5.9607   5.9852   5.9852   6.0434   6.0434
     6.2785   6.2785   6.5766   6.5766   6.6037   6.6037   6.9795   6.9796
     8.0835   8.0836   9.1953   9.1953  12.3880  12.3880  14.3052  14.3052
    17.7505  17.7505  18.3817  18.3817  20.2392  20.2392  20.6379  20.6380
    23.7406  23.7407

     occupation numbers 
     1.0000   1.0000   1.0000   1.0000   1.0000   1.0000   1.0000   1.0000
     1.0000   1.0000   1.0000   1.0000   1.0000   1.0000   1.0000   1.0000
     1.0000   1.0000   1.0000   1.0000   1.0000   1.0000   1.0000   1.0000
     1.0000   1.0000   1.0000   1.0000   1.0000   1.0000   1.0000   1.0000
     1.0000   1.0000   0.0000   0.0000   0.0000   0.0000   0.0000   0.0000
     0.0000   0.0000   0.0000   0.0000   0.0000   0.0000   0.0000   0.0000
     0.0000   0.0000

          k =-0.5000 0.0000 0.1155 (  4729 PWs)   bands (ev):

   -10.5711 -10.5572  -9.7922  -9.7761   1.6772   1.6970   2.7555   2.7931
     3.1977   3.2460   3.2558   3.3427   3.3942   3.4340   4.8817   5.0673
     5.8142   5.8289   5.9055   5.9058   5.9641   5.9867   6.0985   6.1129
     6.3938   6.4143   6.5538   6.5587   6.5697   6.5926   6.9395   6.9425
     8.0186   8.0861   8.9093   9.0103  12.5650  12.5875  14.0942  14.1831
    18.1517  18.3654  18.5372  18.7085  20.2823  20.3735  20.6311  20.6435
    22.7275  23.0988

     occupation numbers 
     1.0000   1.0000   1.0000   1.0000   1.0000   1.0000   1.0000   1.0000
     1.0000   1.0000   1.0000   1.0000   1.0000   1.0000   1.0000   1.0000
     1.0000   1.0000   1.0000   1.0000   1.0000   1.0000   1.0000   1.0000
     1.0000   1.0000   1.0000   1.0000   1.0000   1.0000   1.0000   1.0000
     1.0000   1.0000   0.0000   0.0000   0.0000   0.0000   0.0000   0.0000
     0.0000   0.0000   0.0000   0.0000   0.0000   0.0000   0.0000   0.0000
     0.0000   0.0000

          k =-0.5000 0.0000 0.2529 (  4722 PWs)   bands (ev):

   -10.4263 -10.4015  -9.9789  -9.9519   2.0181   2.0439   2.5726   2.5949
     3.2913   3.3794   3.4376   3.5253   3.5387   3.5800   4.2754   4.4888
     5.8627   5.8644   5.8655   5.8801   5.9678   5.9706   6.1142   6.1335
     6.4711   6.5051   6.5115   6.5495   6.6351   6.6665   6.8702   6.8806
     7.9641   8.0850   8.4262   8.5709  12.9565  12.9837  13.7446  13.8270
    19.1155  19.3352  19.4471  19.7229  20.4437  20.5766  20.6211  20.6463
    21.5358  21.8059

     occupation numbers 
     1.0000   1.0000   1.0000   1.0000   1.0000   1.0000   1.0000   1.0000
     1.0000   1.0000   1.0000   1.0000   1.0000   1.0000   1.0000   1.0000
     1.0000   1.0000   1.0000   1.0000   1.0000   1.0000   1.0000   1.0000
     1.0000   1.0000   1.0000   1.0000   1.0000   1.0000   1.0000   1.0000
     1.0000   1.0000   0.0000   0.0000   0.0000   0.0000   0.0000   0.0000
     0.0000   0.0000   0.0000   0.0000   0.0000   0.0000   0.0000   0.0000
     0.0000   0.0000

          k =-0.5000 0.0000-0.4340 (  4714 PWs)   bands (ev):

   -10.2122 -10.2122 -10.1824 -10.1824   2.3508   2.3508   2.3680   2.3680
     3.5223   3.5223   3.5767   3.5767   3.7242   3.7242   3.8582   3.8582
     5.8647   5.8647   5.8675   5.8675   6.0294   6.0294   6.0520   6.0520
     6.4613   6.4613   6.5126   6.5126   6.8027   6.8027   6.8066   6.8066
     8.0708   8.0708   8.2198   8.2198  13.3641  13.3641  13.4104  13.4104
    19.8660  19.8660  20.3601  20.3601  20.6760  20.6760  20.7608  20.7608
    21.4182  21.4182

     occupation numbers 
     1.0000   1.0000   1.0000   1.0000   1.0000   1.0000   1.0000   1.0000
     1.0000   1.0000   1.0000   1.0000   1.0000   1.0000   1.0000   1.0000
     1.0000   1.0000   1.0000   1.0000   1.0000   1.0000   1.0000   1.0000
     1.0000   1.0000   1.0000   1.0000   1.0000   1.0000   1.0000   1.0000
     1.0000   1.0000   0.0000   0.0000   0.0000   0.0000   0.0000   0.0000
     0.0000   0.0000   0.0000   0.0000   0.0000   0.0000   0.0000   0.0000
     0.0000   0.0000

          k =-0.5000 0.1744-0.0219 (  4712 PWs)   bands (ev):

   -10.6054 -10.6053  -9.7107  -9.7106   1.5581   1.5582   2.3059   2.3059
     3.1339   3.1339   3.3432   3.3432   3.8509   3.8509   4.9772   4.9772
     5.6387   5.6387   5.9693   5.9693   6.0758   6.0758   6.0998   6.0999
     6.2610   6.2610   6.6228   6.6229   6.7447   6.7447   7.0134   7.0134
     8.2605   8.2606   9.1798   9.1798  12.5646  12.5647  13.8871  13.8871
    17.4391  17.4391  18.0382  18.0382  20.4574  20.4575  21.6137  21.6137
    23.1347  23.1347

     occupation numbers 
     1.0000   1.0000   1.0000   1.0000   1.0000   1.0000   1.0000   1.0000
     1.0000   1.0000   1.0000   1.0000   1.0000   1.0000   1.0000   1.0000
     1.0000   1.0000   1.0000   1.0000   1.0000   1.0000   1.0000   1.0000
     1.0000   1.0000   1.0000   1.0000   1.0000   1.0000   1.0000   1.0000
     1.0000   1.0000   0.0000   0.0000   0.0000   0.0000   0.0000   0.0000
     0.0000   0.0000   0.0000   0.0000   0.0000   0.0000   0.0000   0.0000
     0.0000   0.0000

          k =-0.5000 0.1744 0.1155 (  4723 PWs)   bands (ev):

   -10.5600 -10.5481  -9.7838  -9.7702   1.6804   1.7118   2.3374   2.3504
     3.0839   3.0997   3.2575   3.2925   3.9770   4.0530   4.7369   4.8589
     5.6265   5.6508   5.9404   5.9662   5.9986   6.0468   6.1589   6.1599
     6.3498   6.3500   6.5193   6.5338   6.7895   6.7989   6.9270   6.9332
     8.2060   8.2423   8.9425   9.0396  12.7043  12.7440  13.8333  13.9036
    17.5966  17.6558  18.3097  18.3890  20.2694  20.4375  21.6330  21.6494
    23.0091  23.0461

     occupation numbers 
     1.0000   1.0000   1.0000   1.0000   1.0000   1.0000   1.0000   1.0000
     1.0000   1.0000   1.0000   1.0000   1.0000   1.0000   1.0000   1.0000
     1.0000   1.0000   1.0000   1.0000   1.0000   1.0000   1.0000   1.0000
     1.0000   1.0000   1.0000   1.0000   1.0000   1.0000   1.0000   1.0000
     1.0000   1.0000   0.0000   0.0000   0.0000   0.0000   0.0000   0.0000
     0.0000   0.0000   0.0000   0.0000   0.0000   0.0000   0.0000   0.0000
     0.0000   0.0000

          k =-0.5000 0.1744 0.2529 (  4719 PWs)   bands (ev):

   -10.4225 -10.4022  -9.9596  -9.9375   1.9871   2.0245   2.4220   2.4476
     2.9788   2.9839   3.2449   3.2986   4.1752   4.2504   4.3779   4.5088
     5.6227   5.6451   5.9423   5.9619   5.9875   6.0077   6.1504   6.1625
     6.3873   6.3961   6.5286   6.5371   6.7586   6.7778   6.8288   6.8365
     8.0625   8.0770   8.6864   8.7593  13.0003  13.0364  13.7666  13.8346
    18.0812  18.1611  18.9534  18.9807  20.0474  20.5094  21.5984  21.7495
    22.7160  22.8899

     occupation numbers 
     1.0000   1.0000   1.0000   1.0000   1.0000   1.0000   1.0000   1.0000
     1.0000   1.0000   1.0000   1.0000   1.0000   1.0000   1.0000   1.0000
     1.0000   1.0000   1.0000   1.0000   1.0000   1.0000   1.0000   1.0000
     1.0000   1.0000   1.0000   1.0000   1.0000   1.0000   1.0000   1.0000
     1.0000   1.0000   0.0000   0.0000   0.0000   0.0000   0.0000   0.0000
     0.0000   0.0000   0.0000   0.0000   0.0000   0.0000   0.0000   0.0000
     0.0000   0.0000

          k =-0.5000 0.1744-0.4340 (  4704 PWs)   bands (ev):

   -10.2646 -10.2646 -10.1110 -10.1110   2.1800   2.1800   2.4913   2.4913
     2.9255   2.9255   3.3503   3.3503   4.0090   4.0090   4.4743   4.4743
     5.6282   5.6282   5.9804   5.9804   6.0125   6.0125   6.0809   6.0809
     6.3401   6.3401   6.6031   6.6031   6.7678   6.7678   6.7993   6.7993
     7.9378   7.9378   8.6451   8.6451  13.1698  13.1698  13.7416  13.7417
    18.6542  18.6543  18.8284  18.8285  20.8192  20.8193  21.5823  21.5823
    22.4478  22.4481

     occupation numbers 
     1.0000   1.0000   1.0000   1.0000   1.0000   1.0000   1.0000   1.0000
     1.0000   1.0000   1.0000   1.0000   1.0000   1.0000   1.0000   1.0000
     1.0000   1.0000   1.0000   1.0000   1.0000   1.0000   1.0000   1.0000
     1.0000   1.0000   1.0000   1.0000   1.0000   1.0000   1.0000   1.0000
     1.0000   1.0000   0.0000   0.0000   0.0000   0.0000   0.0000   0.0000
     0.0000   0.0000   0.0000   0.0000   0.0000   0.0000   0.0000   0.0000
     0.0000   0.0000

          k =-0.5000 0.3488-0.0219 (  4710 PWs)   bands (ev):

   -10.5808 -10.5806  -9.7019  -9.7017   1.5836   1.5837   1.7691   1.7691
     3.0923   3.0923   3.4298   3.4298   4.3974   4.3975   4.5376   4.5377
     5.5106   5.5107   6.0038   6.0038   6.0402   6.0402   6.1671   6.1671
     6.3401   6.3401   6.6965   6.6965   6.8873   6.8873   7.1146   7.1146
     8.6076   8.6077   9.1259   9.1259  12.5664  12.5665  13.7607  13.7608
    16.0358  16.0359  18.7481  18.7482  20.7854  20.7854  21.6200  21.6200
    22.8367  22.8367

     occupation numbers 
     1.0000   1.0000   1.0000   1.0000   1.0000   1.0000   1.0000   1.0000
     1.0000   1.0000   1.0000   1.0000   1.0000   1.0000   1.0000   1.0000
     1.0000   1.0000   1.0000   1.0000   1.0000   1.0000   1.0000   1.0000
     1.0000   1.0000   1.0000   1.0000   1.0000   1.0000   1.0000   1.0000
     1.0000   1.0000   0.0000   0.0000   0.0000   0.0000   0.0000   0.0000
     0.0000   0.0000   0.0000   0.0000   0.0000   0.0000   0.0000   0.0000
     0.0000   0.0000

          k =-0.5000 0.3488 0.1155 (  4715 PWs)   bands (ev):

   -10.5371 -10.5305  -9.7663  -9.7587   1.6642   1.7424   1.8148   1.8563
     3.0318   3.0644   3.3194   3.3364   4.4351   4.4461   4.6067   4.6229
     5.4965   5.5091   5.9742   5.9867   6.0065   6.0232   6.1962   6.2008
     6.3437   6.3453   6.5732   6.6264   6.8431   6.8656   7.0114   7.0235
     8.5268   8.5370   9.0453   9.1074  12.6740  12.7084  13.8698  13.8898
    16.2145  16.2294  18.7006  18.8531  19.9921  20.4086  22.3184  22.4637
    22.8473  22.9224

     occupation numbers 
     1.0000   1.0000   1.0000   1.0000   1.0000   1.0000   1.0000   1.0000
     1.0000   1.0000   1.0000   1.0000   1.0000   1.0000   1.0000   1.0000
     1.0000   1.0000   1.0000   1.0000   1.0000   1.0000   1.0000   1.0000
     1.0000   1.0000   1.0000   1.0000   1.0000   1.0000   1.0000   1.0000
     1.0000   1.0000   0.0000   0.0000   0.0000   0.0000   0.0000   0.0000
     0.0000   0.0000   0.0000   0.0000   0.0000   0.0000   0.0000   0.0000
     0.0000   0.0000

          k =-0.5000 0.3488 0.2529 (  4724 PWs)   bands (ev):

   -10.4140 -10.4035  -9.9207  -9.9093   1.8777   1.9273   2.0549   2.0670
     2.9285   2.9870   3.1603   3.1715   4.2383   4.2765   4.9707   5.0203
     5.4803   5.4934   5.9435   5.9504   5.9769   5.9831   6.2065   6.2189
     6.3055   6.3150   6.4368   6.4868   6.6605   6.6634   6.9119   6.9140
     8.2972   8.3332   9.0630   9.0907  12.9001  12.9225  14.0846  14.1007
    16.7417  16.7512  18.2661  18.3926  20.1108  20.4951  22.7596  22.9184
    23.1226  23.1320

     occupation numbers 
     1.0000   1.0000   1.0000   1.0000   1.0000   1.0000   1.0000   1.0000
     1.0000   1.0000   1.0000   1.0000   1.0000   1.0000   1.0000   1.0000
     1.0000   1.0000   1.0000   1.0000   1.0000   1.0000   1.0000   1.0000
     1.0000   1.0000   1.0000   1.0000   1.0000   1.0000   1.0000   1.0000
     1.0000   1.0000   0.0000   0.0000   0.0000   0.0000   0.0000   0.0000
     0.0000   0.0000   0.0000   0.0000   0.0000   0.0000   0.0000   0.0000
     0.0000   0.0000

          k =-0.5000 0.3488-0.4340 (  4732 PWs)   bands (ev):

   -10.3011 -10.3011 -10.0362 -10.0362   2.0061   2.0061   2.1996   2.1997
     2.9384   2.9384   3.0751   3.0751   4.1259   4.1259   5.2336   5.2336
     5.4810   5.4810   5.9470   5.9470   6.0125   6.0126   6.0770   6.0770
     6.2657   6.2657   6.3684   6.3684   6.6610   6.6610   6.8357   6.8358
     8.2060   8.2060   9.0956   9.0956  13.0079  13.0080  14.1896  14.1897
    17.4273  17.4274  17.5819  17.5820  20.8833  20.8833  22.3668  22.3668
    23.2467  23.2467

     occupation numbers 
     1.0000   1.0000   1.0000   1.0000   1.0000   1.0000   1.0000   1.0000
     1.0000   1.0000   1.0000   1.0000   1.0000   1.0000   1.0000   1.0000
     1.0000   1.0000   1.0000   1.0000   1.0000   1.0000   1.0000   1.0000
     1.0000   1.0000   1.0000   1.0000   1.0000   1.0000   1.0000   1.0000
     1.0000   1.0000   0.0000   0.0000   0.0000   0.0000   0.0000   0.0000
     0.0000   0.0000   0.0000   0.0000   0.0000   0.0000   0.0000   0.0000
     0.0000   0.0000

          k =-0.5000-0.5232-0.0219 (  4700 PWs)   bands (ev):

   -10.5683 -10.5682  -9.6974  -9.6973   1.5412   1.5412   1.6265   1.6266
     3.0679   3.0679   3.4990   3.4990   4.3277   4.3278   4.5915   4.5915
     5.4966   5.4967   6.0046   6.0046   6.0462   6.0462   6.1856   6.1856
     6.3314   6.3314   6.7283   6.7284   7.0263   7.0264   7.1007   7.1008
     8.8066   8.8066   9.0603   9.0603  12.3160  12.3161  14.4519  14.4519
    14.9931  14.9932  19.4620  19.4620  20.6163  20.6163  20.9205  20.9206
    23.2502  23.2502

     occupation numbers 
     1.0000   1.0000   1.0000   1.0000   1.0000   1.0000   1.0000   1.0000
     1.0000   1.0000   1.0000   1.0000   1.0000   1.0000   1.0000   1.0000
     1.0000   1.0000   1.0000   1.0000   1.0000   1.0000   1.0000   1.0000
     1.0000   1.0000   1.0000   1.0000   1.0000   1.0000   1.0000   1.0000
     1.0000   1.0000   0.0000   0.0000   0.0000   0.0000   0.0000   0.0000
     0.0000   0.0000   0.0000   0.0000   0.0000   0.0000   0.0000   0.0000
     0.0000   0.0000

          k =-0.5000-0.5232 0.1155 (  4708 PWs)   bands (ev):

   -10.5237 -10.5236  -9.7552  -9.7551   1.5900   1.5900   1.7632   1.7633
     3.0008   3.0009   3.4023   3.4023   4.2966   4.2967   4.8020   4.8020
     5.4872   5.4872   5.9828   5.9828   6.0156   6.0156   6.2088   6.2089
     6.3082   6.3082   6.6834   6.6834   6.9186   6.9186   6.9674   6.9675
     8.6886   8.6887   9.1240   9.1241  12.4710  12.4711  14.4487  14.4487
    15.2936  15.2936  19.3286  19.3286  19.7678  19.7678  22.1080  22.1081
    23.3480  23.3481

     occupation numbers 
     1.0000   1.0000   1.0000   1.0000   1.0000   1.0000   1.0000   1.0000
     1.0000   1.0000   1.0000   1.0000   1.0000   1.0000   1.0000   1.0000
     1.0000   1.0000   1.0000   1.0000   1.0000   1.0000   1.0000   1.0000
     1.0000   1.0000   1.0000   1.0000   1.0000   1.0000   1.0000   1.0000
     1.0000   1.0000   0.0000   0.0000   0.0000   0.0000   0.0000   0.0000
     0.0000   0.0000   0.0000   0.0000   0.0000   0.0000   0.0000   0.0000
     0.0000   0.0000

          k =-0.5000-0.5232 0.2529 (  4710 PWs)   bands (ev):

   -10.4067 -10.4066  -9.8983  -9.8982   1.7286   1.7286   2.0524   2.0525
     2.8392   2.8392   3.2587   3.2587   4.2098   4.2099   5.2678   5.2678
     5.4717   5.4717   5.9262   5.9262   5.9530   5.9530   6.2422   6.2422
     6.2539   6.2540   6.4702   6.4703   6.6235   6.6235   6.8438   6.8438
     8.4992   8.4992   9.2298   9.2298  12.7728  12.7729  14.4458  14.4458
    16.0377  16.0378  18.1524  18.1525  20.3341  20.3341  23.0919  23.0920
    23.6475  23.6476

     occupation numbers 
     1.0000   1.0000   1.0000   1.0000   1.0000   1.0000   1.0000   1.0000
     1.0000   1.0000   1.0000   1.0000   1.0000   1.0000   1.0000   1.0000
     1.0000   1.0000   1.0000   1.0000   1.0000   1.0000   1.0000   1.0000
     1.0000   1.0000   1.0000   1.0000   1.0000   1.0000   1.0000   1.0000
     1.0000   1.0000   0.0000   0.0000   0.0000   0.0000   0.0000   0.0000
     0.0000   0.0000   0.0000   0.0000   0.0000   0.0000   0.0000   0.0000
     0.0000   0.0000

          k =-0.5000-0.5232-0.4340 (  4716 PWs)   bands (ev):

   -10.3123 -10.3123 -10.0056 -10.0056   1.8199   1.8199   2.2207   2.2207
     2.7340   2.7340   3.2008   3.2008   4.1475   4.1475   5.4359   5.4359
     5.7505   5.7505   5.8632   5.8632   5.9355   5.9355   6.0236   6.0236
     6.2231   6.2231   6.2587   6.2588   6.6010   6.6011   6.7852   6.7853
     8.4233   8.4233   9.2758   9.2759  12.9189  12.9190  14.4468  14.4469
    16.8500  16.8501  17.2090  17.2091  20.8919  20.8919  23.3347  23.3770
    23.3770  23.9203

     occupation numbers 
     1.0000   1.0000   1.0000   1.0000   1.0000   1.0000   1.0000   1.0000
     1.0000   1.0000   1.0000   1.0000   1.0000   1.0000   1.0000   1.0000
     1.0000   1.0000   1.0000   1.0000   1.0000   1.0000   1.0000   1.0000
     1.0000   1.0000   1.0000   1.0000   1.0000   1.0000   1.0000   1.0000
     1.0000   1.0000   0.0000   0.0000   0.0000   0.0000   0.0000   0.0000
     0.0000   0.0000   0.0000   0.0000   0.0000   0.0000   0.0000   0.0000
     0.0000   0.0000

          k = 0.0000 0.1744-0.1374 (  4710 PWs)   bands (ev):

   -11.0142 -10.0889  -9.9438  -9.6327   0.9150   2.1523   2.2671   2.7255
     3.1147   3.2519   3.2652   3.9011   4.1516   4.3601   4.6369   5.0149
     5.4344   5.5686   5.5873   6.1026   6.1295   6.1528   6.1662   6.2548
     6.2831   6.3462   6.3475   6.3961   6.4712   6.7526   7.0774   7.2026
     7.3428   8.9036   9.0908   9.3856  10.8199  11.5964  14.1872  14.5930
    16.7622  18.1029  19.2456  19.5296  20.0767  21.0616  21.0818  22.0866
    22.9078  22.9664

     occupation numbers 
     1.0000   1.0000   1.0000   1.0000   1.0000   1.0000   1.0000   1.0000
     1.0000   1.0000   1.0000   1.0000   1.0000   1.0000   1.0000   1.0000
     1.0000   1.0000   1.0000   1.0000   1.0000   1.0000   1.0000   1.0000
     1.0000   1.0000   1.0000   1.0000   1.0000   1.0000   1.0000   1.0000
     1.0000   1.0000   0.0000   0.0000   0.0000   0.0000   0.0000   0.0000
     0.0000   0.0000   0.0000   0.0000   0.0000   0.0000   0.0000   0.0000
     0.0000   0.0000

          k = 0.0000 0.1744-0.2747 (  4704 PWs)   bands (ev):

   -10.8150 -10.2016  -9.9980  -9.7350   1.6120   2.4291   2.4857   2.8124
     3.0388   3.1557   3.2718   3.5558   3.7274   4.0443   4.4242   4.5791
     5.3433   5.4514   5.6313   5.9688   6.1982   6.2110   6.2555   6.2608
     6.3368   6.4422   6.4688   6.5139   6.8008   6.9240   7.0753   7.1613
     7.6394   8.6492   8.7648   8.7883  11.5733  12.0894  13.2482  13.7374
    18.4261  18.4880  19.1393  19.8563  20.1823  21.2301  21.6319  22.3167
    22.3174  23.4359

     occupation numbers 
     1.0000   1.0000   1.0000   1.0000   1.0000   1.0000   1.0000   1.0000
     1.0000   1.0000   1.0000   1.0000   1.0000   1.0000   1.0000   1.0000
     1.0000   1.0000   1.0000   1.0000   1.0000   1.0000   1.0000   1.0000
     1.0000   1.0000   1.0000   1.0000   1.0000   1.0000   1.0000   1.0000
     1.0000   1.0000   0.0000   0.0000   0.0000   0.0000   0.0000   0.0000
     0.0000   0.0000   0.0000   0.0000   0.0000   0.0000   0.0000   0.0000
     0.0000   0.0000

          k = 0.0000 0.3488-0.1374 (  4701 PWs)   bands (ev):

   -10.8184 -10.2831  -9.8703  -9.6901   1.2385   2.2353   2.4506   2.5693
     2.9721   3.1354   3.2499   3.6041   3.6630   3.9432   4.5745   5.0683
     5.6890   5.8214   5.8415   5.9642   6.0067   6.0921   6.1374   6.1742
     6.3947   6.3984   6.4655   6.5269   6.5911   6.6470   6.9172   6.9970
     7.6358   8.4705   8.9639   9.1962  11.8397  12.6317  14.0709  14.3340
    17.2064  18.1816  18.9838  19.5342  19.8176  20.1915  20.7235  21.0822
    22.2345  23.3738

     occupation numbers 
     1.0000   1.0000   1.0000   1.0000   1.0000   1.0000   1.0000   1.0000
     1.0000   1.0000   1.0000   1.0000   1.0000   1.0000   1.0000   1.0000
     1.0000   1.0000   1.0000   1.0000   1.0000   1.0000   1.0000   1.0000
     1.0000   1.0000   1.0000   1.0000   1.0000   1.0000   1.0000   1.0000
     1.0000   1.0000   0.0000   0.0000   0.0000   0.0000   0.0000   0.0000
     0.0000   0.0000   0.0000   0.0000   0.0000   0.0000   0.0000   0.0000
     0.0000   0.0000

          k = 0.0000 0.3488-0.2747 (  4698 PWs)   bands (ev):

   -10.6395 -10.1665 -10.0952  -9.8250   1.7902   2.4041   2.4917   2.7725
     2.7936   3.1579   3.2963   3.5575   3.8389   4.0067   4.0877   4.3125
     5.6430   5.6957   5.8305   5.9656   6.0655   6.1050   6.1667   6.1860
     6.4379   6.4669   6.5411   6.5826   6.7313   6.7454   6.8891   6.9962
     7.8373   8.2643   8.5559   8.6571  12.4354  12.9167  13.6909  13.7183
    18.6909  18.7323  19.3762  19.5613  20.2839  20.5613  20.6132  21.5990
    21.6547  22.5657

     occupation numbers 
     1.0000   1.0000   1.0000   1.0000   1.0000   1.0000   1.0000   1.0000
     1.0000   1.0000   1.0000   1.0000   1.0000   1.0000   1.0000   1.0000
     1.0000   1.0000   1.0000   1.0000   1.0000   1.0000   1.0000   1.0000
     1.0000   1.0000   1.0000   1.0000   1.0000   1.0000   1.0000   1.0000
     1.0000   1.0000   0.0000   0.0000   0.0000   0.0000   0.0000   0.0000
     0.0000   0.0000   0.0000   0.0000   0.0000   0.0000   0.0000   0.0000
     0.0000   0.0000

          k =-0.1667 0.1744-0.0073 (  4707 PWs)   bands (ev):

   -11.0207 -10.1863  -9.8249  -9.6088   0.7750   1.8936   2.4815   2.5932
     3.0850   3.2772   3.2859   3.7087   3.8169   4.5091   4.9782   5.1979
     5.6412   5.7249   5.7477   5.8560   5.9436   6.0450   6.1814   6.1850
     6.2154   6.3257   6.4626   6.5380   6.5395   6.7411   6.7708   7.2817
     7.3772   8.9097   9.2237   9.5657  10.8075  11.8426  14.4478  15.1426
    15.5801  18.0384  18.8133  19.5528  20.1347  20.3519  21.4162  22.0071
    23.1250  23.6732

     occupation numbers 
     1.0000   1.0000   1.0000   1.0000   1.0000   1.0000   1.0000   1.0000
     1.0000   1.0000   1.0000   1.0000   1.0000   1.0000   1.0000   1.0000
     1.0000   1.0000   1.0000   1.0000   1.0000   1.0000   1.0000   1.0000
     1.0000   1.0000   1.0000   1.0000   1.0000   1.0000   1.0000   1.0000
     1.0000   1.0000   0.0000   0.0000   0.0000   0.0000   0.0000   0.0000
     0.0000   0.0000   0.0000   0.0000   0.0000   0.0000   0.0000   0.0000
     0.0000   0.0000

          k =-0.1667 0.1744-0.1447 (  4711 PWs)   bands (ev):

   -10.9499 -10.1545  -9.9242  -9.6470   1.0146   1.9810   2.5770   2.6237
     3.0766   3.2772   3.3000   3.6522   3.7082   4.3228   4.9650   4.9905
     5.2890   5.6864   5.7278   6.0708   6.1356   6.1407   6.1838   6.1856
     6.2732   6.2835   6.3997   6.4695   6.6385   6.7313   6.8050   7.2880
     7.4695   8.6803   9.1455   9.3534  11.1757  12.0202  14.2403  14.2578
    16.7163  18.1411  18.6631  19.4978  20.1489  20.7395  21.6363  21.9755
    23.0717  23.2311

     occupation numbers 
     1.0000   1.0000   1.0000   1.0000   1.0000   1.0000   1.0000   1.0000
     1.0000   1.0000   1.0000   1.0000   1.0000   1.0000   1.0000   1.0000
     1.0000   1.0000   1.0000   1.0000   1.0000   1.0000   1.0000   1.0000
     1.0000   1.0000   1.0000   1.0000   1.0000   1.0000   1.0000   1.0000
     1.0000   1.0000   0.0000   0.0000   0.0000   0.0000   0.0000   0.0000
     0.0000   0.0000   0.0000   0.0000   0.0000   0.0000   0.0000   0.0000
     0.0000   0.0000

          k =-0.1667 0.1744-0.2820 (  4724 PWs)   bands (ev):

   -10.7558 -10.1727 -10.0609  -9.7537   1.6547   2.2335   2.6515   2.7788
     3.0108   3.2053   3.2535   3.4186   3.7777   4.0156   4.1286   4.9153
     5.3023   5.6318   5.6995   5.9429   6.1602   6.2213   6.2220   6.2866
     6.3500   6.3949   6.4363   6.4526   6.8304   6.8502   6.8725   7.2022
     7.7688   8.2624   8.8211   8.9675  11.8941  12.4194  13.3862  13.6786
    18.3346  18.3918  18.8500  19.6226  20.2993  20.7620  21.3945  22.3686
    22.4411  23.5139

     occupation numbers 
     1.0000   1.0000   1.0000   1.0000   1.0000   1.0000   1.0000   1.0000
     1.0000   1.0000   1.0000   1.0000   1.0000   1.0000   1.0000   1.0000
     1.0000   1.0000   1.0000   1.0000   1.0000   1.0000   1.0000   1.0000
     1.0000   1.0000   1.0000   1.0000   1.0000   1.0000   1.0000   1.0000
     1.0000   1.0000   0.0000   0.0000   0.0000   0.0000   0.0000   0.0000
     0.0000   0.0000   0.0000   0.0000   0.0000   0.0000   0.0000   0.0000
     0.0000   0.0000

          k =-0.1667 0.1744 0.4048 (  4725 PWs)   bands (ev):

   -10.5123 -10.4421  -9.9525  -9.8689   2.2454   2.4907   2.6886   2.8396
     2.8989   2.9013   3.2423   3.4251   3.4848   3.8521   3.9158   4.8865
     5.3342   5.5777   5.7651   5.8202   6.1854   6.2074   6.2211   6.2569
     6.3721   6.4549   6.4607   6.5346   6.8704   6.9308   7.0750   7.1360
     8.0056   8.1846   8.2647   8.8669  12.6006  12.6685  12.7434  13.2425
    18.5566  19.0369  19.8097  19.8712  20.2034  20.6154  20.7427  21.5456
    23.3913  23.6821

     occupation numbers 
     1.0000   1.0000   1.0000   1.0000   1.0000   1.0000   1.0000   1.0000
     1.0000   1.0000   1.0000   1.0000   1.0000   1.0000   1.0000   1.0000
     1.0000   1.0000   1.0000   1.0000   1.0000   1.0000   1.0000   1.0000
     1.0000   1.0000   1.0000   1.0000   1.0000   1.0000   1.0000   1.0000
     1.0000   1.0000   0.0000   0.0000   0.0000   0.0000   0.0000   0.0000
     0.0000   0.0000   0.0000   0.0000   0.0000   0.0000   0.0000   0.0000
     0.0000   0.0000

          k =-0.1667 0.1744 0.2675 (  4717 PWs)   bands (ev):

   -10.7667 -10.1604 -10.0507  -9.7644   1.6485   2.2461   2.6545   2.7135
     3.0278   3.2306   3.2509   3.3197   3.8244   4.0719   4.1893   4.8994
     5.3248   5.6045   5.6519   5.9904   6.1585   6.2235   6.2421   6.2756
     6.3239   6.3755   6.4325   6.5182   6.8064   6.8312   6.8708   7.1916
     7.8346   8.2877   8.7440   8.9634  11.8299  12.2971  13.4444  13.7265
    18.3654  18.4677  19.0639  19.9063  20.4417  20.5095  21.1195  22.3382
    22.5748  23.7997

     occupation numbers 
     1.0000   1.0000   1.0000   1.0000   1.0000   1.0000   1.0000   1.0000
     1.0000   1.0000   1.0000   1.0000   1.0000   1.0000   1.0000   1.0000
     1.0000   1.0000   1.0000   1.0000   1.0000   1.0000   1.0000   1.0000
     1.0000   1.0000   1.0000   1.0000   1.0000   1.0000   1.0000   1.0000
     1.0000   1.0000   0.0000   0.0000   0.0000   0.0000   0.0000   0.0000
     0.0000   0.0000   0.0000   0.0000   0.0000   0.0000   0.0000   0.0000
     0.0000   0.0000

          k =-0.1667 0.1744 0.1301 (  4711 PWs)   bands (ev):

   -10.9560 -10.1485  -9.9167  -9.6534   1.0125   1.9886   2.5380   2.6132
     3.0582   3.2714   3.2806   3.6389   3.7773   4.4523   4.9011   4.9820
     5.3101   5.6484   5.6938   6.0914   6.1161   6.1408   6.1958   6.2498
     6.2663   6.2852   6.3943   6.4714   6.6062   6.7213   6.8200   7.2514
     7.5278   8.7154   9.1386   9.3040  11.1256  11.9385  14.2286  14.2884
    16.7538  18.2013  19.0290  19.8253  20.1951  20.2724  21.5923  21.6660
    23.2571  23.2878

     occupation numbers 
     1.0000   1.0000   1.0000   1.0000   1.0000   1.0000   1.0000   1.0000
     1.0000   1.0000   1.0000   1.0000   1.0000   1.0000   1.0000   1.0000
     1.0000   1.0000   1.0000   1.0000   1.0000   1.0000   1.0000   1.0000
     1.0000   1.0000   1.0000   1.0000   1.0000   1.0000   1.0000   1.0000
     1.0000   1.0000   0.0000   0.0000   0.0000   0.0000   0.0000   0.0000
     0.0000   0.0000   0.0000   0.0000   0.0000   0.0000   0.0000   0.0000
     0.0000   0.0000

          k =-0.1667 0.3488-0.0073 (  4691 PWs)   bands (ev):

   -10.8393 -10.3558  -9.7716  -9.6464   1.1041   1.9182   2.1001   2.8880
     3.0234   3.1209   3.1796   3.3273   3.5301   4.4429   4.6826   5.2973
     5.4819   5.8347   5.9310   5.9652   6.0105   6.0703   6.0939   6.1460
     6.2202   6.4383   6.4685   6.6093   6.6462   6.6919   6.8734   7.2010
     7.7180   8.6326   9.1735   9.3955  11.7607  12.6790  13.8871  14.3384
    16.7331  17.2380  18.7845  18.9163  19.6398  20.6281  21.0062  22.3169
    22.8575  23.1202

     occupation numbers 
     1.0000   1.0000   1.0000   1.0000   1.0000   1.0000   1.0000   1.0000
     1.0000   1.0000   1.0000   1.0000   1.0000   1.0000   1.0000   1.0000
     1.0000   1.0000   1.0000   1.0000   1.0000   1.0000   1.0000   1.0000
     1.0000   1.0000   1.0000   1.0000   1.0000   1.0000   1.0000   1.0000
     1.0000   1.0000   0.0000   0.0000   0.0000   0.0000   0.0000   0.0000
     0.0000   0.0000   0.0000   0.0000   0.0000   0.0000   0.0000   0.0000
     0.0000   0.0000

          k =-0.1667 0.3488-0.1447 (  4697 PWs)   bands (ev):

   -10.7767 -10.3164  -9.8563  -9.6950   1.2921   1.9782   2.1843   2.8270
     2.9347   3.0875   3.2961   3.3606   3.5513   4.5527   4.5592   4.9731
     5.4941   5.8457   5.8682   5.9708   6.0548   6.1005   6.1223   6.1848
     6.3040   6.3646   6.5071   6.5431   6.6437   6.6602   6.9050   7.1276
     7.8162   8.4051   9.0634   9.1938  12.0607  12.7989  13.8322  14.0978
    17.2042  17.4129  18.7446  18.8180  19.9660  20.7859  21.0139  22.4678
    22.7578  23.3130

     occupation numbers 
     1.0000   1.0000   1.0000   1.0000   1.0000   1.0000   1.0000   1.0000
     1.0000   1.0000   1.0000   1.0000   1.0000   1.0000   1.0000   1.0000
     1.0000   1.0000   1.0000   1.0000   1.0000   1.0000   1.0000   1.0000
     1.0000   1.0000   1.0000   1.0000   1.0000   1.0000   1.0000   1.0000
     1.0000   1.0000   0.0000   0.0000   0.0000   0.0000   0.0000   0.0000
     0.0000   0.0000   0.0000   0.0000   0.0000   0.0000   0.0000   0.0000
     0.0000   0.0000

          k =-0.1667 0.3488-0.2820 (  4703 PWs)   bands (ev):

   -10.6050 -10.2049 -10.0710  -9.8255   1.7776   2.1890   2.3588   2.7716
     2.7723   3.1534   3.2555   3.3020   3.7716   4.2435   4.2893   4.7438
     5.4520   5.7968   5.8621   5.9349   6.0647   6.1023   6.1772   6.2011
     6.3354   6.4022   6.4817   6.5650   6.6873   6.6948   6.9507   7.0384
     7.9823   7.9992   8.7602   8.8966  12.6284  12.9665  13.6562  13.7436
    17.8856  18.3212  18.8231  19.0007  20.1425  20.7917  21.0250  22.4840
    22.4998  23.0437

     occupation numbers 
     1.0000   1.0000   1.0000   1.0000   1.0000   1.0000   1.0000   1.0000
     1.0000   1.0000   1.0000   1.0000   1.0000   1.0000   1.0000   1.0000
     1.0000   1.0000   1.0000   1.0000   1.0000   1.0000   1.0000   1.0000
     1.0000   1.0000   1.0000   1.0000   1.0000   1.0000   1.0000   1.0000
     1.0000   1.0000   0.0000   0.0000   0.0000   0.0000   0.0000   0.0000
     0.0000   0.0000   0.0000   0.0000   0.0000   0.0000   0.0000   0.0000
     0.0000   0.0000

          k =-0.1667 0.3488 0.4048 (  4716 PWs)   bands (ev):

   -10.4109 -10.2861 -10.0894  -9.9508   2.1248   2.3651   2.4939   2.6842
     2.8010   3.0906   3.1781   3.4814   3.5730   3.8644   4.1725   4.7878
     5.4503   5.7908   5.8528   5.9055   6.1098   6.1120   6.1347   6.1795
     6.3345   6.3731   6.5073   6.6032   6.7097   6.8098   6.9725   6.9952
     7.7658   8.2163   8.4163   8.8212  13.0035  13.0541  13.2969  13.7260
    18.3433  18.7247  19.1303  19.2008  20.2672  20.7509  21.0710  21.5371
    22.8157  22.9939

     occupation numbers 
     1.0000   1.0000   1.0000   1.0000   1.0000   1.0000   1.0000   1.0000
     1.0000   1.0000   1.0000   1.0000   1.0000   1.0000   1.0000   1.0000
     1.0000   1.0000   1.0000   1.0000   1.0000   1.0000   1.0000   1.0000
     1.0000   1.0000   1.0000   1.0000   1.0000   1.0000   1.0000   1.0000
     1.0000   1.0000   0.0000   0.0000   0.0000   0.0000   0.0000   0.0000
     0.0000   0.0000   0.0000   0.0000   0.0000   0.0000   0.0000   0.0000
     0.0000   0.0000

          k =-0.1667 0.3488 0.2675 (  4720 PWs)   bands (ev):

   -10.6112 -10.1991 -10.0644  -9.8320   1.7980   2.2101   2.4203   2.7924
     2.8366   3.1416   3.1605   3.2689   3.6695   4.1529   4.3904   4.6730
     5.5007   5.7889   5.8653   5.9337   6.0669   6.1055   6.1890   6.1939
     6.3495   6.4228   6.5009   6.5809   6.6617   6.6743   6.9107   7.0338
     8.0776   8.0916   8.6905   8.8795  12.5519  12.8599  13.7356  13.8237
    18.0667  18.4564  18.8753  19.1949  20.2931  20.4166  20.5078  22.3298
    22.4449  23.0765

     occupation numbers 
     1.0000   1.0000   1.0000   1.0000   1.0000   1.0000   1.0000   1.0000
     1.0000   1.0000   1.0000   1.0000   1.0000   1.0000   1.0000   1.0000
     1.0000   1.0000   1.0000   1.0000   1.0000   1.0000   1.0000   1.0000
     1.0000   1.0000   1.0000   1.0000   1.0000   1.0000   1.0000   1.0000
     1.0000   1.0000   0.0000   0.0000   0.0000   0.0000   0.0000   0.0000
     0.0000   0.0000   0.0000   0.0000   0.0000   0.0000   0.0000   0.0000
     0.0000   0.0000

          k =-0.1667 0.3488 0.1301 (  4699 PWs)   bands (ev):

   -10.7803 -10.3129  -9.8522  -9.6992   1.3086   2.0190   2.1913   2.8621
     2.9532   3.0828   3.2790   3.2962   3.5113   4.4823   4.5994   4.9024
     5.5156   5.8242   5.8728   5.9697   6.0640   6.0841   6.1393   6.1916
     6.3421   6.3915   6.5156   6.5424   6.6157   6.6589   6.8929   7.1219
     7.8625   8.4991   9.0414   9.1657  12.0050  12.7084  13.8921  14.1487
    17.2926  17.5113  18.9316  19.1398  19.6702  20.5289  20.6332  22.3153
    22.5657  23.8659

     occupation numbers 
     1.0000   1.0000   1.0000   1.0000   1.0000   1.0000   1.0000   1.0000
     1.0000   1.0000   1.0000   1.0000   1.0000   1.0000   1.0000   1.0000
     1.0000   1.0000   1.0000   1.0000   1.0000   1.0000   1.0000   1.0000
     1.0000   1.0000   1.0000   1.0000   1.0000   1.0000   1.0000   1.0000
     1.0000   1.0000   0.0000   0.0000   0.0000   0.0000   0.0000   0.0000
     0.0000   0.0000   0.0000   0.0000   0.0000   0.0000   0.0000   0.0000
     0.0000   0.0000

          k =-0.3333 0.1744-0.0146 (  4715 PWs)   bands (ev):

   -10.8460 -10.3634  -9.7752  -9.6502   1.0949   1.9348   2.0909   2.9219
     3.0612   3.1634   3.2459   3.3234   3.4792   4.5260   4.7187   5.2899
     5.3890   5.8487   5.9055   5.9483   5.9876   6.0454   6.1227   6.1646
     6.1778   6.4057   6.4706   6.6603   6.6737   6.6905   6.8446   7.2308
     7.7260   8.6827   9.1204   9.3809  11.6908  12.5725  13.9239  14.4009
    16.6490  17.1436  18.7712  19.0307  19.8048  21.0236  21.2773  22.5524
    22.8527  23.2155

     occupation numbers 
     1.0000   1.0000   1.0000   1.0000   1.0000   1.0000   1.0000   1.0000
     1.0000   1.0000   1.0000   1.0000   1.0000   1.0000   1.0000   1.0000
     1.0000   1.0000   1.0000   1.0000   1.0000   1.0000   1.0000   1.0000
     1.0000   1.0000   1.0000   1.0000   1.0000   1.0000   1.0000   1.0000
     1.0000   1.0000   0.0000   0.0000   0.0000   0.0000   0.0000   0.0000
     0.0000   0.0000   0.0000   0.0000   0.0000   0.0000   0.0000   0.0000
     0.0000   0.0000

          k =-0.3333 0.1744-0.1519 (  4720 PWs)   bands (ev):

   -10.7798 -10.3271  -9.8645  -9.6956   1.2870   2.0244   2.1832   2.8705
     2.9930   3.1287   3.2946   3.3583   3.5262   4.5501   4.5636   4.9856
     5.4298   5.8061   5.8828   5.9521   6.0649   6.0794   6.1534   6.1556
     6.3026   6.3830   6.4656   6.5485   6.6783   6.6864   6.8757   7.1481
     7.8227   8.4645   9.0123   9.2087  12.0050  12.6911  13.8984  14.1112
    17.2124  17.3704  18.8345  19.0897  19.6438  21.0580  21.2202  22.4029
    22.5462  23.1831

     occupation numbers 
     1.0000   1.0000   1.0000   1.0000   1.0000   1.0000   1.0000   1.0000
     1.0000   1.0000   1.0000   1.0000   1.0000   1.0000   1.0000   1.0000
     1.0000   1.0000   1.0000   1.0000   1.0000   1.0000   1.0000   1.0000
     1.0000   1.0000   1.0000   1.0000   1.0000   1.0000   1.0000   1.0000
     1.0000   1.0000   0.0000   0.0000   0.0000   0.0000   0.0000   0.0000
     0.0000   0.0000   0.0000   0.0000   0.0000   0.0000   0.0000   0.0000
     0.0000   0.0000

          k =-0.3333 0.1744-0.2893 (  4719 PWs)   bands (ev):

   -10.6049 -10.2173 -10.0824  -9.8246   1.7737   2.1981   2.3920   2.8022
     2.8615   3.1729   3.2262   3.2731   3.8156   4.2621   4.2771   4.7345
     5.4510   5.7675   5.8588   5.9168   6.0591   6.0749   6.1711   6.2270
     6.3555   6.4056   6.4671   6.5616   6.6770   6.7029   6.9179   7.0396
     8.0045   8.0056   8.7753   8.8913  12.5860  12.8913  13.6305  13.7734
    17.9240  18.4198  19.0939  19.2353  19.6243  20.8569  21.1650  22.3395
    22.3421  22.9664

     occupation numbers 
     1.0000   1.0000   1.0000   1.0000   1.0000   1.0000   1.0000   1.0000
     1.0000   1.0000   1.0000   1.0000   1.0000   1.0000   1.0000   1.0000
     1.0000   1.0000   1.0000   1.0000   1.0000   1.0000   1.0000   1.0000
     1.0000   1.0000   1.0000   1.0000   1.0000   1.0000   1.0000   1.0000
     1.0000   1.0000   0.0000   0.0000   0.0000   0.0000   0.0000   0.0000
     0.0000   0.0000   0.0000   0.0000   0.0000   0.0000   0.0000   0.0000
     0.0000   0.0000

          k =-0.3333 0.1744 0.3975 (  4721 PWs)   bands (ev):

   -10.4170 -10.2906 -10.0958  -9.9560   2.1207   2.3305   2.4676   2.7583
     2.7857   3.1243   3.2394   3.4991   3.5883   3.9118   4.2054   4.8436
     5.4301   5.7568   5.8463   5.8968   6.0933   6.0949   6.1257   6.1938
     6.3337   6.3622   6.4927   6.6058   6.7023   6.7952   6.9711   6.9972
     7.7428   8.1801   8.4353   8.8408  12.9649  13.0080  13.2683  13.6876
    18.4250  18.8031  19.2579  19.3296  20.2770  20.7296  21.0717  21.5355
    22.8711  23.0492

     occupation numbers 
     1.0000   1.0000   1.0000   1.0000   1.0000   1.0000   1.0000   1.0000
     1.0000   1.0000   1.0000   1.0000   1.0000   1.0000   1.0000   1.0000
     1.0000   1.0000   1.0000   1.0000   1.0000   1.0000   1.0000   1.0000
     1.0000   1.0000   1.0000   1.0000   1.0000   1.0000   1.0000   1.0000
     1.0000   1.0000   0.0000   0.0000   0.0000   0.0000   0.0000   0.0000
     0.0000   0.0000   0.0000   0.0000   0.0000   0.0000   0.0000   0.0000
     0.0000   0.0000

          k =-0.3333 0.1744 0.2602 (  4723 PWs)   bands (ev):

   -10.6232 -10.2001 -10.0620  -9.8428   1.7819   2.1884   2.3411   2.8255
     2.8370   3.1965   3.2598   3.2960   3.7046   4.1653   4.4631   4.8041
     5.4079   5.7481   5.8638   5.9405   6.0388   6.0955   6.1893   6.2056
     6.3331   6.4120   6.4672   6.5963   6.6687   6.6802   6.8956   7.0389
     8.0382   8.0832   8.6499   8.9026  12.4886  12.8100  13.7357  13.7707
    17.9211  18.4057  19.1937  19.2463  20.4763  20.5418  20.7338  22.6159
    22.6204  23.0717

     occupation numbers 
     1.0000   1.0000   1.0000   1.0000   1.0000   1.0000   1.0000   1.0000
     1.0000   1.0000   1.0000   1.0000   1.0000   1.0000   1.0000   1.0000
     1.0000   1.0000   1.0000   1.0000   1.0000   1.0000   1.0000   1.0000
     1.0000   1.0000   1.0000   1.0000   1.0000   1.0000   1.0000   1.0000
     1.0000   1.0000   0.0000   0.0000   0.0000   0.0000   0.0000   0.0000
     0.0000   0.0000   0.0000   0.0000   0.0000   0.0000   0.0000   0.0000
     0.0000   0.0000

          k =-0.3333 0.1744 0.1228 (  4721 PWs)   bands (ev):

   -10.7902 -10.3169  -9.8519  -9.7069   1.2943   1.9928   2.1718   2.8825
     2.9916   3.1215   3.2922   3.3544   3.5130   4.6383   4.6752   4.8790
     5.4065   5.8027   5.8810   5.9600   6.0278   6.0668   6.1651   6.2034
     6.3155   6.3605   6.4982   6.5541   6.6563   6.6751   6.8600   7.1321
     7.8757   8.4847   9.0428   9.1163  11.9326  12.6295  13.8724  14.1906
    17.1954  17.3744  18.9307  19.2888  19.9483  20.9442  20.9455  22.6450
    22.6732  23.5000

     occupation numbers 
     1.0000   1.0000   1.0000   1.0000   1.0000   1.0000   1.0000   1.0000
     1.0000   1.0000   1.0000   1.0000   1.0000   1.0000   1.0000   1.0000
     1.0000   1.0000   1.0000   1.0000   1.0000   1.0000   1.0000   1.0000
     1.0000   1.0000   1.0000   1.0000   1.0000   1.0000   1.0000   1.0000
     1.0000   1.0000   0.0000   0.0000   0.0000   0.0000   0.0000   0.0000
     0.0000   0.0000   0.0000   0.0000   0.0000   0.0000   0.0000   0.0000
     0.0000   0.0000

          k =-0.3333 0.3488-0.0146 (  4704 PWs)   bands (ev):

   -10.7266 -10.4460  -9.7404  -9.6680   1.3105   1.6660   1.8869   2.1905
     3.0042   3.2613   3.3424   3.4239   3.8154   4.5187   4.6996   4.8354
     5.3862   5.7252   5.9056   5.9922   6.0644   6.0837   6.0892   6.1962
     6.3075   6.3740   6.5902   6.7239   6.7924   6.8129   6.9370   7.2588
     8.1668   8.7361   9.1160   9.2724  12.3175  12.6343  13.6215  13.9632
    15.9908  17.2222  17.6253  19.3729  20.2948  21.0869  21.5953  21.8218
    22.4146  23.4642

     occupation numbers 
     1.0000   1.0000   1.0000   1.0000   1.0000   1.0000   1.0000   1.0000
     1.0000   1.0000   1.0000   1.0000   1.0000   1.0000   1.0000   1.0000
     1.0000   1.0000   1.0000   1.0000   1.0000   1.0000   1.0000   1.0000
     1.0000   1.0000   1.0000   1.0000   1.0000   1.0000   1.0000   1.0000
     1.0000   1.0000   0.0000   0.0000   0.0000   0.0000   0.0000   0.0000
     0.0000   0.0000   0.0000   0.0000   0.0000   0.0000   0.0000   0.0000
     0.0000   0.0000

          k =-0.3333 0.3488-0.1519 (  4718 PWs)   bands (ev):

   -10.6692 -10.4069  -9.8162  -9.7175   1.4537   1.7314   1.9960   2.2193
     3.0203   3.1339   3.2107   3.3644   4.0668   4.5022   4.6771   4.8434
     5.3914   5.6928   5.8942   5.9574   6.0484   6.0617   6.1641   6.2039
     6.3304   6.3766   6.5671   6.5947   6.6819   6.8409   6.9089   7.1699
     8.2268   8.4306   9.1255   9.1589  12.5826  12.7253  13.6299  14.0034
    16.2313  17.3261  17.7449  19.3146  19.8512  20.8848  21.8312  22.4097
    22.7187  23.5776

     occupation numbers 
     1.0000   1.0000   1.0000   1.0000   1.0000   1.0000   1.0000   1.0000
     1.0000   1.0000   1.0000   1.0000   1.0000   1.0000   1.0000   1.0000
     1.0000   1.0000   1.0000   1.0000   1.0000   1.0000   1.0000   1.0000
     1.0000   1.0000   1.0000   1.0000   1.0000   1.0000   1.0000   1.0000
     1.0000   1.0000   0.0000   0.0000   0.0000   0.0000   0.0000   0.0000
     0.0000   0.0000   0.0000   0.0000   0.0000   0.0000   0.0000   0.0000
     0.0000   0.0000

          k =-0.3333 0.3488-0.2893 (  4712 PWs)   bands (ev):

   -10.5185 -10.2968 -10.0025  -9.8492   1.8137   1.9058   2.2514   2.3143
     2.9242   2.9857   3.0729   3.2633   4.1656   4.3642   4.5285   5.1419
     5.4009   5.6399   5.8814   5.9343   6.0276   6.0309   6.1843   6.2178
     6.2859   6.3847   6.3857   6.5829   6.6155   6.6680   6.9290   7.0312
     7.9656   8.3254   8.9243   9.1374  12.8595  12.9708  13.6908  14.0908
    16.8706  17.6064  18.0779  18.6881  20.1034  20.6099  21.8793  22.7351
    23.3892  23.6324

     occupation numbers 
     1.0000   1.0000   1.0000   1.0000   1.0000   1.0000   1.0000   1.0000
     1.0000   1.0000   1.0000   1.0000   1.0000   1.0000   1.0000   1.0000
     1.0000   1.0000   1.0000   1.0000   1.0000   1.0000   1.0000   1.0000
     1.0000   1.0000   1.0000   1.0000   1.0000   1.0000   1.0000   1.0000
     1.0000   1.0000   0.0000   0.0000   0.0000   0.0000   0.0000   0.0000
     0.0000   0.0000   0.0000   0.0000   0.0000   0.0000   0.0000   0.0000
     0.0000   0.0000

          k =-0.3333 0.3488 0.3975 (  4711 PWs)   bands (ev):

   -10.3801 -10.1966 -10.1581  -9.9606   2.0292   2.0338   2.4230   2.4280
     2.7818   2.8572   3.2086   3.2285   3.6608   4.3561   4.6765   5.2825
     5.4441   5.6191   5.8839   5.9216   6.0357   6.0707   6.0876   6.2081
     6.2181   6.3014   6.3270   6.5705   6.6174   6.7749   6.8248   6.9660
     7.7879   8.3794   8.7975   9.1421  12.9000  13.0949  13.7612  14.1394
    17.6862  17.8195  17.9667  18.0626  20.8269  20.8513  21.5284  21.9695
    23.7073  23.7553

     occupation numbers 
     1.0000   1.0000   1.0000   1.0000   1.0000   1.0000   1.0000   1.0000
     1.0000   1.0000   1.0000   1.0000   1.0000   1.0000   1.0000   1.0000
     1.0000   1.0000   1.0000   1.0000   1.0000   1.0000   1.0000   1.0000
     1.0000   1.0000   1.0000   1.0000   1.0000   1.0000   1.0000   1.0000
     1.0000   1.0000   0.0000   0.0000   0.0000   0.0000   0.0000   0.0000
     0.0000   0.0000   0.0000   0.0000   0.0000   0.0000   0.0000   0.0000
     0.0000   0.0000

          k =-0.3333 0.3488 0.2602 (  4721 PWs)   bands (ev):

   -10.5283 -10.2877  -9.9919  -9.8593   1.8578   1.9092   2.2626   2.3676
     2.9439   2.9664   3.0113   3.2593   4.0723   4.2387   4.6161   5.1119
     5.4339   5.6494   5.9044   5.9107   6.0180   6.0729   6.2016   6.2327
     6.2858   6.3729   6.3822   6.5550   6.6122   6.6575   6.9082   7.0396
     8.0744   8.4110   8.8288   9.1351  12.8199  12.8574  13.8023  14.0955
    16.9783  17.6575  18.2264  18.5793  20.1958  20.5026  21.5671  22.8048
    23.4574  23.6979

     occupation numbers 
     1.0000   1.0000   1.0000   1.0000   1.0000   1.0000   1.0000   1.0000
     1.0000   1.0000   1.0000   1.0000   1.0000   1.0000   1.0000   1.0000
     1.0000   1.0000   1.0000   1.0000   1.0000   1.0000   1.0000   1.0000
     1.0000   1.0000   1.0000   1.0000   1.0000   1.0000   1.0000   1.0000
     1.0000   1.0000   0.0000   0.0000   0.0000   0.0000   0.0000   0.0000
     0.0000   0.0000   0.0000   0.0000   0.0000   0.0000   0.0000   0.0000
     0.0000   0.0000

          k =-0.3333 0.3488 0.1228 (  4715 PWs)   bands (ev):

   -10.6752 -10.4012  -9.8095  -9.7242   1.4903   1.7343   2.0031   2.2435
     2.9819   3.1651   3.1937   3.3610   3.9827   4.5423   4.5941   4.8360
     5.4001   5.7051   5.9164   5.9329   6.0369   6.0854   6.1676   6.2193
     6.3392   6.3672   6.5500   6.6001   6.6762   6.8348   6.8979   7.1758
     8.2894   8.5419   9.0879   9.1209  12.4789  12.6882  13.7221  14.0061
    16.2917  17.3383  17.8947  19.4311  19.9064  20.4480  21.7095  22.3423
    22.9272  23.5340

     occupation numbers 
     1.0000   1.0000   1.0000   1.0000   1.0000   1.0000   1.0000   1.0000
     1.0000   1.0000   1.0000   1.0000   1.0000   1.0000   1.0000   1.0000
     1.0000   1.0000   1.0000   1.0000   1.0000   1.0000   1.0000   1.0000
     1.0000   1.0000   1.0000   1.0000   1.0000   1.0000   1.0000   1.0000
     1.0000   1.0000   0.0000   0.0000   0.0000   0.0000   0.0000   0.0000
     0.0000   0.0000   0.0000   0.0000   0.0000   0.0000   0.0000   0.0000
     0.0000   0.0000

          k = 0.5000 0.1744-0.1155 (  4723 PWs)   bands (ev):

   -10.5600 -10.5481  -9.7838  -9.7702   1.6803   1.7118   2.3374   2.3504
     3.0839   3.0997   3.2575   3.2925   3.9770   4.0530   4.7369   4.8589
     5.6265   5.6508   5.9404   5.9662   5.9986   6.0468   6.1589   6.1599
     6.3498   6.3500   6.5193   6.5338   6.7895   6.7989   6.9270   6.9332
     8.2059   8.2423   8.9425   9.0396  12.7044  12.7440  13.8334  13.9036
    17.5966  17.6558  18.3097  18.3890  20.2694  20.4375  21.6330  21.6494
    23.0092  23.0462

     occupation numbers 
     1.0000   1.0000   1.0000   1.0000   1.0000   1.0000   1.0000   1.0000
     1.0000   1.0000   1.0000   1.0000   1.0000   1.0000   1.0000   1.0000
     1.0000   1.0000   1.0000   1.0000   1.0000   1.0000   1.0000   1.0000
     1.0000   1.0000   1.0000   1.0000   1.0000   1.0000   1.0000   1.0000
     1.0000   1.0000   0.0000   0.0000   0.0000   0.0000   0.0000   0.0000
     0.0000   0.0000   0.0000   0.0000   0.0000   0.0000   0.0000   0.0000
     0.0000   0.0000

          k = 0.5000 0.1744-0.2529 (  4719 PWs)   bands (ev):

   -10.4225 -10.4022  -9.9596  -9.9375   1.9871   2.0245   2.4219   2.4476
     2.9788   2.9839   3.2450   3.2986   4.1752   4.2504   4.3779   4.5088
     5.6227   5.6451   5.9423   5.9619   5.9875   6.0077   6.1504   6.1626
     6.3873   6.3961   6.5286   6.5371   6.7587   6.7778   6.8288   6.8366
     8.0625   8.0770   8.6864   8.7593  13.0003  13.0363  13.7666  13.8346
    18.0811  18.1611  18.9534  18.9808  20.0474  20.5094  21.5984  21.7495
    22.7161  22.8900

     occupation numbers 
     1.0000   1.0000   1.0000   1.0000   1.0000   1.0000   1.0000   1.0000
     1.0000   1.0000   1.0000   1.0000   1.0000   1.0000   1.0000   1.0000
     1.0000   1.0000   1.0000   1.0000   1.0000   1.0000   1.0000   1.0000
     1.0000   1.0000   1.0000   1.0000   1.0000   1.0000   1.0000   1.0000
     1.0000   1.0000   0.0000   0.0000   0.0000   0.0000   0.0000   0.0000
     0.0000   0.0000   0.0000   0.0000   0.0000   0.0000   0.0000   0.0000
     0.0000   0.0000

          k = 0.5000 0.3488-0.1155 (  4715 PWs)   bands (ev):

   -10.5371 -10.5305  -9.7662  -9.7587   1.6642   1.7424   1.8148   1.8562
     3.0318   3.0644   3.3194   3.3364   4.4351   4.4461   4.6068   4.6229
     5.4965   5.5091   5.9742   5.9868   6.0065   6.0232   6.1962   6.2009
     6.3437   6.3453   6.5732   6.6264   6.8431   6.8656   7.0114   7.0236
     8.5268   8.5369   9.0453   9.1074  12.6741  12.7083  13.8698  13.8898
    16.2146  16.2294  18.7006  18.8531  19.9920  20.4086  22.3184  22.4637
    22.8474  22.9223

     occupation numbers 
     1.0000   1.0000   1.0000   1.0000   1.0000   1.0000   1.0000   1.0000
     1.0000   1.0000   1.0000   1.0000   1.0000   1.0000   1.0000   1.0000
     1.0000   1.0000   1.0000   1.0000   1.0000   1.0000   1.0000   1.0000
     1.0000   1.0000   1.0000   1.0000   1.0000   1.0000   1.0000   1.0000
     1.0000   1.0000   0.0000   0.0000   0.0000   0.0000   0.0000   0.0000
     0.0000   0.0000   0.0000   0.0000   0.0000   0.0000   0.0000   0.0000
     0.0000   0.0000

          k = 0.5000 0.3488-0.2529 (  4724 PWs)   bands (ev):

   -10.4140 -10.4035  -9.9207  -9.9093   1.8777   1.9273   2.0549   2.0670
     2.9285   2.9870   3.1603   3.1715   4.2383   4.2765   4.9707   5.0203
     5.4803   5.4934   5.9435   5.9504   5.9769   5.9831   6.2065   6.2189
     6.3055   6.3150   6.4368   6.4868   6.6604   6.6635   6.9119   6.9140
     8.2972   8.3332   9.0631   9.0906  12.9002  12.9224  14.0846  14.1006
    16.7417  16.7512  18.2661  18.3926  20.1108  20.4951  22.7597  22.9184
    23.1226  23.1320

     occupation numbers 
     1.0000   1.0000   1.0000   1.0000   1.0000   1.0000   1.0000   1.0000
     1.0000   1.0000   1.0000   1.0000   1.0000   1.0000   1.0000   1.0000
     1.0000   1.0000   1.0000   1.0000   1.0000   1.0000   1.0000   1.0000
     1.0000   1.0000   1.0000   1.0000   1.0000   1.0000   1.0000   1.0000
     1.0000   1.0000   0.0000   0.0000   0.0000   0.0000   0.0000   0.0000
     0.0000   0.0000   0.0000   0.0000   0.0000   0.0000   0.0000   0.0000
     0.0000   0.0000

     highest occupied, lowest unoccupied level (ev):     9.2152    8.1404

!    total energy              =   -1018.80071624 Ry

     total all-electron energy =    -13841.707341 Ry
     estimated scf accuracy    <       0.00000041 Ry

     The total energy is the sum of the following terms:
     one-electron contribution =    -198.01602874 Ry
     hartree contribution      =     177.16849020 Ry
     xc contribution           =    -207.88723376 Ry
     ewald contribution        =    -392.30677102 Ry
     one-center paw contrib.   =    -397.75917292 Ry
      -> PAW hartree energy AE =      96.76694090 Ry
      -> PAW hartree energy PS =     -96.06462896 Ry
      -> PAW xc energy AE      =    -134.83473070 Ry
      -> PAW xc energy PS      =      44.28430793 Ry
      -> total E_H with PAW    =     177.87080215 Ry
      -> total E_XC with PAW   =    -298.43765652 Ry

     convergence has been achieved in  14 iterations

     Writing all to output data dir ./tmp/CuO.save/

     init_run     :     42.63s CPU     25.62s WALL (       1 calls)
     electrons    :   2016.46s CPU   1132.70s WALL (       1 calls)

     Called by init_run:
     wfcinit      :     40.32s CPU     23.96s WALL (       1 calls)
     wfcinit:atom :      0.65s CPU      0.36s WALL (     112 calls)
     wfcinit:wfcr :     38.92s CPU     23.19s WALL (     112 calls)
     potinit      :      0.86s CPU      0.63s WALL (       1 calls)
     hinit0       :      1.05s CPU      0.78s WALL (       1 calls)

     Called by electrons:
     c_bands      :   1708.68s CPU    958.16s WALL (      14 calls)
     sum_band     :    300.64s CPU    170.42s WALL (      14 calls)
     v_of_rho     :      0.93s CPU      0.55s WALL (      15 calls)
     v_h          :      0.08s CPU      0.04s WALL (      15 calls)
     v_xc         :      0.85s CPU      0.51s WALL (      15 calls)
     newd         :      3.96s CPU      2.22s WALL (      15 calls)
     PAW_pot      :      2.52s CPU      1.50s WALL (      15 calls)
     mix_rho      :      0.20s CPU      0.12s WALL (      14 calls)

     Called by c_bands:
     init_us_2    :     10.78s CPU      5.78s WALL (    3248 calls)
     init_us_2:cp :     10.76s CPU      5.77s WALL (    3248 calls)
     cegterg      :   1675.27s CPU    940.10s WALL (    1568 calls)

     Called by sum_band:
     sum_band:wei :      0.00s CPU      0.00s WALL (      14 calls)
     sum_band:loo :    294.80s CPU    166.82s WALL (      14 calls)
     sum_band:buf :      0.24s CPU      0.18s WALL (    1568 calls)
     sum_band:ini :      4.29s CPU      2.43s WALL (    1568 calls)
     sum_band:cal :     34.06s CPU     18.71s WALL (    1568 calls)
     sum_band:bec :     37.19s CPU     20.06s WALL (    1568 calls)
     addusdens    :      3.10s CPU      1.96s WALL (      14 calls)
     addusd:skk   :      0.03s CPU      0.02s WALL (      28 calls)
     addusd:dgemm :      0.79s CPU      0.74s WALL (      28 calls)
     addusd:qvan2 :      2.13s CPU      1.12s WALL (      28 calls)

     Called by *egterg:
     cdiaghg      :     98.27s CPU     54.48s WALL (    6318 calls)
     cegterg:over :    122.04s CPU     67.70s WALL (    4750 calls)
     cegterg:upda :    109.37s CPU     59.53s WALL (    4750 calls)
     cegterg:last :     71.12s CPU     38.76s WALL (    2608 calls)
     cdiaghg:chol :      7.36s CPU      3.99s WALL (    6318 calls)
     cdiaghg:inve :      1.60s CPU      0.88s WALL (    6318 calls)
     cdiaghg:para :     14.91s CPU      8.82s WALL (   12636 calls)
     h_psi        :   1072.45s CPU    611.26s WALL (    6430 calls)
     s_psi        :     28.38s CPU     16.85s WALL (    6430 calls)
     g_psi        :     22.30s CPU     12.20s WALL (    4750 calls)

     Called by h_psi:
     h_psi:calbec :    133.12s CPU     73.02s WALL (    6430 calls)
     vloc_psi     :    894.38s CPU    513.10s WALL (    6430 calls)
     add_vuspsi   :     14.02s CPU      8.24s WALL (    6430 calls)

     General routines
     calbec       :    167.13s CPU     91.70s WALL (    7998 calls)
     fft          :      1.18s CPU      0.77s WALL (     193 calls)
     ffts         :      0.97s CPU      0.56s WALL (      29 calls)
     fftw         :    999.82s CPU    573.28s WALL (  443076 calls)
     interpolate  :      0.20s CPU      0.15s WALL (      15 calls)

     Parallel routines

     PAW routines
     PAW_pot      :      2.52s CPU      1.50s WALL (      15 calls)
     PAW_symme    :      0.17s CPU      0.09s WALL (      29 calls)

     PWSCF        :  34m20.91s CPU  19m19.83s WALL


   This run was terminated on:   2:56:32   8Jul2025            

=------------------------------------------------------------------------------=
   JOB DONE.
=------------------------------------------------------------------------------=
